#p b3lyp/6-31g nosymm density=current sp

Verify additional points: Sm atoms correspond to centroids, Am to +1Å, and Lr to -1Å

0 1
C -1.208722 -0.697855 0.000000
C -1.208722 0.697857 0.000000
C 0.000000 1.395712 0.000000
C 1.208722 0.697855 0.000000
C 1.208722 -0.697857 0.000000
C 0.000000 -1.395712 0.000000
H -2.149680 -1.241116 0.000000
H -2.149680 1.241119 0.000000
H -0.000002 2.482237 0.000000
H 2.149680 1.241116 0.000000
H 2.149680 -1.241119 0.000000
H 0.000002 -2.482237 0.000000
Sm   0.000000  0.000000  0.000000
Am   0.000000  0.000000  1.000000
Lr   0.000000  0.000000 -1.000000