%chk=f3.chk
#P B3LYP/6-31G* nosymm Density=Current

Single-Point F3

0 1
C       0.01744677    -0.59455188     0.27001190
C      -0.68856163     0.95659982     2.45811724
H       0.93457533     1.18579500     1.04531888
H      -0.65413861     1.46979573     0.38562133
C       0.76562683    -1.10955809    -2.34972854
H      -0.52613156     3.13836069     2.24789819
H      -0.80908233     0.15226174    -1.56626291
H       0.85947897     2.39118706     3.06788713
H      -0.68128630     2.58648135     3.92712566
H       0.80739729     0.72819497    -1.26259712
C       1.15312198    -1.45377306     0.83122168
C       2.29058613    -1.23653534    -2.30550080
C      -0.33473726    -0.08750139     3.51984204
C       2.68202598    -2.58850103    -2.31873413
C      -1.50392814    -0.62286033     4.09815118
C       0.66371020    -2.69278422     1.28721617
C      -0.78334607    -2.73786753     1.05698468
C      -2.67131995    -0.00712702     3.45770637
C       1.47503307    -3.42160955    -2.34972854
C      -2.21795861     0.90819783     2.48943242
C       0.34332601    -2.58050128    -2.34972854
C      -1.18293752    -1.52504321     0.46353089
C      -2.51526842    -1.32700046     0.11487523
C      -0.93091106    -3.13025855    -2.44645324
C      -3.12926395     1.66904901     1.76477261
C      -3.44876530    -2.33659184     0.37347525
C      -4.49958567     1.49543601     1.99241375
C      -1.07343155    -4.52056469    -2.50783025
C      -4.94890850     0.57340401     2.94370519
C       0.05008072    -5.35357590    -2.48636224
C      -3.04915481    -3.53782178     0.96855304
C      -1.71278233    -3.74680631     1.31353493
C       1.33313507    -4.80922128    -2.41218080
C      -4.03760036    -0.18106793     3.68587175
H      -4.39121809    -0.88996492     4.43031179
H       2.20572913    -5.45767341    -2.41023821
H      -1.40345195    -4.68429649     1.76838088
H      -3.78478230    -4.31390351     1.16409160
H      -0.07665766    -6.43210167    -2.53407781
H      -6.01552879     0.44849344     3.11150088
H      -4.49297312    -2.18137900     0.11592899
H      -5.21894601     2.08441803     1.42928955
H      -2.06739064    -4.95525939    -2.56834247
H      -2.84361206    -0.39581912    -0.33813632
H      -2.79113076     2.39372100     1.02671654
H      -1.81276445    -2.49715445    -2.45577880
C       1.52311125    -3.63263584     1.85782260
C       4.03406208    -2.93642469    -2.32374145
C      -1.42567562    -1.55233431     5.13717669
C       2.87960690    -3.32431142     1.97433436
C       4.99372179    -1.92175419    -2.32348191
C      -0.16820112    -1.93697899     5.60498979
C       3.36829955    -2.09214871     1.52738843
C       4.60638926    -0.57751397    -2.32775859
C       0.99278288    -1.39066917     5.04795066
C       3.25026959    -0.22994626    -2.32331001
C       0.91392653    -0.45804805     4.00821574
C       2.50489689    -1.15012470     0.95745199
H       2.96103328     0.81905719    -2.33358469
H       1.82465423    -0.04800553     3.58259215
H       2.90143306    -0.20243957     0.60438051
H       4.42754830    -1.86610786     1.61504937
H       5.36328705     0.20252075    -2.33915413
H       1.96639495    -1.69461109     5.42253959
H       3.56137023    -4.04750502     2.41466296
H       6.04993553    -2.17835940    -2.32745535
H      -0.09072305    -2.66089878     6.41214191
H       1.14482138    -4.58811271     2.21196239
H       4.33976593    -3.97961769    -2.32908231
H      -2.32757316    -1.96606821     5.58141549
C       0.18517737    -0.17615138    -1.23796577
C      -0.23028747     2.35607926     2.95711268
C      -0.08580938     0.78250985     1.02619338
C       0.36388959    -0.47229454    -3.70983404
H       0.70591577     0.56796480    -3.76940232
H      -0.72485034    -0.48071830    -3.83498185
H       0.80916423    -1.02610567    -4.54197517


