%chk=f2-6-31+Gstar_SP.chk
#p B3LYP/6-31+G* nosymm density=current sp

Single-Point F2 6-31+G*

0 1
C        -0.68735171       0.78950504      -1.66163390
C        -0.59425358       1.60164078       0.96921840
H        -2.05979750       2.01811374      -0.56849900
H        -0.51029331       2.77599379      -0.82009232
C         0.66636012       0.07609137      -1.63084997
C         0.89598429       1.80897456       1.25321449
C         1.43888851       0.69854153       1.92796718
C         0.49231022      -1.32366377      -1.64306640
C        -0.94552822      -1.61917573      -1.66163390
C         0.37648284      -0.29749334       2.11304905
C        -0.81621210       0.20339650       1.55062347
C        -1.65096578      -0.40038441      -1.66163390
C        -3.04142805      -0.39611619      -1.72724544
C        -1.99649904      -0.52726084       1.65954346
C        -3.72940268      -1.61638222      -1.77052609
C        -1.97670951      -1.77103511       2.30314720
C        -0.78662777      -2.27495903       2.84307555
C        -3.02661501      -2.82801333      -1.75399860
C        -1.62935874      -2.83722697      -1.70350319
C         0.39790062      -1.53854635       2.75568635
H         1.31731779      -1.92560500       3.18881572
H        -1.08847701      -3.78063301      -1.69879210
H        -3.57175715      -3.76812458      -1.78752881
H        -0.78602454      -3.24247452       3.33915848
H        -4.81552695      -1.62253210      -1.82084522
H        -2.89302939      -2.35060737       2.38029250
H        -3.59909833       0.53856157      -1.74584638
H        -2.92727521      -0.15216803       1.24327697
C         1.59557775      -2.18113791      -1.67743293
C         2.77912996       0.69184697       2.32384382
C         2.87932513      -1.62981209      -1.71049051
C         3.57256725       1.80936358       2.04711839
C         3.05459342      -0.24022345      -1.71869275
C         3.03000203       2.92141781       1.39046436
C         1.68592308       2.92529810       0.99337737
C         1.94802829       0.61763926      -1.68422944
H         1.27511013       3.79779180       0.48844736
H         2.10142284       1.69317409      -1.68781196
H         4.05756010       0.17771370      -1.74840243
H         3.65465656       3.78867027       1.19067508
H         3.74767481      -2.28362322      -1.73663089
H         4.61681222       1.81826346       2.34974990
H         1.46201476      -3.26041023      -1.68608686
H         3.20340577      -0.16565347       2.84082620
C        -0.83365565       1.54997762      -3.00975301
H        -0.72136359       0.86420037      -3.85576441
H        -1.81962510       2.02515072      -3.08267399
H        -0.07061611       2.33223685      -3.09773665
C        -0.97929042       1.82679237      -0.52911073
C        -1.40863900       2.63479792       1.79770399
H        -1.22355658       3.65418967       1.43738250
H        -2.48349583       2.43448782       1.71735799
H        -1.12925832       2.59016540       2.85533877



