53
Generated from .fchk
C -0.846544 1.086597 1.399810
C 0.846326 -1.086835 1.400106
H -0.698880 -0.521693 2.806803
H 0.697893 0.521221 2.807199
C -0.225864 1.741201 0.163407
C 2.159541 -0.549133 0.824960
C 2.283554 -0.877812 -0.538744
C -1.083931 1.617990 -0.949381
C -2.283647 0.878083 -0.539173
C 1.084242 -1.618346 -0.948996
C 0.226124 -1.741859 0.163709
C -2.159915 0.549440 0.824564
C -3.191298 -0.116422 1.480754
C -0.955320 -2.470357 0.052886
C -4.341305 -0.474422 0.764129
C -1.292363 -3.048194 -1.177601
C -0.448002 -2.906918 -2.286137
C -4.455668 -0.161049 -0.596368
C -3.428867 0.521098 -1.256152
C 0.749345 -2.194428 -2.177665
H 1.410163 -2.098877 -3.036113
H -3.526212 0.768780 -2.310556
H -5.352646 -0.444548 -1.141503
H -0.722949 -3.360189 -3.235418
H -5.151442 -0.995632 1.268365
H -2.219374 -3.607814 -1.272330
H -3.116959 -0.361229 2.538822
H -1.622833 -2.586578 0.902142
C -0.748632 2.193734 -2.178094
C 3.428569 -0.520166 -1.255710
C 0.449080 2.905623 -2.286539
C 4.454895 0.162723 -0.595952
C 1.293403 3.046591 -1.177941
C 4.340251 0.476171 0.764505
C 3.190451 0.117479 1.481123
C 0.955970 2.469064 0.052589
H 3.115936 0.362358 2.539163
H 1.623540 2.585021 0.901837
H 2.220727 3.605696 -1.272641
H 5.150010 0.997973 1.268736
H 0.724347 3.358650 -3.235843
H 5.351699 0.446784 -1.141080
H -1.409429 2.098410 -3.036583
H 3.526102 -0.767884 -2.310087
C -1.174186 2.185491 2.449682
H -1.836404 2.945140 2.021855
H -1.672441 1.750469 3.324748
H -0.257516 2.681038 2.790342
C -0.000341 -0.000168 2.139191
C 1.174169 -2.185357 2.450246
H 1.672202 -1.750008 3.325278
H 0.257601 -2.681073 2.790930
H 1.836642 -2.944934 2.022684