#p b3lyp/6-31g nosymm density=current sp

Verify additional points: Sm atoms correspond to centroids, Am to +1Å, and Lr to -1Å

0 1
C 1.501854 -0.114647 0.645840
C -0.754833 0.503674 -4.267597
C -0.126661 -0.097449 -1.630979
H 1.702218 -1.141152 -1.254504
H 1.911375 0.583439 -1.334277
C 3.649806 -0.950245 2.193682
H 1.061826 0.815584 -3.202149
H 3.610346 0.201547 0.366189
H 0.705754 -0.867224 -3.458118
H 3.141278 -1.463826 0.191089
C 0.491543 -0.864765 1.515040
C -2.157645 -0.106777 -4.250861
C 3.240071 -2.331773 2.708686
C -0.940903 -1.377951 -1.426403
C 2.779598 -2.256482 4.033258
C -2.186142 -1.093499 -0.846618
C -3.137295 0.903262 -4.255346
C -0.164082 0.023834 2.387576
C 0.350374 1.376836 2.161875
C -2.469752 2.208510 -4.255346
C -2.279827 0.353336 -0.636583
C 2.840372 -0.857678 4.467929
C -1.090599 0.957284 -1.085755
C 3.334042 -0.074810 3.408061
C -1.081166 1.998698 -4.255346
C 1.322948 1.319090 1.152690
C 1.983045 2.472293 0.750355
C -0.211156 3.079275 -4.312721
C 3.568400 1.280769 3.598703
C -0.943595 2.335792 -1.005354
C 1.666158 3.689046 1.359434
C -0.732569 4.374982 -4.344850
C -1.978765 3.104906 -0.473437
C 3.274747 1.858211 4.835366
C -3.155565 2.501998 -0.025502
C 2.760762 1.084249 5.877526
C 0.695954 3.744852 2.361991
C -2.113164 4.582757 -4.326256
C 0.032065 2.589364 2.769803
C -2.991079 3.501084 -4.285913
C 2.545258 -0.280731 5.702627
C -3.314531 1.120978 -0.104540
H -4.229955 0.653241 0.240730
H 2.162583 -0.883509 6.519040
H -0.719172 2.638374 3.550074
H -4.062642 3.667940 -4.280491
H 0.457934 4.695389 2.826689
H -2.504548 5.593788 -4.350608
H 2.535959 1.548001 6.831733
H -3.951023 3.114211 0.385385
H 2.175684 4.595561 1.051290
H -0.060891 5.225286 -4.388079
H -1.865359 4.180644 -0.408807
H 3.443928 2.918494 4.984804
H 2.739183 2.443243 -0.028635
H 0.864169 2.931514 -4.332688
H -0.039956 2.822249 -1.347055
H 3.962493 1.896949 2.799800
C -4.492936 0.580845 -4.307544
C -1.125789 -0.435774 3.285817
C 2.391656 -3.408859 4.715161
C -3.092152 -2.117117 -0.577414
C -4.864923 -0.760007 -4.370334
C -1.428850 -1.794560 3.310012
C 2.476726 -4.639012 4.065650
C -2.744062 -3.428747 -0.894711
C -3.893871 -1.762947 -4.391954
C -0.777917 -2.679476 2.448496
C 2.951712 -4.717346 2.754998
C -1.506109 -3.713646 -1.474221
C 3.338852 -3.561725 2.072044
C -0.598598 -2.685817 -1.742305
C -2.536741 -1.440040 -4.337818
C 0.184111 -2.218518 1.549567
H 3.711101 -3.637160 1.055041
H 0.361115 -2.921517 -2.192652
H 0.677137 -2.920474 0.890668
H -1.796916 -2.231061 -4.351185
H -4.194943 -2.802896 -4.446907
H -1.019983 -3.735363 2.476035
H 3.023759 -5.682324 2.265444
H -1.247426 -4.738691 -1.716521
H -5.915199 -1.027155 -4.411147
H -2.174362 -2.169010 4.003110
H 2.178630 -5.543735 4.583892
H -3.439778 -4.235210 -0.690471
H -5.248331 1.359105 -4.308718
H -1.629452 0.250918 3.957211
H 2.030267 -3.354772 5.736234
H -4.055589 -1.901563 -0.129190
C -0.074629 0.158745 -5.621275
H -0.685408 0.506451 -6.456656
H 0.907669 0.634610 -5.694580
H 0.060700 -0.921604 -5.720525
C 2.995400 -0.581507 0.821964
C 0.252744 0.080521 -3.148881
C 1.270988 -0.196121 -0.910526
C 5.185817 -0.947056 1.959723
H 5.454604 -1.615829 1.136785
H 5.535896 0.058444 1.711259
H 5.710781 -1.281537 2.856578
Sm  -1.599814  3.290884 -4.296739
Am  -1.586348  3.322632 -3.297333
Lr  -1.613281  3.259136 -5.296144
Sm  -1.920138  1.101473 -4.256899
Am  -1.916209  1.101008 -3.256907
Lr  -1.924067  1.101939 -5.256891
Sm  -3.513902 -0.430944 -4.318976
Am  -3.545834 -0.474661 -3.320443
Lr  -3.481970 -0.387227 -5.317510
Sm  -2.156823  1.453878 -0.571547
Am  -1.760475  1.356495  0.341374
Lr  -2.553172  1.551260 -1.484468
Sm  -1.324826 -0.251656 -1.125268
Am  -0.926234 -0.358724 -0.214411
Lr  -1.723419 -0.144587 -2.036124
Sm  -2.093874 -2.346192 -1.043873
Am  -1.695187 -2.460740 -0.133968
Lr  -2.492560 -2.231644 -1.953779