#p b3lyp/6-31g nosymm density=current sp

Verify additional points: Sm atoms correspond to centroids, Am to +1Å, and Lr to -1Å

0 1
C 1.396252 -0.032216 0.000000
C 0.670225 -1.225293 0.000000
C -0.726026 -1.193079 0.000000
C -1.396252 0.032216 -0.000000
C -0.670225 1.225293 0.000000
C 0.726026 1.193079 0.000000
H 2.482975 -0.057293 0.000000
H 1.191872 -2.178960 0.000000
H -1.291100 -2.121672 0.000000
H -2.482975 0.057293 0.000000
H -1.191872 2.178960 0.000000
H 1.291100 2.121672 -0.000000
Sm   0.000000 -0.000001  0.000000
Am   0.000000 -0.000001  1.000000
Lr   0.000000 -0.000001 -1.000000