29
Generated from .fchk
C -0.000146 1.417322 -0.000020
C 1.181638 0.446710 -0.000046
C 0.734974 -0.890885 -0.000024
C -0.734789 -0.891006 -0.000023
C -1.181627 0.446525 -0.000012
C -2.544650 0.729870 -0.000035
C -3.463950 -0.328647 -0.000035
C -3.018689 -1.656701 0.000007
C -1.650626 -1.947310 -0.000011
H -1.310782 -2.980433 0.000002
H -3.742478 -2.467982 -0.000006
H -4.530387 -0.117155 -0.000070
H -2.901933 1.757657 -0.000065
C 1.650780 -1.947218 0.000012
C 3.018835 -1.656589 -0.000004
C 3.463969 -0.328500 -0.000038
C 2.544667 0.730017 -0.000061
H 2.902072 1.757764 -0.000129
H 4.530397 -0.116948 -0.000071
H 3.742729 -2.467776 0.000012
H 1.310773 -2.980280 0.000037
C -0.000182 2.306283 -1.265163
H -0.000644 1.697348 -2.175506
H -0.886442 2.951960 -1.284338
H 0.886534 2.951307 -1.284739
C -0.000128 2.305978 1.265366
H 0.886707 2.950831 1.285166
H -0.886273 2.951808 1.284672
H -0.000731 1.696808 2.175555