 Entering Gaussian System, Link 0=g16
 Initial command:
 /sw/cluster/pub/apps//g16/l1.exe "/data/mmaximo/44338/Gau-1904356.inp" -scrdir="/data/mmaximo/44338/"
 Entering Link 1 = /sw/cluster/pub/apps//g16/l1.exe PID=   1904362.
  
 Copyright (c) 1988,1990,1992,1993,1995,1998,2003,2009,2016,
            Gaussian, Inc.  All Rights Reserved.
  
 This is part of the Gaussian(R) 16 program.  It is based on
 the Gaussian(R) 09 system (copyright 2009, Gaussian, Inc.),
 the Gaussian(R) 03 system (copyright 2003, Gaussian, Inc.),
 the Gaussian(R) 98 system (copyright 1998, Gaussian, Inc.),
 the Gaussian(R) 94 system (copyright 1995, Gaussian, Inc.),
 the Gaussian 92(TM) system (copyright 1992, Gaussian, Inc.),
 the Gaussian 90(TM) system (copyright 1990, Gaussian, Inc.),
 the Gaussian 88(TM) system (copyright 1988, Gaussian, Inc.),
 the Gaussian 86(TM) system (copyright 1986, Carnegie Mellon
 University), and the Gaussian 82(TM) system (copyright 1983,
 Carnegie Mellon University). Gaussian is a federally registered
 trademark of Gaussian, Inc.
  
 This software contains proprietary and confidential information,
 including trade secrets, belonging to Gaussian, Inc.
  
 This software is provided under written license and may be
 used, copied, transmitted, or stored only in accord with that
 written license.
  
 The following legend is applicable only to US Government
 contracts under FAR:
  
                    RESTRICTED RIGHTS LEGEND
  
 Use, reproduction and disclosure by the US Government is
 subject to restrictions as set forth in subparagraphs (a)
 and (c) of the Commercial Computer Software - Restricted
 Rights clause in FAR 52.227-19.
  
 Gaussian, Inc.
 340 Quinnipiac St., Bldg. 40, Wallingford CT 06492
  
  
 ---------------------------------------------------------------
 Warning -- This program may not be used in any manner that
 competes with the business of Gaussian, Inc. or will provide
 assistance to any competitor of Gaussian, Inc.  The licensee
 of this program is prohibited from giving any competitor of
 Gaussian, Inc. access to this program.  By using this program,
 the user acknowledges that Gaussian, Inc. is engaged in the
 business of creating and licensing software in the field of
 computational chemistry and represents and warrants to the
 licensee that it is not a competitor of Gaussian, Inc. and that
 it will not use this program in any manner prohibited above.
 ---------------------------------------------------------------
  

 Cite this work as:
 Gaussian 16, Revision A.03,
 M. J. Frisch, G. W. Trucks, H. B. Schlegel, G. E. Scuseria, 
 M. A. Robb, J. R. Cheeseman, G. Scalmani, V. Barone, 
 G. A. Petersson, H. Nakatsuji, X. Li, M. Caricato, A. V. Marenich, 
 J. Bloino, B. G. Janesko, R. Gomperts, B. Mennucci, H. P. Hratchian, 
 J. V. Ortiz, A. F. Izmaylov, J. L. Sonnenberg, D. Williams-Young, 
 F. Ding, F. Lipparini, F. Egidi, J. Goings, B. Peng, A. Petrone, 
 T. Henderson, D. Ranasinghe, V. G. Zakrzewski, J. Gao, N. Rega, 
 G. Zheng, W. Liang, M. Hada, M. Ehara, K. Toyota, R. Fukuda, 
 J. Hasegawa, M. Ishida, T. Nakajima, Y. Honda, O. Kitao, H. Nakai, 
 T. Vreven, K. Throssell, J. A. Montgomery, Jr., J. E. Peralta, 
 F. Ogliaro, M. J. Bearpark, J. J. Heyd, E. N. Brothers, K. N. Kudin, 
 V. N. Staroverov, T. A. Keith, R. Kobayashi, J. Normand, 
 K. Raghavachari, A. P. Rendell, J. C. Burant, S. S. Iyengar, 
 J. Tomasi, M. Cossi, J. M. Millam, M. Klene, C. Adamo, R. Cammi, 
 J. W. Ochterski, R. L. Martin, K. Morokuma, O. Farkas, 
 J. B. Foresman, and D. J. Fox, Gaussian, Inc., Wallingford CT, 2016.
 
 ******************************************
 Gaussian 16:  ES64L-G16RevA.03 25-Dec-2016
                17-Mar-2026 
 ******************************************
 %chk=f1-6-31+Gstar.chk
 ---------------------------------------
 #P B3LYP/6-31+G* nosymm Density=Current
 ---------------------------------------
 1/30=1,38=1,172=1/1;
 2/12=2,15=1,17=6,18=5,40=1/2;
 3/5=1,6=6,7=11,11=2,25=1,30=1,74=-5/1,2,3;
 4//1;
 5/5=2,38=5/2;
 6/7=2,8=2,9=2,10=2,22=-1,28=1/1;
 99/5=1,9=1/99;
 Leave Link    1 at Tue Mar 17 07:32:31 2026, MaxMem=           0 cpu:               0.0 elap:               0.0
 (Enter /sw/cluster/pub/apps//g16/l101.exe)
 -----------------------
 Single-Point F1 6-31+G*
 -----------------------
 Symbolic Z-matrix:
 Charge =  0 Multiplicity = 1
 C                    -0.00015   1.41732  -0.00002 
 C                     1.18164   0.44671  -0.00005 
 C                     0.73497  -0.89089  -0.00002 
 C                    -0.73479  -0.89101  -0.00002 
 C                    -1.18163   0.44653  -0.00001 
 C                    -2.54465   0.72987  -0.00003 
 C                    -3.46395  -0.32865  -0.00003 
 C                    -3.01869  -1.6567    0.00001 
 C                    -1.65063  -1.94731  -0.00001 
 H                    -1.31078  -2.98043   0. 
 H                    -3.74248  -2.46798  -0.00001 
 H                    -4.53039  -0.11716  -0.00007 
 H                    -2.90193   1.75766  -0.00006 
 C                     1.65078  -1.94722   0.00001 
 C                     3.01884  -1.65659  0. 
 C                     3.46397  -0.3285   -0.00004 
 C                     2.54467   0.73002  -0.00006 
 H                     2.90207   1.75776  -0.00013 
 H                     4.5304   -0.11695  -0.00007 
 H                     3.74273  -2.46778   0.00001 
 H                     1.31077  -2.98028   0.00004 
 C                    -0.00018   2.30628  -1.26516 
 H                    -0.00064   1.69735  -2.17551 
 H                    -0.88644   2.95196  -1.28434 
 H                     0.88653   2.95131  -1.28474 
 C                    -0.00013   2.30598   1.26537 
 H                     0.88671   2.95083   1.28517 
 H                    -0.88627   2.95181   1.28467 
 H                    -0.00073   1.69681   2.17556 
 
 ITRead=  0  0  0  0  0  0  0  0  0  0  0  0  0  0  0  0  0  0  0  0
 ITRead=  0  0  0  0  0  0  0  0  0
 MicOpt= -1 -1 -1 -1 -1 -1 -1 -1 -1 -1 -1 -1 -1 -1 -1 -1 -1 -1 -1 -1
 MicOpt= -1 -1 -1 -1 -1 -1 -1 -1 -1
 NAtoms=     29 NQM=       29 NQMF=       0 NMMI=      0 NMMIF=      0
                NMic=       0 NMicF=      0.
                    Isotopes and Nuclear Properties:
 (Nuclear quadrupole moments (NQMom) in fm**2, nuclear magnetic moments (NMagM)
  in nuclear magnetons)

  Atom         1           2           3           4           5           6           7           8           9          10
 IAtWgt=          12          12          12          12          12          12          12          12          12           1
 AtmWgt=  12.0000000  12.0000000  12.0000000  12.0000000  12.0000000  12.0000000  12.0000000  12.0000000  12.0000000   1.0078250
 NucSpn=           0           0           0           0           0           0           0           0           0           1
 AtZEff=  -0.0000000  -0.0000000  -0.0000000  -0.0000000  -0.0000000  -0.0000000  -0.0000000  -0.0000000  -0.0000000  -0.0000000
 NQMom=    0.0000000   0.0000000   0.0000000   0.0000000   0.0000000   0.0000000   0.0000000   0.0000000   0.0000000   0.0000000
 NMagM=    0.0000000   0.0000000   0.0000000   0.0000000   0.0000000   0.0000000   0.0000000   0.0000000   0.0000000   2.7928460
 AtZNuc=   6.0000000   6.0000000   6.0000000   6.0000000   6.0000000   6.0000000   6.0000000   6.0000000   6.0000000   1.0000000

  Atom        11          12          13          14          15          16          17          18          19          20
 IAtWgt=           1           1           1          12          12          12          12           1           1           1
 AtmWgt=   1.0078250   1.0078250   1.0078250  12.0000000  12.0000000  12.0000000  12.0000000   1.0078250   1.0078250   1.0078250
 NucSpn=           1           1           1           0           0           0           0           1           1           1
 AtZEff=  -0.0000000  -0.0000000  -0.0000000  -0.0000000  -0.0000000  -0.0000000  -0.0000000  -0.0000000  -0.0000000  -0.0000000
 NQMom=    0.0000000   0.0000000   0.0000000   0.0000000   0.0000000   0.0000000   0.0000000   0.0000000   0.0000000   0.0000000
 NMagM=    2.7928460   2.7928460   2.7928460   0.0000000   0.0000000   0.0000000   0.0000000   2.7928460   2.7928460   2.7928460
 AtZNuc=   1.0000000   1.0000000   1.0000000   6.0000000   6.0000000   6.0000000   6.0000000   1.0000000   1.0000000   1.0000000

  Atom        21          22          23          24          25          26          27          28          29
 IAtWgt=           1          12           1           1           1          12           1           1           1
 AtmWgt=   1.0078250  12.0000000   1.0078250   1.0078250   1.0078250  12.0000000   1.0078250   1.0078250   1.0078250
 NucSpn=           1           0           1           1           1           0           1           1           1
 AtZEff=  -0.0000000  -0.0000000  -0.0000000  -0.0000000  -0.0000000  -0.0000000  -0.0000000  -0.0000000  -0.0000000
 NQMom=    0.0000000   0.0000000   0.0000000   0.0000000   0.0000000   0.0000000   0.0000000   0.0000000   0.0000000
 NMagM=    2.7928460   0.0000000   2.7928460   2.7928460   2.7928460   0.0000000   2.7928460   2.7928460   2.7928460
 AtZNuc=   1.0000000   6.0000000   1.0000000   1.0000000   1.0000000   6.0000000   1.0000000   1.0000000   1.0000000
 Leave Link  101 at Tue Mar 17 07:32:31 2026, MaxMem=   104857600 cpu:               0.0 elap:               0.0
 (Enter /sw/cluster/pub/apps//g16/l202.exe)
                          Input orientation:                          
 ---------------------------------------------------------------------
 Center     Atomic      Atomic             Coordinates (Angstroms)
 Number     Number       Type             X           Y           Z
 ---------------------------------------------------------------------
      1          6           0       -0.000146    1.417323   -0.000020
      2          6           0        1.181638    0.446710   -0.000046
      3          6           0        0.734974   -0.890886   -0.000024
      4          6           0       -0.734789   -0.891006   -0.000023
      5          6           0       -1.181628    0.446525   -0.000012
      6          6           0       -2.544651    0.729871   -0.000035
      7          6           0       -3.463951   -0.328647   -0.000035
      8          6           0       -3.018690   -1.656702    0.000007
      9          6           0       -1.650626   -1.947311   -0.000011
     10          1           0       -1.310782   -2.980434    0.000002
     11          1           0       -3.742479   -2.467983   -0.000006
     12          1           0       -4.530389   -0.117155   -0.000070
     13          1           0       -2.901934    1.757658   -0.000065
     14          6           0        1.650781   -1.947219    0.000012
     15          6           0        3.018837   -1.656590   -0.000004
     16          6           0        3.463971   -0.328500   -0.000038
     17          6           0        2.544668    0.730017   -0.000061
     18          1           0        2.902073    1.757764   -0.000129
     19          1           0        4.530399   -0.116948   -0.000071
     20          1           0        3.742730   -2.467777    0.000012
     21          1           0        1.310774   -2.980281    0.000037
     22          6           0       -0.000182    2.306284   -1.265164
     23          1           0       -0.000644    1.697349   -2.175507
     24          1           0       -0.886443    2.951961   -1.284339
     25          1           0        0.886534    2.951308   -1.284740
     26          6           0       -0.000128    2.305979    1.265367
     27          1           0        0.886707    2.950832    1.285167
     28          1           0       -0.886274    2.951809    1.284673
     29          1           0       -0.000731    1.696809    2.175556
 ---------------------------------------------------------------------
                    Distance matrix (angstroms):
                    1          2          3          4          5
     1  C    0.000000
     2  C    1.529282   0.000000
     3  C    2.422443   1.410203   0.000000
     4  C    2.422413   2.337130   1.469763   0.000000
     5  C    1.529166   2.363266   2.337099   1.410197   0.000000
     6  C    2.635735   3.737033   3.658250   2.429577   1.392163
     7  C    3.878964   4.709850   4.236400   2.786499   2.410372
     8  C    4.308276   4.697564   3.830988   2.408837   2.792555
     9  C    3.747645   3.708512   2.609046   1.398048   2.439347
    10  H    4.588903   4.237626   2.924266   2.167366   3.429392
    11  H    5.394503   5.722095   4.747086   3.396036   3.879732
    12  H    4.783067   5.739791   5.321908   3.873684   3.395871
    13  H    2.921678   4.288840   4.499098   3.422271   2.162989
    14  C    3.747759   2.439466   1.398049   2.608932   3.708443
    15  C    4.308502   2.792699   2.408803   3.830904   4.697552
    16  C    3.879175   2.410393   2.786342   4.236271   4.709804
    17  C    2.635994   1.392161   2.429468   3.658217   3.737064
    18  H    2.922119   2.163044   3.422231   4.499195   4.289052
    19  H    4.783286   3.395866   3.873529   5.321783   5.739752
    20  H    5.394731   3.879875   3.396054   4.747040   5.722103
    21  H    4.588838   3.429424   2.167284   2.923936   4.237343
    22  C    1.546234   2.540715   3.516095   3.516090   2.540693
    23  H    2.193436   2.773899   3.460176   3.459954   2.773456
    24  H    2.188632   3.493229   4.364164   4.054733   2.830872
    25  H    2.188565   2.830289   4.054124   4.363779   3.493101
    26  C    1.546258   2.540614   3.515897   3.515914   2.540609
    27  H    2.188575   2.830085   4.053829   4.363563   3.493028
    28  H    2.188677   3.493176   4.364080   4.054703   2.830918
    29  H    2.193455   2.773804   3.459852   3.459591   2.773234
                    6          7          8          9         10
     6  C    0.000000
     7  C    1.401989   0.000000
     8  C    2.433196   1.400710   0.000000
     9  C    2.822513   2.430683   1.398589   0.000000
    10  H    3.910088   3.415861   2.160836   1.087583   0.000000
    11  H    3.414830   2.157391   1.087220   2.155678   2.485107
    12  H    2.158844   1.087206   2.157646   3.412111   4.308623
    13  H    1.088117   2.160679   3.416356   3.910571   4.998127
    14  C    4.976792   5.364724   4.678499   3.301407   3.136621
    15  C    6.053725   6.617399   6.037527   4.678504   4.527490
    16  C    6.101122   6.927922   6.617327   5.364667   5.461778
    17  C    5.089319   6.101170   6.053708   4.976804   5.350882
    18  H    5.542867   6.699208   6.834766   5.869809   6.340243
    19  H    7.125549   7.997153   7.704518   6.446340   6.505302
    20  H    7.053802   7.517456   6.809894   5.418411   5.079450
    21  H    5.350657   5.461609   4.527264   3.136386   2.621556
    22  C    3.249609   4.532230   5.139777   4.734727   5.591753
    23  H    3.484347   4.564191   5.009104   4.553984   5.322683
    24  H    3.055614   4.365246   5.237919   5.122142   6.084645
    25  H    4.284657   5.597794   6.175363   5.664290   6.454791
    26  C    3.249609   4.532170   5.139620   4.734532   5.591522
    27  H    4.284698   5.597763   6.175203   5.664057   6.454496
    28  H    3.055765   4.365351   5.237933   5.122111   6.084578
    29  H    3.484207   4.563942   5.008705   4.553554   5.322205
                   11         12         13         14         15
    11  H    0.000000
    12  H    2.479353   0.000000
    13  H    4.308429   2.483302   0.000000
    14  C    5.418344   6.446394   5.869696   0.000000
    15  C    6.809828   7.704587   6.834663   1.398586   0.000000
    16  C    7.517334   7.997153   6.699015   2.430619   1.400702
    17  C    7.053752   7.125597   5.542700   2.822521   2.433254
    18  H    7.874454   7.665300   5.804008   3.910580   3.416350
    19  H    8.600459   9.060788   7.665098   3.412051   2.157619
    20  H    7.485210   8.600577   7.874380   2.155745   1.087220
    21  H    5.079155   6.505127   6.339951   1.087577   2.160934
    22  C    6.196696   5.291153   3.212730   4.734832   5.139987
    23  H    6.007007   5.342616   3.626800   4.554444   5.009888
    24  H    6.259573   4.934285   2.671690   5.664717   6.175715
    25  H    7.242032   6.356799   4.174647   5.121546   5.237364
    26  C    6.196537   5.291141   3.212857   4.734587   5.139772
    27  H    7.241864   6.356832   4.174840   5.121165   5.236981
    28  H    6.259589   4.934438   2.671972   5.664580   6.175566
    29  H    6.006600   5.342436   3.626846   4.554055   5.009603
                   16         17         18         19         20
    16  C    0.000000
    17  C    1.401990   0.000000
    18  H    2.160608   1.088119   0.000000
    19  H    1.087209   2.158814   2.483141   0.000000
    20  H    2.157362   3.414856   4.308353   2.479278   0.000000
    21  H    3.415874   3.910090   4.998131   4.308673   2.485372
    22  C    4.532437   3.249825   3.213140   5.291377   6.196912
    23  H    4.565116   3.485241   3.627904   5.343645   6.007829
    24  H    5.597942   4.284731   4.174704   6.356864   7.242400
    25  H    4.364720   3.055150   2.671548   4.933794   6.258988
    26  C    4.532296   3.249761   3.213222   5.291274   6.196681
    27  H    4.364408   3.054941   2.671535   4.933518   6.258579
    28  H    5.597815   4.284654   4.174690   6.356743   7.242233
    29  H    4.565002   3.485262   3.628167   5.343613   6.007517
                   21         22         23         24         25
    21  H    0.000000
    22  C    5.591700   0.000000
    23  H    5.322878   1.095229   0.000000
    24  H    6.455144   1.096688   1.775633   0.000000
    25  H    6.083945   1.096679   1.775659   1.772977   0.000000
    26  C    5.591428   2.530530   3.494287   2.775580   2.775908
    27  H    6.083543   2.776004   3.786142   3.121926   2.569906
    28  H    6.454998   2.775523   3.785612   2.569012   3.121655
    29  H    5.322415   3.494283   4.351063   3.785600   3.786113
                   26         27         28         29
    26  C    0.000000
    27  H    1.096679   0.000000
    28  H    1.096688   1.772981   0.000000
    29  H    1.095232   1.775644   1.775637   0.000000
 Symmetry turned off by external request.
 Stoichiometry    C15H14
 Framework group  C1[X(C15H14)]
 Deg. of freedom    81
 Full point group                 C1      NOp   1
 Rotational constants (GHZ):           1.0539416           0.5482606           0.3911393
 Leave Link  202 at Tue Mar 17 07:32:31 2026, MaxMem=   104857600 cpu:               0.0 elap:               0.0
 (Enter /sw/cluster/pub/apps//g16/l301.exe)
 Standard basis: 6-31+G(d) (6D, 7F)
 Ernie: Thresh=  0.10000D-02 Tol=  0.10000D-05 Strict=F.
   313 basis functions,   536 primitive gaussians,   313 cartesian basis functions
    52 alpha electrons       52 beta electrons
       nuclear repulsion energy       925.1956199566 Hartrees.
 IExCor=  402 DFT=T Ex+Corr=B3LYP ExCW=0 ScaHFX=  0.200000
 ScaDFX=  0.800000  0.720000  1.000000  0.810000 ScalE2=  1.000000  1.000000
 IRadAn=      5 IRanWt=     -1 IRanGd=            0 ICorTp=0 IEmpDi=  4
 NAtoms=   29 NActive=   29 NUniq=   29 SFac= 1.00D+00 NAtFMM=   60 NAOKFM=F Big=F
 Integral buffers will be    131072 words long.
 Raffenetti 2 integral format.
 Two-electron integral symmetry is turned off.
 Leave Link  301 at Tue Mar 17 07:32:31 2026, MaxMem=   104857600 cpu:               0.0 elap:               0.0
 (Enter /sw/cluster/pub/apps//g16/l302.exe)
 NPDir=0 NMtPBC=     1 NCelOv=     1 NCel=       1 NClECP=     1 NCelD=      1
         NCelK=      1 NCelE2=     1 NClLst=     1 CellRange=     0.0.
 One-electron integrals computed using PRISM.
 NBasis=   313 RedAO= T EigKep=  1.23D-06  NBF=   313
 NBsUse=   309 1.00D-06 EigRej=  7.63D-07 NBFU=   309
 Precomputing XC quadrature grid using
 IXCGrd= 4 IRadAn=           5 IRanWt=          -1 IRanGd=           0 AccXCQ= 0.00D+00.
 Generated NRdTot=       0 NPtTot=           0 NUsed=           0 NTot=          32
 NSgBfM=   312   312   312   312   312 MxSgAt=    29 MxSgA2=    29.
 Leave Link  302 at Tue Mar 17 07:32:32 2026, MaxMem=   104857600 cpu:               0.4 elap:               0.5
 (Enter /sw/cluster/pub/apps//g16/l303.exe)
 DipDrv:  MaxL=1.
 Leave Link  303 at Tue Mar 17 07:32:32 2026, MaxMem=   104857600 cpu:               0.0 elap:               0.0
 (Enter /sw/cluster/pub/apps//g16/l401.exe)
 ExpMin= 4.38D-02 ExpMax= 3.05D+03 ExpMxC= 4.57D+02 IAcc=3 IRadAn=         5 AccDes= 0.00D+00
 Harris functional with IExCor=  402 and IRadAn=       5 diagonalized for initial guess.
 HarFok:  IExCor=  402 AccDes= 0.00D+00 IRadAn=         5 IDoV= 1 UseB2=F ITyADJ=14
 ICtDFT=  3500011 ScaDFX=  1.000000  1.000000  1.000000  1.000000
 FoFCou: FMM=F IPFlag=           0 FMFlag=      100000 FMFlg1=           0
         NFxFlg=           0 DoJE=T BraDBF=F KetDBF=T FulRan=T
         wScrn=  0.000000 ICntrl=       500 IOpCl=  0 I1Cent=   200000004 NGrid=           0
         NMat0=    1 NMatS0=      1 NMatT0=    0 NMatD0=    1 NMtDS0=    0 NMtDT0=    0
 Symmetry not used in FoFCou.
 Harris En= -580.094719854564    
 JPrj=0 DoOrth=F DoCkMO=F.
 Leave Link  401 at Tue Mar 17 07:32:37 2026, MaxMem=   104857600 cpu:               4.6 elap:               4.7
 (Enter /sw/cluster/pub/apps//g16/l502.exe)
 Two-electron integral symmetry not used.
 Closed shell SCF:
 Using DIIS extrapolation, IDIIS=  1040.
 NGot=   104857600 LenX=   104657148 LenY=   104558738
 Requested convergence on RMS density matrix=1.00D-08 within 128 cycles.
 Requested convergence on MAX density matrix=1.00D-06.
 Requested convergence on             energy=1.00D-06.
 No special actions if energy rises.
 Fock matrices will be formed incrementally for  20 cycles.

 Cycle   1  Pass 1  IDiag  1:
 FoFJK:  IHMeth= 1 ICntrl=       0 DoSepK=F KAlg= 0 I1Cent=           0 FoldK=F
 IRaf= 930000000 NMat=       1 IRICut=       1 DoRegI=T DoRafI=F ISym2E= 0 IDoP0=0 IntGTp=1.
 FoFCou: FMM=F IPFlag=           0 FMFlag=      100000 FMFlg1=           0
         NFxFlg=           0 DoJE=F BraDBF=F KetDBF=F FulRan=T
         wScrn=  0.000000 ICntrl=         0 IOpCl=  0 I1Cent=           0 NGrid=           0
         NMat0=    1 NMatS0=      1 NMatT0=    0 NMatD0=    1 NMtDS0=    0 NMtDT0=    0
 Symmetry not used in FoFCou.
 E= -579.711145919291    
 DIIS: error= 4.33D-02 at cycle   1 NSaved=   1.
 NSaved= 1 IEnMin= 1 EnMin= -579.711145919291     IErMin= 1 ErrMin= 4.33D-02
 ErrMax= 4.33D-02  0.00D+00 EMaxC= 1.00D-01 BMatC= 3.20D-01 BMatP= 3.20D-01
 IDIUse=3 WtCom= 5.67D-01 WtEn= 4.33D-01
 Coeff-Com:  0.100D+01
 Coeff-En:   0.100D+01
 Coeff:      0.100D+01
 Gap=     0.181 Goal=   None    Shift=    0.000
 GapD=    0.181 DampG=1.000 DampE=0.500 DampFc=0.5000 IDamp=-1.
 Damping current iteration by 5.00D-01
 RMSDP=4.90D-02 MaxDP=2.46D+00              OVMax= 1.81D-01

 Cycle   2  Pass 1  IDiag  1:
 RMSU=  2.40D-02    CP:  1.07D+00
 E= -579.875185384665     Delta-E=       -0.164039465375 Rises=F Damp=T
 DIIS: error= 9.77D-03 at cycle   2 NSaved=   2.
 NSaved= 2 IEnMin= 2 EnMin= -579.875185384665     IErMin= 2 ErrMin= 9.77D-03
 ErrMax= 9.77D-03  0.00D+00 EMaxC= 1.00D-01 BMatC= 1.66D-02 BMatP= 3.20D-01
 IDIUse=3 WtCom= 9.02D-01 WtEn= 9.77D-02
 Coeff-Com:  0.191D-01 0.981D+00
 Coeff-En:   0.569D-01 0.943D+00
 Coeff:      0.228D-01 0.977D+00
 Gap=     0.227 Goal=   None    Shift=    0.000
 RMSDP=3.60D-02 MaxDP=2.16D+00 DE=-1.64D-01 OVMax= 1.05D-01

 Cycle   3  Pass 1  IDiag  1:
 RMSU=  1.06D-02    CP:  6.56D-01  4.29D-01
 E= -580.065894833973     Delta-E=       -0.190709449307 Rises=F Damp=F
 DIIS: error= 2.92D-03 at cycle   3 NSaved=   3.
 NSaved= 3 IEnMin= 3 EnMin= -580.065894833973     IErMin= 3 ErrMin= 2.92D-03
 ErrMax= 2.92D-03  0.00D+00 EMaxC= 1.00D-01 BMatC= 3.55D-03 BMatP= 1.66D-02
 IDIUse=3 WtCom= 9.71D-01 WtEn= 2.92D-02
 Coeff-Com: -0.425D-01 0.267D+00 0.775D+00
 Coeff-En:   0.000D+00 0.000D+00 0.100D+01
 Coeff:     -0.412D-01 0.259D+00 0.782D+00
 Gap=     0.179 Goal=   None    Shift=    0.000
 RMSDP=4.56D-03 MaxDP=3.22D-01 DE=-1.91D-01 OVMax= 3.08D-02

 Cycle   4  Pass 1  IDiag  1:
 RMSU=  3.04D-03    CP:  6.83D-01  4.62D-01  7.55D-01
 E= -580.067359880066     Delta-E=       -0.001465046093 Rises=F Damp=F
 DIIS: error= 3.91D-03 at cycle   4 NSaved=   4.
 NSaved= 4 IEnMin= 4 EnMin= -580.067359880066     IErMin= 3 ErrMin= 2.92D-03
 ErrMax= 3.91D-03  0.00D+00 EMaxC= 1.00D-01 BMatC= 2.13D-03 BMatP= 3.55D-03
 IDIUse=3 WtCom= 9.61D-01 WtEn= 3.91D-02
 Coeff-Com: -0.281D-01 0.116D+00 0.487D+00 0.425D+00
 Coeff-En:   0.000D+00 0.000D+00 0.380D+00 0.620D+00
 Coeff:     -0.270D-01 0.111D+00 0.483D+00 0.433D+00
 Gap=     0.179 Goal=   None    Shift=    0.000
 RMSDP=1.77D-03 MaxDP=1.22D-01 DE=-1.47D-03 OVMax= 2.19D-02

 Cycle   5  Pass 1  IDiag  1:
 RMSU=  7.78D-04    CP:  6.75D-01  4.82D-01  8.50D-01  6.80D-01
 E= -580.069551270098     Delta-E=       -0.002191390032 Rises=F Damp=F
 DIIS: error= 1.20D-03 at cycle   5 NSaved=   5.
 NSaved= 5 IEnMin= 5 EnMin= -580.069551270098     IErMin= 5 ErrMin= 1.20D-03
 ErrMax= 1.20D-03  0.00D+00 EMaxC= 1.00D-01 BMatC= 1.80D-04 BMatP= 2.13D-03
 IDIUse=3 WtCom= 9.88D-01 WtEn= 1.20D-02
 Coeff-Com: -0.814D-02 0.173D-01 0.137D+00 0.252D+00 0.602D+00
 Coeff-En:   0.000D+00 0.000D+00 0.000D+00 0.738D-01 0.926D+00
 Coeff:     -0.804D-02 0.171D-01 0.135D+00 0.250D+00 0.606D+00
 Gap=     0.179 Goal=   None    Shift=    0.000
 RMSDP=3.20D-04 MaxDP=1.80D-02 DE=-2.19D-03 OVMax= 5.57D-03

 Cycle   6  Pass 1  IDiag  1:
 RMSU=  1.44D-04    CP:  6.77D-01  4.81D-01  8.44D-01  6.90D-01  6.86D-01
 E= -580.069738133898     Delta-E=       -0.000186863800 Rises=F Damp=F
 DIIS: error= 2.26D-04 at cycle   6 NSaved=   6.
 NSaved= 6 IEnMin= 6 EnMin= -580.069738133898     IErMin= 6 ErrMin= 2.26D-04
 ErrMax= 2.26D-04  0.00D+00 EMaxC= 1.00D-01 BMatC= 1.15D-05 BMatP= 1.80D-04
 IDIUse=3 WtCom= 9.98D-01 WtEn= 2.26D-03
 Coeff-Com: -0.389D-02 0.663D-02 0.645D-01 0.134D+00 0.363D+00 0.435D+00
 Coeff-En:   0.000D+00 0.000D+00 0.000D+00 0.000D+00 0.000D+00 0.100D+01
 Coeff:     -0.388D-02 0.662D-02 0.643D-01 0.134D+00 0.362D+00 0.436D+00
 Gap=     0.179 Goal=   None    Shift=    0.000
 RMSDP=7.58D-05 MaxDP=3.40D-03 DE=-1.87D-04 OVMax= 1.16D-03

 Cycle   7  Pass 1  IDiag  1:
 RMSU=  4.05D-05    CP:  6.76D-01  4.81D-01  8.47D-01  6.79D-01  7.00D-01
                    CP:  7.27D-01
 E= -580.069750155022     Delta-E=       -0.000012021124 Rises=F Damp=F
 DIIS: error= 5.41D-05 at cycle   7 NSaved=   7.
 NSaved= 7 IEnMin= 7 EnMin= -580.069750155022     IErMin= 7 ErrMin= 5.41D-05
 ErrMax= 5.41D-05  0.00D+00 EMaxC= 1.00D-01 BMatC= 3.97D-07 BMatP= 1.15D-05
 IDIUse=1 WtCom= 1.00D+00 WtEn= 0.00D+00
 Coeff-Com: -0.973D-03 0.119D-02 0.164D-01 0.377D-01 0.108D+00 0.202D+00
 Coeff-Com:  0.636D+00
 Coeff:     -0.973D-03 0.119D-02 0.164D-01 0.377D-01 0.108D+00 0.202D+00
 Coeff:      0.636D+00
 Gap=     0.179 Goal=   None    Shift=    0.000
 RMSDP=2.78D-05 MaxDP=1.68D-03 DE=-1.20D-05 OVMax= 3.00D-04

 Cycle   8  Pass 1  IDiag  1:
 RMSU=  1.38D-05    CP:  6.76D-01  4.80D-01  8.46D-01  6.82D-01  7.06D-01
                    CP:  7.01D-01  8.99D-01
 E= -580.069750408987     Delta-E=       -0.000000253965 Rises=F Damp=F
 DIIS: error= 3.28D-05 at cycle   8 NSaved=   8.
 NSaved= 8 IEnMin= 8 EnMin= -580.069750408987     IErMin= 8 ErrMin= 3.28D-05
 ErrMax= 3.28D-05  0.00D+00 EMaxC= 1.00D-01 BMatC= 1.56D-07 BMatP= 3.97D-07
 IDIUse=1 WtCom= 1.00D+00 WtEn= 0.00D+00
 Coeff-Com: -0.265D-03 0.145D-03 0.443D-02 0.121D-01 0.372D-01 0.949D-01
 Coeff-Com:  0.433D+00 0.418D+00
 Coeff:     -0.265D-03 0.145D-03 0.443D-02 0.121D-01 0.372D-01 0.949D-01
 Coeff:      0.433D+00 0.418D+00
 Gap=     0.179 Goal=   None    Shift=    0.000
 RMSDP=1.35D-05 MaxDP=9.00D-04 DE=-2.54D-07 OVMax= 1.49D-04

 Cycle   9  Pass 1  IDiag  1:
 RMSU=  7.46D-06    CP:  6.76D-01  4.80D-01  8.47D-01  6.81D-01  7.07D-01
                    CP:  7.14D-01  8.91D-01  6.25D-01
 E= -580.069750581225     Delta-E=       -0.000000172238 Rises=F Damp=F
 DIIS: error= 5.15D-06 at cycle   9 NSaved=   9.
 NSaved= 9 IEnMin= 9 EnMin= -580.069750581225     IErMin= 9 ErrMin= 5.15D-06
 ErrMax= 5.15D-06  0.00D+00 EMaxC= 1.00D-01 BMatC= 4.33D-09 BMatP= 1.56D-07
 IDIUse=1 WtCom= 1.00D+00 WtEn= 0.00D+00
 Coeff-Com:  0.174D-04-0.935D-04-0.376D-03-0.587D-04 0.522D-03 0.919D-02
 Coeff-Com:  0.733D-01 0.176D+00 0.742D+00
 Coeff:      0.174D-04-0.935D-04-0.376D-03-0.587D-04 0.522D-03 0.919D-02
 Coeff:      0.733D-01 0.176D+00 0.742D+00
 Gap=     0.179 Goal=   None    Shift=    0.000
 RMSDP=4.33D-06 MaxDP=3.13D-04 DE=-1.72D-07 OVMax= 2.17D-05

 Cycle  10  Pass 1  IDiag  1:
 RMSU=  1.12D-06    CP:  6.76D-01  4.80D-01  8.46D-01  6.81D-01  7.06D-01
                    CP:  7.14D-01  8.96D-01  6.88D-01  7.57D-01
 E= -580.069750585898     Delta-E=       -0.000000004672 Rises=F Damp=F
 DIIS: error= 1.14D-06 at cycle  10 NSaved=  10.
 NSaved=10 IEnMin=10 EnMin= -580.069750585898     IErMin=10 ErrMin= 1.14D-06
 ErrMax= 1.14D-06  0.00D+00 EMaxC= 1.00D-01 BMatC= 2.87D-10 BMatP= 4.33D-09
 IDIUse=1 WtCom= 1.00D+00 WtEn= 0.00D+00
 Coeff-Com:  0.141D-04-0.390D-04-0.313D-03-0.398D-03-0.971D-03 0.984D-03
 Coeff-Com:  0.182D-01 0.673D-01 0.347D+00 0.569D+00
 Coeff:      0.141D-04-0.390D-04-0.313D-03-0.398D-03-0.971D-03 0.984D-03
 Coeff:      0.182D-01 0.673D-01 0.347D+00 0.569D+00
 Gap=     0.179 Goal=   None    Shift=    0.000
 RMSDP=6.33D-07 MaxDP=3.53D-05 DE=-4.67D-09 OVMax= 4.10D-06

 Cycle  11  Pass 1  IDiag  1:
 RMSU=  2.09D-07    CP:  6.76D-01  4.80D-01  8.46D-01  6.81D-01  7.06D-01
                    CP:  7.13D-01  8.97D-01  6.87D-01  7.78D-01  8.71D-01
 E= -580.069750586162     Delta-E=       -0.000000000265 Rises=F Damp=F
 DIIS: error= 2.41D-07 at cycle  11 NSaved=  11.
 NSaved=11 IEnMin=11 EnMin= -580.069750586162     IErMin=11 ErrMin= 2.41D-07
 ErrMax= 2.41D-07  0.00D+00 EMaxC= 1.00D-01 BMatC= 1.74D-11 BMatP= 2.87D-10
 IDIUse=1 WtCom= 1.00D+00 WtEn= 0.00D+00
 Coeff-Com:  0.376D-05-0.769D-05-0.101D-03-0.152D-03-0.437D-03-0.442D-03
 Coeff-Com:  0.742D-03 0.122D-01 0.772D-01 0.239D+00 0.672D+00
 Coeff:      0.376D-05-0.769D-05-0.101D-03-0.152D-03-0.437D-03-0.442D-03
 Coeff:      0.742D-03 0.122D-01 0.772D-01 0.239D+00 0.672D+00
 Gap=     0.179 Goal=   None    Shift=    0.000
 RMSDP=1.47D-07 MaxDP=1.10D-05 DE=-2.65D-10 OVMax= 9.15D-07

 Cycle  12  Pass 1  IDiag  1:
 RMSU=  5.71D-08    CP:  6.76D-01  4.80D-01  8.46D-01  6.81D-01  7.06D-01
                    CP:  7.13D-01  8.96D-01  6.88D-01  7.84D-01  8.36D-01
                    CP:  8.85D-01
 E= -580.069750586166     Delta-E=       -0.000000000004 Rises=F Damp=F
 DIIS: error= 5.82D-08 at cycle  12 NSaved=  12.
 NSaved=12 IEnMin=12 EnMin= -580.069750586166     IErMin=12 ErrMin= 5.82D-08
 ErrMax= 5.82D-08  0.00D+00 EMaxC= 1.00D-01 BMatC= 1.24D-12 BMatP= 1.74D-11
 IDIUse=1 WtCom= 1.00D+00 WtEn= 0.00D+00
 Coeff-Com:  0.880D-06-0.152D-05-0.304D-04-0.474D-04-0.142D-03-0.253D-03
 Coeff-Com: -0.486D-03 0.226D-02 0.190D-01 0.809D-01 0.305D+00 0.594D+00
 Coeff:      0.880D-06-0.152D-05-0.304D-04-0.474D-04-0.142D-03-0.253D-03
 Coeff:     -0.486D-03 0.226D-02 0.190D-01 0.809D-01 0.305D+00 0.594D+00
 Gap=     0.179 Goal=   None    Shift=    0.000
 RMSDP=4.13D-08 MaxDP=2.50D-06 DE=-3.87D-12 OVMax= 2.66D-07

 Cycle  13  Pass 1  IDiag  1:
 RMSU=  1.30D-08    CP:  6.76D-01  4.80D-01  8.46D-01  6.81D-01  7.06D-01
                    CP:  7.13D-01  8.96D-01  6.88D-01  7.83D-01  8.44D-01
                    CP:  8.90D-01  8.28D-01
 E= -580.069750586174     Delta-E=       -0.000000000008 Rises=F Damp=F
 DIIS: error= 1.96D-08 at cycle  13 NSaved=  13.
 NSaved=13 IEnMin=13 EnMin= -580.069750586174     IErMin=13 ErrMin= 1.96D-08
 ErrMax= 1.96D-08  0.00D+00 EMaxC= 1.00D-01 BMatC= 1.50D-13 BMatP= 1.24D-12
 IDIUse=1 WtCom= 1.00D+00 WtEn= 0.00D+00
 Coeff-Com: -0.112D-07 0.193D-06-0.391D-05-0.644D-05-0.208D-04-0.728D-04
 Coeff-Com: -0.234D-03-0.201D-03 0.103D-02 0.112D-01 0.679D-01 0.296D+00
 Coeff-Com:  0.624D+00
 Coeff:     -0.112D-07 0.193D-06-0.391D-05-0.644D-05-0.208D-04-0.728D-04
 Coeff:     -0.234D-03-0.201D-03 0.103D-02 0.112D-01 0.679D-01 0.296D+00
 Coeff:      0.624D+00
 Gap=     0.179 Goal=   None    Shift=    0.000
 RMSDP=9.36D-09 MaxDP=4.46D-07 DE=-8.19D-12 OVMax= 8.79D-08

 SCF Done:  E(RB3LYP) =  -580.069750586     A.U. after   13 cycles
            NFock= 13  Conv=0.94D-08     -V/T= 2.0100
 KE= 5.743516453415D+02 PE=-3.191797325948D+03 EE= 1.112180310063D+03
 Leave Link  502 at Tue Mar 17 07:35:01 2026, MaxMem=   104857600 cpu:             143.9 elap:             144.2
 (Enter /sw/cluster/pub/apps//g16/l601.exe)
 Copying SCF densities to generalized density rwf, IOpCl= 0 IROHF=0.

 **********************************************************************

            Population analysis using the SCF density.

 **********************************************************************

 Alpha  occ. eigenvalues --  -10.21429 -10.19918 -10.19887 -10.19709 -10.19709
 Alpha  occ. eigenvalues --  -10.19695 -10.19695 -10.19657 -10.19656 -10.19618
 Alpha  occ. eigenvalues --  -10.19618 -10.19598 -10.19597 -10.18591 -10.18590
 Alpha  occ. eigenvalues --   -0.89356  -0.84787  -0.81656  -0.77872  -0.74712
 Alpha  occ. eigenvalues --   -0.73673  -0.71830  -0.69255  -0.64855  -0.62617
 Alpha  occ. eigenvalues --   -0.58870  -0.58003  -0.56178  -0.51446  -0.49989
 Alpha  occ. eigenvalues --   -0.47721  -0.45653  -0.45226  -0.44175  -0.43570
 Alpha  occ. eigenvalues --   -0.43355  -0.42266  -0.42174  -0.39709  -0.38769
 Alpha  occ. eigenvalues --   -0.38711  -0.37880  -0.35555  -0.35253  -0.34856
 Alpha  occ. eigenvalues --   -0.34621  -0.32500  -0.32425  -0.28683  -0.25402
 Alpha  occ. eigenvalues --   -0.25037  -0.22074
 Alpha virt. eigenvalues --   -0.04151  -0.02164  -0.00330   0.00023   0.01104
 Alpha virt. eigenvalues --    0.01223   0.02709   0.02855   0.02961   0.03172
 Alpha virt. eigenvalues --    0.03906   0.04958   0.05024   0.05952   0.06387
 Alpha virt. eigenvalues --    0.06436   0.06968   0.07697   0.07800   0.08350
 Alpha virt. eigenvalues --    0.08789   0.08825   0.10760   0.11174   0.11503
 Alpha virt. eigenvalues --    0.11938   0.12449   0.12987   0.13028   0.13187
 Alpha virt. eigenvalues --    0.14773   0.14915   0.14972   0.15566   0.16289
 Alpha virt. eigenvalues --    0.17052   0.17199   0.17403   0.17650   0.18247
 Alpha virt. eigenvalues --    0.18353   0.18893   0.19045   0.20172   0.20661
 Alpha virt. eigenvalues --    0.20744   0.20933   0.21361   0.21683   0.21953
 Alpha virt. eigenvalues --    0.21972   0.22170   0.23264   0.23338   0.23385
 Alpha virt. eigenvalues --    0.23439   0.24174   0.24501   0.24897   0.25267
 Alpha virt. eigenvalues --    0.26057   0.27498   0.27908   0.27992   0.28043
 Alpha virt. eigenvalues --    0.28868   0.29233   0.29570   0.30268   0.30666
 Alpha virt. eigenvalues --    0.30967   0.31237   0.31859   0.32886   0.33992
 Alpha virt. eigenvalues --    0.34305   0.34388   0.35812   0.36152   0.36349
 Alpha virt. eigenvalues --    0.36631   0.39073   0.40536   0.42223   0.44548
 Alpha virt. eigenvalues --    0.44617   0.47814   0.50278   0.50538   0.56706
 Alpha virt. eigenvalues --    0.60763   0.61431   0.63155   0.66739   0.67124
 Alpha virt. eigenvalues --    0.67628   0.68217   0.69177   0.69334   0.69694
 Alpha virt. eigenvalues --    0.70233   0.71560   0.72717   0.73308   0.73740
 Alpha virt. eigenvalues --    0.74041   0.75032   0.75944   0.77059   0.77689
 Alpha virt. eigenvalues --    0.77727   0.77852   0.80184   0.81417   0.81454
 Alpha virt. eigenvalues --    0.81783   0.82454   0.83522   0.83567   0.83571
 Alpha virt. eigenvalues --    0.84979   0.87675   0.89853   0.90557   0.91816
 Alpha virt. eigenvalues --    0.93354   0.94292   0.95093   0.95722   0.95807
 Alpha virt. eigenvalues --    0.98774   1.00003   1.01564   1.01819   1.01854
 Alpha virt. eigenvalues --    1.02502   1.04165   1.05295   1.06507   1.09384
 Alpha virt. eigenvalues --    1.10272   1.11840   1.13145   1.15105   1.15213
 Alpha virt. eigenvalues --    1.17637   1.18961   1.18975   1.21582   1.22724
 Alpha virt. eigenvalues --    1.23806   1.24250   1.25159   1.27062   1.29128
 Alpha virt. eigenvalues --    1.30537   1.32171   1.34096   1.35136   1.37901
 Alpha virt. eigenvalues --    1.41465   1.42600   1.45200   1.46131   1.47598
 Alpha virt. eigenvalues --    1.47911   1.48828   1.48933   1.49416   1.49725
 Alpha virt. eigenvalues --    1.53603   1.59040   1.63696   1.64775   1.65455
 Alpha virt. eigenvalues --    1.68397   1.72439   1.77426   1.80532   1.80637
 Alpha virt. eigenvalues --    1.82232   1.85844   1.88045   1.88243   1.92076
 Alpha virt. eigenvalues --    1.92252   1.94108   1.95912   1.97358   1.97850
 Alpha virt. eigenvalues --    1.98079   2.02277   2.04300   2.06253   2.07792
 Alpha virt. eigenvalues --    2.08294   2.08865   2.12155   2.14609   2.17012
 Alpha virt. eigenvalues --    2.17314   2.19490   2.20990   2.22208   2.23305
 Alpha virt. eigenvalues --    2.25359   2.28450   2.28736   2.28790   2.28886
 Alpha virt. eigenvalues --    2.30086   2.32108   2.32484   2.37796   2.39108
 Alpha virt. eigenvalues --    2.39903   2.43497   2.50650   2.51866   2.52423
 Alpha virt. eigenvalues --    2.60547   2.61050   2.61305   2.66952   2.69199
 Alpha virt. eigenvalues --    2.69490   2.71486   2.72169   2.74683   2.76553
 Alpha virt. eigenvalues --    2.76829   2.77584   2.82579   2.84380   2.86064
 Alpha virt. eigenvalues --    2.95465   2.99449   3.02297   3.09746   3.28742
 Alpha virt. eigenvalues --    3.33932   3.49634   4.24152   4.26091   4.27734
 Alpha virt. eigenvalues --    4.28805   4.32309   4.33344   4.35103   4.35127
 Alpha virt. eigenvalues --    4.40134   4.42453   4.49763   4.52035   4.66800
 Alpha virt. eigenvalues --    4.83443   4.86210
          Condensed to atoms (all electrons):
               1          2          3          4          5          6
     1  C    8.866593   1.572616  -1.032519  -1.032550   1.574177  -0.925785
     2  C    1.572616  12.934511  -1.967193  -2.706315   1.906207  -0.639512
     3  C   -1.032519  -1.967193  13.347532   3.391484  -2.707492  -1.610356
     4  C   -1.032550  -2.706315   3.391484  13.347268  -1.969586  -0.771802
     5  C    1.574177   1.906207  -2.707492  -1.969586  12.939020  -2.342088
     6  C   -0.925785  -0.639512  -1.610356  -0.771802  -2.342088  10.681462
     7  C    0.104049  -0.011819   0.148850   0.145423  -0.468221   0.589312
     8  C    0.021021   0.193595   0.370282  -0.374135  -0.015781  -0.667283
     9  C   -0.962907  -1.374929  -1.203398  -2.043291  -0.835580   1.932838
    10  H    0.001492   0.018922   0.027960  -0.086285   0.056108  -0.029905
    11  H    0.001319   0.000870  -0.020856  -0.032312   0.024254   0.033889
    12  H   -0.003454  -0.002677   0.002330   0.010171  -0.004609  -0.012331
    13  H   -0.059638  -0.027824   0.036857   0.166425  -0.008439   0.198970
    14  C   -0.963732  -0.835284  -2.044488  -1.205146  -1.376117   0.452509
    15  C    0.021101  -0.014341  -0.375463   0.369984   0.194289   0.126162
    16  C    0.103686  -0.470366   0.146728   0.149029  -0.012391  -0.045558
    17  C   -0.923930  -2.339764  -0.775192  -1.611649  -0.639715  -0.774208
    18  H   -0.059690  -0.008362   0.166296   0.036838  -0.027821  -0.000689
    19  H   -0.003455  -0.004592   0.010150   0.002331  -0.002671  -0.000043
    20  H    0.001323   0.024235  -0.032308  -0.020851   0.000867  -0.000330
    21  H    0.001476   0.056153  -0.086457   0.028014   0.018953   0.000693
    22  C   -0.170467  -0.200716   0.216750   0.216783  -0.200709  -0.084476
    23  H   -0.114845  -0.026043   0.040190   0.040236  -0.026055  -0.011088
    24  H   -0.027055   0.006786  -0.013375  -0.027634  -0.015752   0.011685
    25  H   -0.026997  -0.015827  -0.027668  -0.013406   0.006853   0.009141
    26  C   -0.170042  -0.200675   0.216983   0.217151  -0.200859  -0.084618
    27  H   -0.027005  -0.015826  -0.027675  -0.013411   0.006858   0.009134
    28  H   -0.027052   0.006805  -0.013380  -0.027636  -0.015774   0.011691
    29  H   -0.114776  -0.026057   0.040218   0.040266  -0.026087  -0.011109
               7          8          9         10         11         12
     1  C    0.104049   0.021021  -0.962907   0.001492   0.001319  -0.003454
     2  C   -0.011819   0.193595  -1.374929   0.018922   0.000870  -0.002677
     3  C    0.148850   0.370282  -1.203398   0.027960  -0.020856   0.002330
     4  C    0.145423  -0.374135  -2.043291  -0.086285  -0.032312   0.010171
     5  C   -0.468221  -0.015781  -0.835580   0.056108   0.024254  -0.004609
     6  C    0.589312  -0.667283   1.932838  -0.029905   0.033889  -0.012331
     7  C    5.360447   0.847116  -0.745415   0.010035  -0.040054   0.299274
     8  C    0.847116   6.557077  -0.669003   0.014145   0.323858  -0.035738
     9  C   -0.745415  -0.669003  10.737275   0.289892   0.006877   0.041115
    10  H    0.010035   0.014145   0.289892   0.545279  -0.004167  -0.000157
    11  H   -0.040054   0.323858   0.006877  -0.004167   0.534250  -0.004271
    12  H    0.299274  -0.035738   0.041115  -0.000157  -0.004271   0.536857
    13  H    0.008428  -0.003719  -0.037284   0.000020  -0.000158  -0.004492
    14  C   -0.059567  -0.099303   0.691123  -0.023977  -0.001549   0.000923
    15  C   -0.014336  -0.184951  -0.099433   0.000166  -0.000365   0.000132
    16  C    0.001510  -0.014287  -0.059361  -0.001092   0.000054  -0.000029
    17  C   -0.045432   0.126083   0.451866   0.000687  -0.000330  -0.000044
    18  H   -0.000184   0.000117   0.001718   0.000000   0.000000  -0.000000
    19  H   -0.000029   0.000131   0.000924  -0.000000  -0.000000  -0.000000
    20  H    0.000054  -0.000365  -0.001549   0.000001   0.000000  -0.000000
    21  H   -0.001097   0.000178  -0.024016   0.001084   0.000001  -0.000000
    22  C    0.016087  -0.001797   0.002093  -0.000095  -0.000239  -0.000235
    23  H    0.000952  -0.001680   0.004088   0.000001   0.000000  -0.000000
    24  H   -0.000994  -0.001139  -0.000749   0.000000  -0.000000   0.000002
    25  H    0.000192   0.000311   0.000371  -0.000000  -0.000000  -0.000000
    26  C    0.016017  -0.001756   0.002045  -0.000096  -0.000240  -0.000235
    27  H    0.000192   0.000311   0.000371  -0.000000  -0.000000  -0.000000
    28  H   -0.000999  -0.001138  -0.000749   0.000000  -0.000000   0.000002
    29  H    0.000953  -0.001681   0.004085   0.000001   0.000000  -0.000000
              13         14         15         16         17         18
     1  C   -0.059638  -0.963732   0.021101   0.103686  -0.923930  -0.059690
     2  C   -0.027824  -0.835284  -0.014341  -0.470366  -2.339764  -0.008362
     3  C    0.036857  -2.044488  -0.375463   0.146728  -0.775192   0.166296
     4  C    0.166425  -1.205146   0.369984   0.149029  -1.611649   0.036838
     5  C   -0.008439  -1.376117   0.194289  -0.012391  -0.639715  -0.027821
     6  C    0.198970   0.452509   0.126162  -0.045558  -0.774208  -0.000689
     7  C    0.008428  -0.059567  -0.014336   0.001510  -0.045432  -0.000184
     8  C   -0.003719  -0.099303  -0.184951  -0.014287   0.126083   0.000117
     9  C   -0.037284   0.691123  -0.099433  -0.059361   0.451866   0.001718
    10  H    0.000020  -0.023977   0.000166  -0.001092   0.000687   0.000000
    11  H   -0.000158  -0.001549  -0.000365   0.000054  -0.000330   0.000000
    12  H   -0.004492   0.000923   0.000132  -0.000029  -0.000044  -0.000000
    13  H    0.544175   0.001720   0.000117  -0.000182  -0.000690   0.000000
    14  C    0.001720  10.739421  -0.668907  -0.744562   1.933714  -0.037231
    15  C    0.000117  -0.668907   6.557467   0.846740  -0.667554  -0.003732
    16  C   -0.000182  -0.744562   0.846740   5.360571   0.590237   0.008507
    17  C   -0.000690   1.933714  -0.667554   0.590237  10.680778   0.198999
    18  H    0.000000  -0.037231  -0.003732   0.008507   0.198999   0.544179
    19  H   -0.000000   0.041076  -0.035673   0.299220  -0.012305  -0.004494
    20  H    0.000000   0.006903   0.323818  -0.040022   0.033878  -0.000158
    21  H    0.000000   0.290095   0.014024   0.010050  -0.029917   0.000020
    22  C    0.003222   0.001979  -0.001750   0.015932  -0.084365   0.003211
    23  H    0.000047   0.004076  -0.001677   0.000943  -0.011109   0.000047
    24  H    0.000157   0.000370   0.000313   0.000188   0.009138  -0.000038
    25  H   -0.000038  -0.000752  -0.001138  -0.001014   0.011738   0.000159
    26  C    0.003225   0.001880  -0.001778   0.015997  -0.084530   0.003210
    27  H   -0.000038  -0.000753  -0.001137  -0.001012   0.011754   0.000159
    28  H    0.000157   0.000369   0.000313   0.000190   0.009139  -0.000038
    29  H    0.000047   0.004076  -0.001679   0.000943  -0.011126   0.000047
              19         20         21         22         23         24
     1  C   -0.003455   0.001323   0.001476  -0.170467  -0.114845  -0.027055
     2  C   -0.004592   0.024235   0.056153  -0.200716  -0.026043   0.006786
     3  C    0.010150  -0.032308  -0.086457   0.216750   0.040190  -0.013375
     4  C    0.002331  -0.020851   0.028014   0.216783   0.040236  -0.027634
     5  C   -0.002671   0.000867   0.018953  -0.200709  -0.026055  -0.015752
     6  C   -0.000043  -0.000330   0.000693  -0.084476  -0.011088   0.011685
     7  C   -0.000029   0.000054  -0.001097   0.016087   0.000952  -0.000994
     8  C    0.000131  -0.000365   0.000178  -0.001797  -0.001680  -0.001139
     9  C    0.000924  -0.001549  -0.024016   0.002093   0.004088  -0.000749
    10  H   -0.000000   0.000001   0.001084  -0.000095   0.000001   0.000000
    11  H   -0.000000   0.000000   0.000001  -0.000239   0.000000  -0.000000
    12  H   -0.000000  -0.000000  -0.000000  -0.000235  -0.000000   0.000002
    13  H   -0.000000   0.000000   0.000000   0.003222   0.000047   0.000157
    14  C    0.041076   0.006903   0.290095   0.001979   0.004076   0.000370
    15  C   -0.035673   0.323818   0.014024  -0.001750  -0.001677   0.000313
    16  C    0.299220  -0.040022   0.010050   0.015932   0.000943   0.000188
    17  C   -0.012305   0.033878  -0.029917  -0.084365  -0.011109   0.009138
    18  H   -0.004494  -0.000158   0.000020   0.003211   0.000047  -0.000038
    19  H    0.536869  -0.004272  -0.000157  -0.000237  -0.000000  -0.000000
    20  H   -0.004272   0.534240  -0.004164  -0.000239   0.000000  -0.000000
    21  H   -0.000157  -0.004164   0.545272  -0.000096   0.000001  -0.000000
    22  C   -0.000237  -0.000239  -0.000096   6.400503   0.432856   0.410595
    23  H   -0.000000   0.000000   0.000001   0.432856   0.490271  -0.027867
    24  H   -0.000000  -0.000000  -0.000000   0.410595  -0.027867   0.513794
    25  H    0.000002  -0.000000   0.000000   0.410594  -0.027862  -0.029889
    26  C   -0.000237  -0.000239  -0.000097  -0.533847   0.007670  -0.025938
    27  H    0.000002  -0.000000   0.000000  -0.025978   0.000009   0.000181
    28  H   -0.000000  -0.000000  -0.000000  -0.025942   0.000009   0.002293
    29  H   -0.000000   0.000000   0.000001   0.007692  -0.000146   0.000009
              25         26         27         28         29
     1  C   -0.026997  -0.170042  -0.027005  -0.027052  -0.114776
     2  C   -0.015827  -0.200675  -0.015826   0.006805  -0.026057
     3  C   -0.027668   0.216983  -0.027675  -0.013380   0.040218
     4  C   -0.013406   0.217151  -0.013411  -0.027636   0.040266
     5  C    0.006853  -0.200859   0.006858  -0.015774  -0.026087
     6  C    0.009141  -0.084618   0.009134   0.011691  -0.011109
     7  C    0.000192   0.016017   0.000192  -0.000999   0.000953
     8  C    0.000311  -0.001756   0.000311  -0.001138  -0.001681
     9  C    0.000371   0.002045   0.000371  -0.000749   0.004085
    10  H   -0.000000  -0.000096  -0.000000   0.000000   0.000001
    11  H   -0.000000  -0.000240  -0.000000  -0.000000   0.000000
    12  H   -0.000000  -0.000235  -0.000000   0.000002  -0.000000
    13  H   -0.000038   0.003225  -0.000038   0.000157   0.000047
    14  C   -0.000752   0.001880  -0.000753   0.000369   0.004076
    15  C   -0.001138  -0.001778  -0.001137   0.000313  -0.001679
    16  C   -0.001014   0.015997  -0.001012   0.000190   0.000943
    17  C    0.011738  -0.084530   0.011754   0.009139  -0.011126
    18  H    0.000159   0.003210   0.000159  -0.000038   0.000047
    19  H    0.000002  -0.000237   0.000002  -0.000000  -0.000000
    20  H   -0.000000  -0.000239  -0.000000  -0.000000   0.000000
    21  H    0.000000  -0.000097   0.000000  -0.000000   0.000001
    22  C    0.410594  -0.533847  -0.025978  -0.025942   0.007692
    23  H   -0.027862   0.007670   0.000009   0.000009  -0.000146
    24  H   -0.029889  -0.025938   0.000181   0.002293   0.000009
    25  H    0.513774  -0.025955   0.002288   0.000181   0.000009
    26  C   -0.025955   6.400168   0.410616   0.410600   0.432795
    27  H    0.002288   0.410616   0.513775  -0.029889  -0.027862
    28  H    0.000181   0.410600  -0.029889   0.513792  -0.027867
    29  H    0.000009   0.432795  -0.027862  -0.027867   0.490266
 Mulliken charges:
               1
     1  C    0.377048
     2  C    0.167422
     3  C   -0.224790
     4  C   -0.225394
     5  C    0.168163
     6  C   -0.046303
     7  C   -0.160745
     8  C   -0.380468
     9  C   -0.109015
    10  H    0.179981
    11  H    0.179170
    12  H    0.177468
    13  H    0.178934
    14  C   -0.108863
    15  C   -0.380708
    16  C   -0.160650
    17  C   -0.046150
    18  H    0.178930
    19  H    0.177461
    20  H    0.179180
    21  H    0.179985
    22  C   -0.807110
    23  H    0.226976
    24  H    0.214919
    25  H    0.214932
    26  C   -0.807214
    27  H    0.214936
    28  H    0.214923
    29  H    0.226982
 Sum of Mulliken charges =  -0.00000
 Mulliken charges with hydrogens summed into heavy atoms:
               1
     1  C    0.377048
     2  C    0.167422
     3  C   -0.224790
     4  C   -0.225394
     5  C    0.168163
     6  C    0.132632
     7  C    0.016724
     8  C   -0.201298
     9  C    0.070965
    14  C    0.071123
    15  C   -0.201528
    16  C    0.016810
    17  C    0.132779
    22  C   -0.150282
    26  C   -0.150373
 Electronic spatial extent (au):  <R**2>=           2926.8970
 Charge=             -0.0000 electrons
 Dipole moment (field-independent basis, Debye):
    X=              0.0001    Y=              0.5215    Z=             -0.0000  Tot=              0.5215
 Quadrupole moment (field-independent basis, Debye-Ang):
   XX=            -83.1662   YY=            -81.5068   ZZ=            -95.6409
   XY=             -0.0005   XZ=              0.0000   YZ=             -0.0004
 Traceless Quadrupole moment (field-independent basis, Debye-Ang):
   XX=              3.6051   YY=              5.2645   ZZ=             -8.8696
   XY=             -0.0005   XZ=              0.0000   YZ=             -0.0004
 Octapole moment (field-independent basis, Debye-Ang**2):
  XXX=              0.0058  YYY=            -11.2149  ZZZ=              0.0001  XYY=             -0.0011
  XXY=             -1.0658  XXZ=             -0.0019  XZZ=             -0.0014  YZZ=              5.8691
  YYZ=             -0.0002  XYZ=             -0.0004
 Hexadecapole moment (field-independent basis, Debye-Ang**3):
 XXXX=          -2320.7126 YYYY=          -1298.4894 ZZZZ=           -293.8073 XXXY=             -0.0024
 XXXZ=              0.0013 YYYX=             -0.0070 YYYZ=             -0.0021 ZZZX=             -0.0001
 ZZZY=             -0.0015 XXYY=           -595.6528 XXZZ=           -529.6818 YYZZ=           -295.6305
 XXYZ=             -0.0016 YYXZ=              0.0001 ZZXY=             -0.0020
 N-N= 9.251956199566D+02 E-N=-3.191797328299D+03  KE= 5.743516453415D+02
 No NMR shielding tensors so no spin-rotation constants.
 Leave Link  601 at Tue Mar 17 07:35:01 2026, MaxMem=   104857600 cpu:               0.1 elap:               0.1
 (Enter /sw/cluster/pub/apps//g16/l9999.exe)
 1\1\GINC-N07\SP\RB3LYP\6-31+G(d)\C15H14\UNKNOWN\17-Mar-2026\0\\#P B3LY
 P/6-31+G* nosymm Density=Current\\Single-Point F1 6-31+G*\\0,1\C,0,-0.
 00014579,1.41732292,-0.00001987\C,0,1.18163833,0.44671044,-0.00004596\
 C,0,0.73497414,-0.8908856,-0.00002419\C,0,-0.73478884,-0.89100607,-0.0
 0002323\C,0,-1.18162777,0.44652539,-0.00001234\C,0,-2.54465149,0.72987
 06,-0.00003473\C,0,-3.46395146,-0.32864705,-0.00003495\C,0,-3.01869018
 ,-1.6567021,0.00000706\C,0,-1.65062624,-1.94731087,-0.0000113\H,0,-1.3
 1078245,-2.98043369,0.0000017\H,0,-3.74247945,-2.46798329,-0.00000637\
 H,0,-4.53038898,-0.11715536,-0.00007039\H,0,-2.90193422,1.75765811,-0.
 00006458\C,0,1.65078062,-1.94721885,0.00001229\C,0,3.01883655,-1.65658
 965,-0.00000387\C,0,3.46397071,-0.3285004,-0.0000378\C,0,2.54466763,0.
 73001696,-0.00006094\H,0,2.90207349,1.7577643,-0.00012926\H,0,4.530399
 09,-0.11694761,-0.00007083\H,0,3.74273041,-2.46777679,0.00001247\H,0,1
 .31077402,-2.98028141,0.00003655\C,0,-0.00018175,2.30628365,-1.2651636
 5\H,0,-0.00064357,1.69734893,-2.17550712\H,0,-0.88644279,2.95196097,-1
 .28433884\H,0,0.88653389,2.95130833,-1.28473958\C,0,-0.00012814,2.3059
 7868,1.26536683\H,0,0.88670705,2.95083174,1.28516682\H,0,-0.88627381,2
 .9518089,1.28467299\H,0,-0.00073053,1.69680859,2.17555631\\Version=ES6
 4L-G16RevA.03\HF=-580.0697506\RMSD=9.359e-09\Dipole=0.0000496,0.205190
 5,-0.0000167\Quadrupole=2.6802905,3.9140573,-6.5943479,-0.0003521,0.00
 0021,-0.000263\PG=C01 [X(C15H14)]\\@


 Sacred cows make the best hamburger.
                               -- Mark Twain
 Job cpu time:       0 days  0 hours  2 minutes 29.2 seconds.
 Elapsed time:       0 days  0 hours  2 minutes 29.6 seconds.
 File lengths (MBytes):  RWF=     55 Int=      0 D2E=      0 Chk=      7 Scr=      1
 Normal termination of Gaussian 16 at Tue Mar 17 07:35:01 2026.
