%chk=f1-6-31+Gstar.chk
#P B3LYP/6-31+G* nosymm Density=Current

Single-Point F1 6-31+G*

0 1
 C                 -0.00014579    1.41732292   -0.00001987
 C                  1.18163833    0.44671044   -0.00004596
 C                  0.73497414   -0.89088560   -0.00002419
 C                 -0.73478884   -0.89100607   -0.00002323
 C                 -1.18162777    0.44652539   -0.00001234
 C                 -2.54465149    0.72987060   -0.00003473
 C                 -3.46395146   -0.32864705   -0.00003495
 C                 -3.01869018   -1.65670210    0.00000706
 C                 -1.65062624   -1.94731087   -0.00001130
 H                 -1.31078245   -2.98043369    0.00000170
 H                 -3.74247945   -2.46798329   -0.00000637
 H                 -4.53038898   -0.11715536   -0.00007039
 H                 -2.90193422    1.75765811   -0.00006458
 C                  1.65078062   -1.94721885    0.00001229
 C                  3.01883655   -1.65658965   -0.00000387
 C                  3.46397071   -0.32850040   -0.00003780
 C                  2.54466763    0.73001696   -0.00006094
 H                  2.90207349    1.75776430   -0.00012926
 H                  4.53039909   -0.11694761   -0.00007083
 H                  3.74273041   -2.46777679    0.00001247
 H                  1.31077402   -2.98028141    0.00003655
 C                 -0.00018175    2.30628365   -1.26516365
 H                 -0.00064357    1.69734893   -2.17550712
 H                 -0.88644279    2.95196097   -1.28433884
 H                  0.88653389    2.95130833   -1.28473958
 C                 -0.00012814    2.30597868    1.26536683
 H                  0.88670705    2.95083174    1.28516682
 H                 -0.88627381    2.95180890    1.28467299
 H                 -0.00073053    1.69680859    2.17555631


