%chk=f2-6-311Gdp_SP.chk
#p B3LYP/6-311G(d,p) nosymm density=current sp

Generated by extraQ₂

0 1
C         0.52922285      -1.61388009       0.98980343
C         0.68399565      -0.83930591      -1.64071029
H         0.43056494      -2.80764164      -0.78360990
H         1.99790046      -2.10255802      -0.51928990
C         0.79434267      -0.21429075       1.54640539
C         1.68261813       0.31948252      -1.62794990
C         1.01597862       1.55587516      -1.62794990
C        -0.38742257       0.34544435       2.06593529
C        -1.48341047      -0.61070757       1.87874601
C        -0.42886797       1.30512952      -1.62794990
C        -0.64632087      -0.08500947      -1.62578204
C        -0.97208344      -1.75620498       1.24672293
C        -1.79833358      -2.84291384       0.99327037
C        -1.94003099      -0.58533041      -1.69576484
C        -3.14663465      -2.77385599       1.35344607
C        -3.01540440       0.30428863      -1.73699541
C        -2.79805418       1.68329885      -1.71791458
C        -3.65746718      -1.62806548       1.96651128
C        -2.82881567      -0.54041126       2.23710634
C        -1.50275339       2.19362740      -1.66812004
H        -1.33655746       3.26539447      -1.66786032
H        -3.22958832       0.34397411       2.72021046
H        -4.70598579      -1.58759165       2.24017674
H        -3.64386073       2.36130355      -1.74888087
H        -3.80025024      -3.61706367       1.15906135
H        -4.02788908      -0.08062385      -1.78011478
H        -1.41214523      -3.74118123       0.52156126
H        -2.12635786      -1.65258568      -1.70752772
C        -0.37330561       1.59983814       2.67467704
C         1.73650106       2.74910272      -1.65104762
C         0.83395514       2.28819025       2.77171293
C         3.12901734       2.69661001      -1.68301125
C         2.01152297       1.72559916       2.27563489
C         3.79240296       1.46808923      -1.69997940
C         3.06949124       0.27259572      -1.67532781
C         1.99710228       0.46992886       1.66519150
H         3.59677489      -0.67617565      -1.69374579
H         2.91923585       0.04936630       1.28219432
H         2.94550501       2.26924768       2.36088218
H         4.87591801       1.44202526      -1.73627052
H         0.86132849       3.26509149       3.24176741
H         3.70243305       3.61680726      -1.70177089
H        -1.28389526       2.03326491       3.07376693
H         1.22654934       3.70621453      -1.64552222
C         1.28683931      -2.66040397       1.84998455
H         0.99321626      -2.58188144       2.89855663
H         1.06637130      -3.67595084       1.50825579
H         2.36704960      -2.50535079       1.78297065
C         0.92687938      -1.87413285      -0.49727733
C         0.82366312      -1.60718300      -2.98234525
H         1.79419852      -2.10827457      -3.04309021
H         0.04203480      -2.36597493      -3.07550408
H         0.73968213      -0.92225422      -3.82833820



