53
Generated from .fchk
C -0.815401 1.105065 1.406538
C 0.815363 -1.104942 1.406592
H -0.709512 -0.502308 2.815415
H 0.709569 0.502559 2.815309
C -0.169634 1.734953 0.171560
C 2.133844 -0.592935 0.823791
C 2.233509 -0.906076 -0.541890
C -1.015593 1.615659 -0.946432
C -2.233501 0.906040 -0.541961
C 1.015601 -1.615711 -0.946332
C 0.169616 -1.734904 0.171648
C -2.133853 0.592993 0.823742
C -3.182603 -0.043802 1.473726
C -1.025669 -2.434249 0.066221
C -4.326172 -0.388730 0.748684
C -1.387731 -2.987007 -1.163787
C -0.556433 -2.849452 -2.277024
C -4.417126 -0.091970 -0.612674
C -3.373486 0.560959 -1.266414
C 0.653661 -2.166828 -2.174966
H 1.303961 -2.073961 -3.037979
H -3.452876 0.795481 -2.322275
H -5.310134 -0.365952 -1.163485
H -0.852453 -3.283163 -3.225868
H -5.150387 -0.886971 1.247105
H -2.324957 -3.524099 -1.254791
H -3.125975 -0.275670 2.532766
H -1.684060 -2.546950 0.919280
C -0.653622 2.166662 -2.175107
C 3.373502 -0.561054 -1.266358
C 0.556473 2.849283 -2.277194
C 4.417148 0.091899 -0.612650
C 1.387739 2.986944 -1.163949
C 4.326186 0.388734 0.748690
C 3.182603 0.043874 1.473744
C 1.025647 2.434295 0.066102
H 3.125985 0.275802 2.532771
H 1.684020 2.547079 0.919164
H 2.324963 3.524037 -1.254974
H 5.150403 0.886993 1.247093
H 0.852521 3.282901 -3.226071
H 5.310163 0.365839 -1.163469
H -1.303890 2.073696 -3.038133
H 3.452899 -0.795656 -2.322200
C -1.124159 2.214842 2.446812
H -1.760513 2.986396 2.009043
H -1.640827 1.798237 3.316418
H -0.200574 2.686605 2.792958
C -0.000001 0.000099 2.149131
C 1.124090 -2.214672 2.446935
H 1.640774 -1.798037 3.316518
H 0.200491 -2.686387 2.793109
H 1.760420 -2.986274 2.009215