 Entering Gaussian System, Link 0=g16
 Initial command:
 /sw/cluster/pub/apps//g16/l1.exe "/data/mmaximo/44344/Gau-1908495.inp" -scrdir="/data/mmaximo/44344/"
 Entering Link 1 = /sw/cluster/pub/apps//g16/l1.exe PID=   1908496.
  
 Copyright (c) 1988,1990,1992,1993,1995,1998,2003,2009,2016,
            Gaussian, Inc.  All Rights Reserved.
  
 This is part of the Gaussian(R) 16 program.  It is based on
 the Gaussian(R) 09 system (copyright 2009, Gaussian, Inc.),
 the Gaussian(R) 03 system (copyright 2003, Gaussian, Inc.),
 the Gaussian(R) 98 system (copyright 1998, Gaussian, Inc.),
 the Gaussian(R) 94 system (copyright 1995, Gaussian, Inc.),
 the Gaussian 92(TM) system (copyright 1992, Gaussian, Inc.),
 the Gaussian 90(TM) system (copyright 1990, Gaussian, Inc.),
 the Gaussian 88(TM) system (copyright 1988, Gaussian, Inc.),
 the Gaussian 86(TM) system (copyright 1986, Carnegie Mellon
 University), and the Gaussian 82(TM) system (copyright 1983,
 Carnegie Mellon University). Gaussian is a federally registered
 trademark of Gaussian, Inc.
  
 This software contains proprietary and confidential information,
 including trade secrets, belonging to Gaussian, Inc.
  
 This software is provided under written license and may be
 used, copied, transmitted, or stored only in accord with that
 written license.
  
 The following legend is applicable only to US Government
 contracts under FAR:
  
                    RESTRICTED RIGHTS LEGEND
  
 Use, reproduction and disclosure by the US Government is
 subject to restrictions as set forth in subparagraphs (a)
 and (c) of the Commercial Computer Software - Restricted
 Rights clause in FAR 52.227-19.
  
 Gaussian, Inc.
 340 Quinnipiac St., Bldg. 40, Wallingford CT 06492
  
  
 ---------------------------------------------------------------
 Warning -- This program may not be used in any manner that
 competes with the business of Gaussian, Inc. or will provide
 assistance to any competitor of Gaussian, Inc.  The licensee
 of this program is prohibited from giving any competitor of
 Gaussian, Inc. access to this program.  By using this program,
 the user acknowledges that Gaussian, Inc. is engaged in the
 business of creating and licensing software in the field of
 computational chemistry and represents and warrants to the
 licensee that it is not a competitor of Gaussian, Inc. and that
 it will not use this program in any manner prohibited above.
 ---------------------------------------------------------------
  

 Cite this work as:
 Gaussian 16, Revision A.03,
 M. J. Frisch, G. W. Trucks, H. B. Schlegel, G. E. Scuseria, 
 M. A. Robb, J. R. Cheeseman, G. Scalmani, V. Barone, 
 G. A. Petersson, H. Nakatsuji, X. Li, M. Caricato, A. V. Marenich, 
 J. Bloino, B. G. Janesko, R. Gomperts, B. Mennucci, H. P. Hratchian, 
 J. V. Ortiz, A. F. Izmaylov, J. L. Sonnenberg, D. Williams-Young, 
 F. Ding, F. Lipparini, F. Egidi, J. Goings, B. Peng, A. Petrone, 
 T. Henderson, D. Ranasinghe, V. G. Zakrzewski, J. Gao, N. Rega, 
 G. Zheng, W. Liang, M. Hada, M. Ehara, K. Toyota, R. Fukuda, 
 J. Hasegawa, M. Ishida, T. Nakajima, Y. Honda, O. Kitao, H. Nakai, 
 T. Vreven, K. Throssell, J. A. Montgomery, Jr., J. E. Peralta, 
 F. Ogliaro, M. J. Bearpark, J. J. Heyd, E. N. Brothers, K. N. Kudin, 
 V. N. Staroverov, T. A. Keith, R. Kobayashi, J. Normand, 
 K. Raghavachari, A. P. Rendell, J. C. Burant, S. S. Iyengar, 
 J. Tomasi, M. Cossi, J. M. Millam, M. Klene, C. Adamo, R. Cammi, 
 J. W. Ochterski, R. L. Martin, K. Morokuma, O. Farkas, 
 J. B. Foresman, and D. J. Fox, Gaussian, Inc., Wallingford CT, 2016.
 
 ******************************************
 Gaussian 16:  ES64L-G16RevA.03 25-Dec-2016
                17-Mar-2026 
 ******************************************
 %chk=f2-6-311Gdp_SP.chk
 ----------------------------------------------
 #p B3LYP/6-311G(d,p) nosymm density=current sp
 ----------------------------------------------
 1/30=1,38=1,172=1/1;
 2/12=2,15=1,17=6,18=5,40=1/2;
 3/5=4,6=6,7=101,11=2,25=1,30=1,74=-5/1,2,3;
 4//1;
 5/5=2,38=5/2;
 6/7=2,8=2,9=2,10=2,22=-1,28=1/1;
 99/5=1,9=1/99;
 Leave Link    1 at Tue Mar 17 09:54:22 2026, MaxMem=           0 cpu:               0.0 elap:               0.0
 (Enter /sw/cluster/pub/apps//g16/l101.exe)
 ----------------------
 Generated by extraQ₂
 ----------------------
 Symbolic Z-matrix:
 Charge =  0 Multiplicity = 1
 C                     0.52922  -1.61388   0.9898 
 C                     0.684    -0.83931  -1.64071 
 H                     0.43056  -2.80764  -0.78361 
 H                     1.9979   -2.10256  -0.51929 
 C                     0.79434  -0.21429   1.54641 
 C                     1.68262   0.31948  -1.62795 
 C                     1.01598   1.55588  -1.62795 
 C                    -0.38742   0.34544   2.06594 
 C                    -1.48341  -0.61071   1.87875 
 C                    -0.42887   1.30513  -1.62795 
 C                    -0.64632  -0.08501  -1.62578 
 C                    -0.97208  -1.7562    1.24672 
 C                    -1.79833  -2.84291   0.99327 
 C                    -1.94003  -0.58533  -1.69576 
 C                    -3.14663  -2.77386   1.35345 
 C                    -3.0154    0.30429  -1.737 
 C                    -2.79805   1.6833   -1.71791 
 C                    -3.65747  -1.62807   1.96651 
 C                    -2.82882  -0.54041   2.23711 
 C                    -1.50275   2.19363  -1.66812 
 H                    -1.33656   3.26539  -1.66786 
 H                    -3.22959   0.34397   2.72021 
 H                    -4.70599  -1.58759   2.24018 
 H                    -3.64386   2.3613   -1.74888 
 H                    -3.80025  -3.61706   1.15906 
 H                    -4.02789  -0.08062  -1.78011 
 H                    -1.41215  -3.74118   0.52156 
 H                    -2.12636  -1.65259  -1.70753 
 C                    -0.37331   1.59984   2.67468 
 C                     1.7365    2.7491   -1.65105 
 C                     0.83396   2.28819   2.77171 
 C                     3.12902   2.69661  -1.68301 
 C                     2.01152   1.7256    2.27563 
 C                     3.7924    1.46809  -1.69998 
 C                     3.06949   0.2726   -1.67533 
 C                     1.9971    0.46993   1.66519 
 H                     3.59677  -0.67618  -1.69375 
 H                     2.91924   0.04937   1.28219 
 H                     2.94551   2.26925   2.36088 
 H                     4.87592   1.44203  -1.73627 
 H                     0.86133   3.26509   3.24177 
 H                     3.70243   3.61681  -1.70177 
 H                    -1.2839    2.03326   3.07377 
 H                     1.22655   3.70621  -1.64552 
 C                     1.28684  -2.6604    1.84998 
 H                     0.99322  -2.58188   2.89856 
 H                     1.06637  -3.67595   1.50826 
 H                     2.36705  -2.50535   1.78297 
 C                     0.92688  -1.87413  -0.49728 
 C                     0.82366  -1.60718  -2.98235 
 H                     1.7942   -2.10827  -3.04309 
 H                     0.04203  -2.36597  -3.0755 
 H                     0.73968  -0.92225  -3.82834 
 
 ITRead=  0  0  0  0  0  0  0  0  0  0  0  0  0  0  0  0  0  0  0  0
 ITRead=  0  0  0  0  0  0  0  0  0  0  0  0  0  0  0  0  0  0  0  0
 ITRead=  0  0  0  0  0  0  0  0  0  0  0  0  0
 MicOpt= -1 -1 -1 -1 -1 -1 -1 -1 -1 -1 -1 -1 -1 -1 -1 -1 -1 -1 -1 -1
 MicOpt= -1 -1 -1 -1 -1 -1 -1 -1 -1 -1 -1 -1 -1 -1 -1 -1 -1 -1 -1 -1
 MicOpt= -1 -1 -1 -1 -1 -1 -1 -1 -1 -1 -1 -1 -1
 NAtoms=     53 NQM=       53 NQMF=       0 NMMI=      0 NMMIF=      0
                NMic=       0 NMicF=      0.
                    Isotopes and Nuclear Properties:
 (Nuclear quadrupole moments (NQMom) in fm**2, nuclear magnetic moments (NMagM)
  in nuclear magnetons)

  Atom         1           2           3           4           5           6           7           8           9          10
 IAtWgt=          12          12           1           1          12          12          12          12          12          12
 AtmWgt=  12.0000000  12.0000000   1.0078250   1.0078250  12.0000000  12.0000000  12.0000000  12.0000000  12.0000000  12.0000000
 NucSpn=           0           0           1           1           0           0           0           0           0           0
 AtZEff=  -0.0000000  -0.0000000  -0.0000000  -0.0000000  -0.0000000  -0.0000000  -0.0000000  -0.0000000  -0.0000000  -0.0000000
 NQMom=    0.0000000   0.0000000   0.0000000   0.0000000   0.0000000   0.0000000   0.0000000   0.0000000   0.0000000   0.0000000
 NMagM=    0.0000000   0.0000000   2.7928460   2.7928460   0.0000000   0.0000000   0.0000000   0.0000000   0.0000000   0.0000000
 AtZNuc=   6.0000000   6.0000000   1.0000000   1.0000000   6.0000000   6.0000000   6.0000000   6.0000000   6.0000000   6.0000000

  Atom        11          12          13          14          15          16          17          18          19          20
 IAtWgt=          12          12          12          12          12          12          12          12          12          12
 AtmWgt=  12.0000000  12.0000000  12.0000000  12.0000000  12.0000000  12.0000000  12.0000000  12.0000000  12.0000000  12.0000000
 NucSpn=           0           0           0           0           0           0           0           0           0           0
 AtZEff=  -0.0000000  -0.0000000  -0.0000000  -0.0000000  -0.0000000  -0.0000000  -0.0000000  -0.0000000  -0.0000000  -0.0000000
 NQMom=    0.0000000   0.0000000   0.0000000   0.0000000   0.0000000   0.0000000   0.0000000   0.0000000   0.0000000   0.0000000
 NMagM=    0.0000000   0.0000000   0.0000000   0.0000000   0.0000000   0.0000000   0.0000000   0.0000000   0.0000000   0.0000000
 AtZNuc=   6.0000000   6.0000000   6.0000000   6.0000000   6.0000000   6.0000000   6.0000000   6.0000000   6.0000000   6.0000000

  Atom        21          22          23          24          25          26          27          28          29          30
 IAtWgt=           1           1           1           1           1           1           1           1          12          12
 AtmWgt=   1.0078250   1.0078250   1.0078250   1.0078250   1.0078250   1.0078250   1.0078250   1.0078250  12.0000000  12.0000000
 NucSpn=           1           1           1           1           1           1           1           1           0           0
 AtZEff=  -0.0000000  -0.0000000  -0.0000000  -0.0000000  -0.0000000  -0.0000000  -0.0000000  -0.0000000  -0.0000000  -0.0000000
 NQMom=    0.0000000   0.0000000   0.0000000   0.0000000   0.0000000   0.0000000   0.0000000   0.0000000   0.0000000   0.0000000
 NMagM=    2.7928460   2.7928460   2.7928460   2.7928460   2.7928460   2.7928460   2.7928460   2.7928460   0.0000000   0.0000000
 AtZNuc=   1.0000000   1.0000000   1.0000000   1.0000000   1.0000000   1.0000000   1.0000000   1.0000000   6.0000000   6.0000000

  Atom        31          32          33          34          35          36          37          38          39          40
 IAtWgt=          12          12          12          12          12          12           1           1           1           1
 AtmWgt=  12.0000000  12.0000000  12.0000000  12.0000000  12.0000000  12.0000000   1.0078250   1.0078250   1.0078250   1.0078250
 NucSpn=           0           0           0           0           0           0           1           1           1           1
 AtZEff=  -0.0000000  -0.0000000  -0.0000000  -0.0000000  -0.0000000  -0.0000000  -0.0000000  -0.0000000  -0.0000000  -0.0000000
 NQMom=    0.0000000   0.0000000   0.0000000   0.0000000   0.0000000   0.0000000   0.0000000   0.0000000   0.0000000   0.0000000
 NMagM=    0.0000000   0.0000000   0.0000000   0.0000000   0.0000000   0.0000000   2.7928460   2.7928460   2.7928460   2.7928460
 AtZNuc=   6.0000000   6.0000000   6.0000000   6.0000000   6.0000000   6.0000000   1.0000000   1.0000000   1.0000000   1.0000000

  Atom        41          42          43          44          45          46          47          48          49          50
 IAtWgt=           1           1           1           1          12           1           1           1          12          12
 AtmWgt=   1.0078250   1.0078250   1.0078250   1.0078250  12.0000000   1.0078250   1.0078250   1.0078250  12.0000000  12.0000000
 NucSpn=           1           1           1           1           0           1           1           1           0           0
 AtZEff=  -0.0000000  -0.0000000  -0.0000000  -0.0000000  -0.0000000  -0.0000000  -0.0000000  -0.0000000  -0.0000000  -0.0000000
 NQMom=    0.0000000   0.0000000   0.0000000   0.0000000   0.0000000   0.0000000   0.0000000   0.0000000   0.0000000   0.0000000
 NMagM=    2.7928460   2.7928460   2.7928460   2.7928460   0.0000000   2.7928460   2.7928460   2.7928460   0.0000000   0.0000000
 AtZNuc=   1.0000000   1.0000000   1.0000000   1.0000000   6.0000000   1.0000000   1.0000000   1.0000000   6.0000000   6.0000000

  Atom        51          52          53
 IAtWgt=           1           1           1
 AtmWgt=   1.0078250   1.0078250   1.0078250
 NucSpn=           1           1           1
 AtZEff=  -0.0000000  -0.0000000  -0.0000000
 NQMom=    0.0000000   0.0000000   0.0000000
 NMagM=    2.7928460   2.7928460   2.7928460
 AtZNuc=   1.0000000   1.0000000   1.0000000
 Leave Link  101 at Tue Mar 17 09:54:22 2026, MaxMem=   104857600 cpu:               0.0 elap:               0.0
 (Enter /sw/cluster/pub/apps//g16/l202.exe)
 Symmetry turned off by external request.
 Stoichiometry    C29H24
 Framework group  C1[X(C29H24)]
 Deg. of freedom   153
 Full point group                 C1      NOp   1
                          Input orientation:                          
 ---------------------------------------------------------------------
 Center     Atomic      Atomic             Coordinates (Angstroms)
 Number     Number       Type             X           Y           Z
 ---------------------------------------------------------------------
      1          6           0        0.529223   -1.613880    0.989803
      2          6           0        0.683996   -0.839306   -1.640710
      3          1           0        0.430565   -2.807642   -0.783610
      4          1           0        1.997900   -2.102558   -0.519290
      5          6           0        0.794343   -0.214291    1.546405
      6          6           0        1.682618    0.319483   -1.627950
      7          6           0        1.015979    1.555875   -1.627950
      8          6           0       -0.387423    0.345444    2.065935
      9          6           0       -1.483410   -0.610708    1.878746
     10          6           0       -0.428868    1.305130   -1.627950
     11          6           0       -0.646321   -0.085009   -1.625782
     12          6           0       -0.972083   -1.756205    1.246723
     13          6           0       -1.798334   -2.842914    0.993270
     14          6           0       -1.940031   -0.585330   -1.695765
     15          6           0       -3.146635   -2.773856    1.353446
     16          6           0       -3.015404    0.304289   -1.736995
     17          6           0       -2.798054    1.683299   -1.717915
     18          6           0       -3.657467   -1.628065    1.966511
     19          6           0       -2.828816   -0.540411    2.237106
     20          6           0       -1.502753    2.193627   -1.668120
     21          1           0       -1.336557    3.265394   -1.667860
     22          1           0       -3.229588    0.343974    2.720210
     23          1           0       -4.705986   -1.587592    2.240177
     24          1           0       -3.643861    2.361304   -1.748881
     25          1           0       -3.800250   -3.617064    1.159061
     26          1           0       -4.027889   -0.080624   -1.780115
     27          1           0       -1.412145   -3.741181    0.521561
     28          1           0       -2.126358   -1.652586   -1.707528
     29          6           0       -0.373306    1.599838    2.674677
     30          6           0        1.736501    2.749103   -1.651048
     31          6           0        0.833955    2.288190    2.771713
     32          6           0        3.129017    2.696610   -1.683011
     33          6           0        2.011523    1.725599    2.275635
     34          6           0        3.792403    1.468089   -1.699979
     35          6           0        3.069491    0.272596   -1.675328
     36          6           0        1.997102    0.469929    1.665192
     37          1           0        3.596775   -0.676176   -1.693746
     38          1           0        2.919236    0.049366    1.282194
     39          1           0        2.945505    2.269248    2.360882
     40          1           0        4.875918    1.442025   -1.736271
     41          1           0        0.861328    3.265091    3.241767
     42          1           0        3.702433    3.616807   -1.701771
     43          1           0       -1.283895    2.033265    3.073767
     44          1           0        1.226549    3.706215   -1.645522
     45          6           0        1.286839   -2.660404    1.849985
     46          1           0        0.993216   -2.581881    2.898557
     47          1           0        1.066371   -3.675951    1.508256
     48          1           0        2.367050   -2.505351    1.782971
     49          6           0        0.926879   -1.874133   -0.497277
     50          6           0        0.823663   -1.607183   -2.982345
     51          1           0        1.794199   -2.108275   -3.043090
     52          1           0        0.042035   -2.365975   -3.075504
     53          1           0        0.739682   -0.922254   -3.828338
 ---------------------------------------------------------------------
 Rotational constants (GHZ):           0.2648627           0.1789641           0.1625764
 Leave Link  202 at Tue Mar 17 09:54:22 2026, MaxMem=   104857600 cpu:               0.0 elap:               0.0
 (Enter /sw/cluster/pub/apps//g16/l301.exe)
 Standard basis: 6-311G(d,p) (5D, 7F)
 Ernie: Thresh=  0.10000D-02 Tol=  0.10000D-05 Strict=F.
   666 basis functions,  1120 primitive gaussians,   695 cartesian basis functions
    99 alpha electrons       99 beta electrons
       nuclear repulsion energy      2755.0778503747 Hartrees.
 IExCor=  402 DFT=T Ex+Corr=B3LYP ExCW=0 ScaHFX=  0.200000
 ScaDFX=  0.800000  0.720000  1.000000  0.810000 ScalE2=  1.000000  1.000000
 IRadAn=      5 IRanWt=     -1 IRanGd=            0 ICorTp=0 IEmpDi=  4
 NAtoms=   53 NActive=   53 NUniq=   53 SFac= 1.00D+00 NAtFMM=   60 NAOKFM=F Big=F
 Integral buffers will be    131072 words long.
 Raffenetti 2 integral format.
 Two-electron integral symmetry is turned off.
 Leave Link  301 at Tue Mar 17 09:54:22 2026, MaxMem=   104857600 cpu:               0.0 elap:               0.0
 (Enter /sw/cluster/pub/apps//g16/l302.exe)
 NPDir=0 NMtPBC=     1 NCelOv=     1 NCel=       1 NClECP=     1 NCelD=      1
         NCelK=      1 NCelE2=     1 NClLst=     1 CellRange=     0.0.
 One-electron integrals computed using PRISM.
 NBasis=   666 RedAO= T EigKep=  1.08D-04  NBF=   666
 NBsUse=   666 1.00D-06 EigRej= -1.00D+00 NBFU=   666
 Precomputing XC quadrature grid using
 IXCGrd= 4 IRadAn=           5 IRanWt=          -1 IRanGd=           0 AccXCQ= 0.00D+00.
 Generated NRdTot=       0 NPtTot=           0 NUsed=           0 NTot=          32
 NSgBfM=   694   693   693   694   694 MxSgAt=    53 MxSgA2=    53.
 Leave Link  302 at Tue Mar 17 09:54:24 2026, MaxMem=   104857600 cpu:               1.7 elap:               1.7
 (Enter /sw/cluster/pub/apps//g16/l303.exe)
 DipDrv:  MaxL=1.
 Leave Link  303 at Tue Mar 17 09:54:24 2026, MaxMem=   104857600 cpu:               0.0 elap:               0.0
 (Enter /sw/cluster/pub/apps//g16/l401.exe)
 ExpMin= 1.03D-01 ExpMax= 4.56D+03 ExpMxC= 6.82D+02 IAcc=3 IRadAn=         5 AccDes= 0.00D+00
 Harris functional with IExCor=  402 and IRadAn=       5 diagonalized for initial guess.
 HarFok:  IExCor=  402 AccDes= 0.00D+00 IRadAn=         5 IDoV= 1 UseB2=F ITyADJ=14
 ICtDFT=  3500011 ScaDFX=  1.000000  1.000000  1.000000  1.000000
 FoFCou: FMM=F IPFlag=           0 FMFlag=      100000 FMFlg1=           0
         NFxFlg=           0 DoJE=T BraDBF=F KetDBF=T FulRan=T
         wScrn=  0.000000 ICntrl=       500 IOpCl=  0 I1Cent=   200000004 NGrid=           0
         NMat0=    1 NMatS0=      1 NMatT0=    0 NMatD0=    1 NMtDS0=    0 NMtDT0=    0
 Symmetry not used in FoFCou.
 Harris En= -1119.91518055563    
 JPrj=0 DoOrth=F DoCkMO=F.
 Leave Link  401 at Tue Mar 17 09:54:40 2026, MaxMem=   104857600 cpu:              16.5 elap:              16.5
 (Enter /sw/cluster/pub/apps//g16/l502.exe)
 Two-electron integral symmetry not used.
 Closed shell SCF:
 Using DIIS extrapolation, IDIIS=  1040.
 NGot=   104857600 LenX=   103882090 LenY=   103398370
 Requested convergence on RMS density matrix=1.00D-08 within 128 cycles.
 Requested convergence on MAX density matrix=1.00D-06.
 Requested convergence on             energy=1.00D-06.
 No special actions if energy rises.
 Fock matrices will be formed incrementally for  20 cycles.
 Integral accuracy reduced to 1.0D-05 until final iterations.

 Cycle   1  Pass 0  IDiag  1:
 FoFJK:  IHMeth= 1 ICntrl=       0 DoSepK=F KAlg= 0 I1Cent=           0 FoldK=F
 IRaf= 770000000 NMat=       1 IRICut=       1 DoRegI=T DoRafI=F ISym2E= 0 IDoP0=0 IntGTp=1.
 FoFCou: FMM=F IPFlag=           0 FMFlag=      100000 FMFlg1=           0
         NFxFlg=           0 DoJE=F BraDBF=F KetDBF=F FulRan=T
         wScrn=  0.000000 ICntrl=         0 IOpCl=  0 I1Cent=           0 NGrid=           0
         NMat0=    1 NMatS0=      1 NMatT0=    0 NMatD0=    1 NMtDS0=    0 NMtDT0=    0
 Symmetry not used in FoFCou.
 E= -1119.12843647758    
 DIIS: error= 3.91D-02 at cycle   1 NSaved=   1.
 NSaved= 1 IEnMin= 1 EnMin= -1119.12843647758     IErMin= 1 ErrMin= 3.91D-02
 ErrMax= 3.91D-02  0.00D+00 EMaxC= 1.00D-01 BMatC= 7.07D-01 BMatP= 7.07D-01
 IDIUse=3 WtCom= 6.09D-01 WtEn= 3.91D-01
 Coeff-Com:  0.100D+01
 Coeff-En:   0.100D+01
 Coeff:      0.100D+01
 Gap=     0.178 Goal=   None    Shift=    0.000
 GapD=    0.178 DampG=1.000 DampE=0.500 DampFc=0.5000 IDamp=-1.
 Damping current iteration by 5.00D-01
 RMSDP=2.34D-03 MaxDP=1.24D-01              OVMax= 1.61D-01

 Cycle   2  Pass 0  IDiag  1:
 RMSU=  1.14D-03    CP:  9.62D-01
 E= -1119.45621212407     Delta-E=       -0.327775646482 Rises=F Damp=T
 DIIS: error= 5.90D-03 at cycle   2 NSaved=   2.
 NSaved= 2 IEnMin= 2 EnMin= -1119.45621212407     IErMin= 2 ErrMin= 5.90D-03
 ErrMax= 5.90D-03  0.00D+00 EMaxC= 1.00D-01 BMatC= 3.77D-02 BMatP= 7.07D-01
 IDIUse=3 WtCom= 9.41D-01 WtEn= 5.90D-02
 Coeff-Com: -0.171D-01 0.102D+01
 Coeff-En:   0.221D-01 0.978D+00
 Coeff:     -0.148D-01 0.101D+01
 Gap=     0.260 Goal=   None    Shift=    0.000
 RMSDP=7.21D-04 MaxDP=2.18D-02 DE=-3.28D-01 OVMax= 9.62D-02

 Cycle   3  Pass 0  IDiag  1:
 RMSU=  6.87D-04    CP:  9.62D-01  8.07D-01
 E= -1119.81517642950     Delta-E=       -0.358964305430 Rises=F Damp=F
 DIIS: error= 4.06D-03 at cycle   3 NSaved=   3.
 NSaved= 3 IEnMin= 3 EnMin= -1119.81517642950     IErMin= 3 ErrMin= 4.06D-03
 ErrMax= 4.06D-03  0.00D+00 EMaxC= 1.00D-01 BMatC= 1.37D-02 BMatP= 3.77D-02
 IDIUse=3 WtCom= 9.59D-01 WtEn= 4.06D-02
 Coeff-Com: -0.637D-01 0.362D+00 0.702D+00
 Coeff-En:   0.000D+00 0.000D+00 0.100D+01
 Coeff:     -0.611D-01 0.347D+00 0.714D+00
 Gap=     0.178 Goal=   None    Shift=    0.000
 RMSDP=4.00D-04 MaxDP=2.25D-02 DE=-3.59D-01 OVMax= 3.87D-02

 Cycle   4  Pass 0  IDiag  1:
 RMSU=  2.42D-04    CP:  9.56D-01  9.41D-01  5.98D-01
 E= -1119.82181788345     Delta-E=       -0.006641453957 Rises=F Damp=F
 DIIS: error= 6.14D-03 at cycle   4 NSaved=   4.
 NSaved= 4 IEnMin= 4 EnMin= -1119.82181788345     IErMin= 3 ErrMin= 4.06D-03
 ErrMax= 6.14D-03  0.00D+00 EMaxC= 1.00D-01 BMatC= 7.34D-03 BMatP= 1.37D-02
 IDIUse=3 WtCom= 9.39D-01 WtEn= 6.14D-02
 Coeff-Com: -0.430D-01 0.182D+00 0.472D+00 0.389D+00
 Coeff-En:   0.000D+00 0.000D+00 0.346D+00 0.654D+00
 Coeff:     -0.403D-01 0.171D+00 0.465D+00 0.405D+00
 Gap=     0.179 Goal=   None    Shift=    0.000
 RMSDP=1.69D-04 MaxDP=6.13D-03 DE=-6.64D-03 OVMax= 2.73D-02

 Cycle   5  Pass 0  IDiag  1:
 RMSU=  8.44D-05    CP:  9.57D-01  9.20D-01  7.22D-01  5.18D-01
 E= -1119.82870401674     Delta-E=       -0.006886133291 Rises=F Damp=F
 DIIS: error= 2.05D-03 at cycle   5 NSaved=   5.
 NSaved= 5 IEnMin= 5 EnMin= -1119.82870401674     IErMin= 5 ErrMin= 2.05D-03
 ErrMax= 2.05D-03  0.00D+00 EMaxC= 1.00D-01 BMatC= 8.08D-04 BMatP= 7.34D-03
 IDIUse=3 WtCom= 9.79D-01 WtEn= 2.05D-02
 Coeff-Com: -0.128D-01 0.340D-01 0.146D+00 0.266D+00 0.567D+00
 Coeff-En:   0.000D+00 0.000D+00 0.000D+00 0.128D+00 0.872D+00
 Coeff:     -0.126D-01 0.333D-01 0.143D+00 0.263D+00 0.573D+00
 Gap=     0.179 Goal=   None    Shift=    0.000
 RMSDP=4.90D-05 MaxDP=2.01D-03 DE=-6.89D-03 OVMax= 7.57D-03

 Cycle   6  Pass 0  IDiag  1:
 RMSU=  2.53D-05    CP:  9.57D-01  9.24D-01  7.09D-01  6.10D-01  5.96D-01
 E= -1119.82948901891     Delta-E=       -0.000785002170 Rises=F Damp=F
 DIIS: error= 4.14D-04 at cycle   6 NSaved=   6.
 NSaved= 6 IEnMin= 6 EnMin= -1119.82948901891     IErMin= 6 ErrMin= 4.14D-04
 ErrMax= 4.14D-04  0.00D+00 EMaxC= 1.00D-01 BMatC= 6.54D-05 BMatP= 8.08D-04
 IDIUse=3 WtCom= 9.96D-01 WtEn= 4.14D-03
 Coeff-Com: -0.525D-02 0.102D-01 0.601D-01 0.136D+00 0.355D+00 0.443D+00
 Coeff-En:   0.000D+00 0.000D+00 0.000D+00 0.000D+00 0.314D-01 0.969D+00
 Coeff:     -0.522D-02 0.101D-01 0.598D-01 0.136D+00 0.354D+00 0.445D+00
 Gap=     0.179 Goal=   None    Shift=    0.000
 RMSDP=1.40D-05 MaxDP=4.92D-04 DE=-7.85D-04 OVMax= 2.11D-03

 Cycle   7  Pass 0  IDiag  1:
 RMSU=  6.02D-06    CP:  9.57D-01  9.24D-01  7.13D-01  6.04D-01  6.51D-01
                    CP:  5.55D-01
 E= -1119.82956065290     Delta-E=       -0.000071633983 Rises=F Damp=F
 DIIS: error= 7.49D-05 at cycle   7 NSaved=   7.
 NSaved= 7 IEnMin= 7 EnMin= -1119.82956065290     IErMin= 7 ErrMin= 7.49D-05
 ErrMax= 7.49D-05  0.00D+00 EMaxC= 1.00D-01 BMatC= 2.45D-06 BMatP= 6.54D-05
 IDIUse=1 WtCom= 1.00D+00 WtEn= 0.00D+00
 Coeff-Com: -0.155D-02 0.220D-02 0.186D-01 0.477D-01 0.134D+00 0.227D+00
 Coeff-Com:  0.571D+00
 Coeff:     -0.155D-02 0.220D-02 0.186D-01 0.477D-01 0.134D+00 0.227D+00
 Coeff:      0.571D+00
 Gap=     0.179 Goal=   None    Shift=    0.000
 RMSDP=3.03D-06 MaxDP=9.64D-05 DE=-7.16D-05 OVMax= 4.71D-04

 Initial convergence to 1.0D-05 achieved.  Increase integral accuracy.
 Cycle   8  Pass 1  IDiag  1:
 E= -1119.82958901502     Delta-E=       -0.000028362124 Rises=F Damp=F
 DIIS: error= 1.52D-04 at cycle   1 NSaved=   1.
 NSaved= 1 IEnMin= 1 EnMin= -1119.82958901502     IErMin= 1 ErrMin= 1.52D-04
 ErrMax= 1.52D-04  0.00D+00 EMaxC= 1.00D-01 BMatC= 4.97D-06 BMatP= 4.97D-06
 IDIUse=3 WtCom= 9.98D-01 WtEn= 1.52D-03
 Coeff-Com:  0.100D+01
 Coeff-En:   0.100D+01
 Coeff:      0.100D+01
 Gap=     0.179 Goal=   None    Shift=    0.000
 RMSDP=3.03D-06 MaxDP=9.64D-05 DE=-2.84D-05 OVMax= 4.15D-04

 Cycle   9  Pass 1  IDiag  1:
 RMSU=  9.23D-05    CP:  1.00D+00
 E= -1119.82959237312     Delta-E=       -0.000003358100 Rises=F Damp=F
 DIIS: error= 4.46D-05 at cycle   2 NSaved=   2.
 NSaved= 2 IEnMin= 2 EnMin= -1119.82959237312     IErMin= 2 ErrMin= 4.46D-05
 ErrMax= 4.46D-05  0.00D+00 EMaxC= 1.00D-01 BMatC= 8.79D-07 BMatP= 4.97D-06
 IDIUse=1 WtCom= 1.00D+00 WtEn= 0.00D+00
 Coeff-Com:  0.198D+00 0.802D+00
 Coeff:      0.198D+00 0.802D+00
 Gap=     0.179 Goal=   None    Shift=    0.000
 RMSDP=3.28D-06 MaxDP=1.32D-04 DE=-3.36D-06 OVMax= 5.46D-04

 Cycle  10  Pass 1  IDiag  1:
 RMSU=  3.19D-06    CP:  1.00D+00  1.01D+00
 E= -1119.82959165673     Delta-E=        0.000000716395 Rises=F Damp=F
 DIIS: error= 6.83D-05 at cycle   3 NSaved=   3.
 NSaved= 3 IEnMin= 2 EnMin= -1119.82959237312     IErMin= 2 ErrMin= 4.46D-05
 ErrMax= 6.83D-05  0.00D+00 EMaxC= 1.00D-01 BMatC= 1.49D-06 BMatP= 8.79D-07
 IDIUse=1 WtCom= 1.00D+00 WtEn= 0.00D+00
 Coeff-Com:  0.268D-02 0.566D+00 0.431D+00
 Coeff:      0.268D-02 0.566D+00 0.431D+00
 Gap=     0.179 Goal=   None    Shift=    0.000
 RMSDP=1.94D-06 MaxDP=7.84D-05 DE= 7.16D-07 OVMax= 3.43D-04

 Cycle  11  Pass 1  IDiag  1:
 RMSU=  5.41D-07    CP:  1.00D+00  1.01D+00  4.26D-01
 E= -1119.82959329044     Delta-E=       -0.000001633717 Rises=F Damp=F
 DIIS: error= 1.31D-05 at cycle   4 NSaved=   4.
 NSaved= 4 IEnMin= 4 EnMin= -1119.82959329044     IErMin= 4 ErrMin= 1.31D-05
 ErrMax= 1.31D-05  0.00D+00 EMaxC= 1.00D-01 BMatC= 3.75D-08 BMatP= 8.79D-07
 IDIUse=1 WtCom= 1.00D+00 WtEn= 0.00D+00
 Coeff-Com: -0.291D-02 0.340D+00 0.273D+00 0.389D+00
 Coeff:     -0.291D-02 0.340D+00 0.273D+00 0.389D+00
 Gap=     0.179 Goal=   None    Shift=    0.000
 RMSDP=3.09D-07 MaxDP=1.10D-05 DE=-1.63D-06 OVMax= 4.98D-05

 Cycle  12  Pass 1  IDiag  1:
 RMSU=  1.44D-07    CP:  1.00D+00  1.01D+00  4.50D-01  5.16D-01
 E= -1119.82959332852     Delta-E=       -0.000000038075 Rises=F Damp=F
 DIIS: error= 1.81D-06 at cycle   5 NSaved=   5.
 NSaved= 5 IEnMin= 5 EnMin= -1119.82959332852     IErMin= 5 ErrMin= 1.81D-06
 ErrMax= 1.81D-06  0.00D+00 EMaxC= 1.00D-01 BMatC= 1.08D-09 BMatP= 3.75D-08
 IDIUse=1 WtCom= 1.00D+00 WtEn= 0.00D+00
 Coeff-Com: -0.191D-02 0.196D+00 0.158D+00 0.245D+00 0.403D+00
 Coeff:     -0.191D-02 0.196D+00 0.158D+00 0.245D+00 0.403D+00
 Gap=     0.179 Goal=   None    Shift=    0.000
 RMSDP=6.17D-08 MaxDP=2.10D-06 DE=-3.81D-08 OVMax= 9.10D-06

 Cycle  13  Pass 1  IDiag  1:
 RMSU=  4.84D-08    CP:  1.00D+00  1.01D+00  4.45D-01  5.13D-01  7.60D-01
 E= -1119.82959332971     Delta-E=       -0.000000001192 Rises=F Damp=F
 DIIS: error= 3.08D-07 at cycle   6 NSaved=   6.
 NSaved= 6 IEnMin= 6 EnMin= -1119.82959332971     IErMin= 6 ErrMin= 3.08D-07
 ErrMax= 3.08D-07  0.00D+00 EMaxC= 1.00D-01 BMatC= 3.26D-11 BMatP= 1.08D-09
 IDIUse=1 WtCom= 1.00D+00 WtEn= 0.00D+00
 Coeff-Com: -0.685D-03 0.664D-01 0.537D-01 0.860D-01 0.194D+00 0.600D+00
 Coeff:     -0.685D-03 0.664D-01 0.537D-01 0.860D-01 0.194D+00 0.600D+00
 Gap=     0.179 Goal=   None    Shift=    0.000
 RMSDP=1.25D-08 MaxDP=4.88D-07 DE=-1.19D-09 OVMax= 1.70D-06

 Cycle  14  Pass 1  IDiag  1:
 RMSU=  1.10D-08    CP:  1.00D+00  1.01D+00  4.45D-01  5.10D-01  7.88D-01
                    CP:  9.25D-01
 E= -1119.82959332971     Delta-E=        0.000000000001 Rises=F Damp=F
 DIIS: error= 1.50D-07 at cycle   7 NSaved=   7.
 NSaved= 7 IEnMin= 6 EnMin= -1119.82959332971     IErMin= 7 ErrMin= 1.50D-07
 ErrMax= 1.50D-07  0.00D+00 EMaxC= 1.00D-01 BMatC= 6.69D-12 BMatP= 3.26D-11
 IDIUse=1 WtCom= 1.00D+00 WtEn= 0.00D+00
 Coeff-Com: -0.145D-03 0.126D-01 0.103D-01 0.178D-01 0.580D-01 0.348D+00
 Coeff-Com:  0.553D+00
 Coeff:     -0.145D-03 0.126D-01 0.103D-01 0.178D-01 0.580D-01 0.348D+00
 Coeff:      0.553D+00
 Gap=     0.179 Goal=   None    Shift=    0.000
 RMSDP=5.73D-09 MaxDP=1.86D-07 DE= 9.09D-13 OVMax= 8.61D-07

 SCF Done:  E(RB3LYP) =  -1119.82959333     A.U. after   14 cycles
            NFock= 14  Conv=0.57D-08     -V/T= 2.0045
 KE= 1.114814984235D+03 PE=-8.108367107005D+03 EE= 3.118644679066D+03
 Leave Link  502 at Tue Mar 17 10:05:55 2026, MaxMem=   104857600 cpu:             673.6 elap:             674.5
 (Enter /sw/cluster/pub/apps//g16/l601.exe)
 Copying SCF densities to generalized density rwf, IOpCl= 0 IROHF=0.

 **********************************************************************

            Population analysis using the SCF density.

 **********************************************************************

 Alpha  occ. eigenvalues --  -10.19710 -10.19709 -10.17982 -10.17403 -10.17403
 Alpha  occ. eigenvalues --  -10.17317 -10.17316 -10.17273 -10.17273 -10.17222
 Alpha  occ. eigenvalues --  -10.17222 -10.17166 -10.17166 -10.17148 -10.17148
 Alpha  occ. eigenvalues --  -10.17135 -10.17135 -10.17076 -10.17076 -10.16868
 Alpha  occ. eigenvalues --  -10.16868 -10.16791 -10.16791 -10.16746 -10.16746
 Alpha  occ. eigenvalues --  -10.16679 -10.16679 -10.16499 -10.16499  -0.89402
 Alpha  occ. eigenvalues --   -0.88521  -0.84463  -0.84290  -0.82230  -0.80312
 Alpha  occ. eigenvalues --   -0.77695  -0.76950  -0.74340  -0.74069  -0.73807
 Alpha  occ. eigenvalues --   -0.72402  -0.71317  -0.71275  -0.68372  -0.64627
 Alpha  occ. eigenvalues --   -0.64515  -0.62489  -0.62037  -0.58514  -0.58256
 Alpha  occ. eigenvalues --   -0.57600  -0.57397  -0.56855  -0.55211  -0.51442
 Alpha  occ. eigenvalues --   -0.50766  -0.49926  -0.49250  -0.47863  -0.46936
 Alpha  occ. eigenvalues --   -0.45667  -0.45459  -0.44513  -0.44396  -0.43897
 Alpha  occ. eigenvalues --   -0.43800  -0.43467  -0.43281  -0.41967  -0.41844
 Alpha  occ. eigenvalues --   -0.41795  -0.41677  -0.40305  -0.39858  -0.38912
 Alpha  occ. eigenvalues --   -0.38609  -0.38260  -0.38222  -0.37467  -0.37459
 Alpha  occ. eigenvalues --   -0.35699  -0.34943  -0.34817  -0.34743  -0.34523
 Alpha  occ. eigenvalues --   -0.34026  -0.33388  -0.32712  -0.32536  -0.31710
 Alpha  occ. eigenvalues --   -0.31373  -0.28305  -0.28097  -0.25434  -0.25418
 Alpha  occ. eigenvalues --   -0.24532  -0.23596  -0.21618  -0.21433
 Alpha virt. eigenvalues --   -0.03561  -0.03353  -0.01933  -0.01226   0.00409
 Alpha virt. eigenvalues --    0.00496   0.03187   0.03716   0.03790   0.04822
 Alpha virt. eigenvalues --    0.05215   0.05980   0.06495   0.06759   0.07170
 Alpha virt. eigenvalues --    0.07744   0.08679   0.09487   0.10009   0.10060
 Alpha virt. eigenvalues --    0.10330   0.10747   0.11531   0.11867   0.12521
 Alpha virt. eigenvalues --    0.12845   0.13983   0.14229   0.14282   0.14846
 Alpha virt. eigenvalues --    0.15168   0.16532   0.16633   0.17293   0.18347
 Alpha virt. eigenvalues --    0.19164   0.19552   0.20131   0.20605   0.20722
 Alpha virt. eigenvalues --    0.21654   0.22378   0.23555   0.24157   0.24754
 Alpha virt. eigenvalues --    0.24951   0.25950   0.26375   0.27030   0.27637
 Alpha virt. eigenvalues --    0.27663   0.27963   0.28590   0.28801   0.29159
 Alpha virt. eigenvalues --    0.29640   0.30384   0.31407   0.31997   0.32628
 Alpha virt. eigenvalues --    0.32971   0.34081   0.34083   0.34214   0.34309
 Alpha virt. eigenvalues --    0.35710   0.35774   0.36729   0.37393   0.37459
 Alpha virt. eigenvalues --    0.38635   0.39053   0.39678   0.40008   0.40188
 Alpha virt. eigenvalues --    0.40338   0.40902   0.41078   0.41603   0.42064
 Alpha virt. eigenvalues --    0.42254   0.42449   0.42888   0.43286   0.44086
 Alpha virt. eigenvalues --    0.44395   0.44784   0.45193   0.45348   0.46129
 Alpha virt. eigenvalues --    0.46238   0.46286   0.47224   0.47541   0.47763
 Alpha virt. eigenvalues --    0.48646   0.48849   0.48973   0.49750   0.49819
 Alpha virt. eigenvalues --    0.50030   0.51394   0.51501   0.51535   0.52394
 Alpha virt. eigenvalues --    0.53132   0.53610   0.53862   0.54460   0.54588
 Alpha virt. eigenvalues --    0.55201   0.56163   0.56511   0.57440   0.57814
 Alpha virt. eigenvalues --    0.58019   0.58480   0.58970   0.58996   0.59128
 Alpha virt. eigenvalues --    0.59166   0.59939   0.60204   0.60507   0.60591
 Alpha virt. eigenvalues --    0.61543   0.61845   0.62011   0.62084   0.62653
 Alpha virt. eigenvalues --    0.62773   0.62910   0.63471   0.63507   0.64142
 Alpha virt. eigenvalues --    0.64403   0.65296   0.65785   0.66048   0.66315
 Alpha virt. eigenvalues --    0.67089   0.67249   0.67427   0.68167   0.68824
 Alpha virt. eigenvalues --    0.69618   0.69990   0.71322   0.71422   0.71895
 Alpha virt. eigenvalues --    0.71946   0.72758   0.73277   0.73666   0.74355
 Alpha virt. eigenvalues --    0.74560   0.76435   0.76850   0.76969   0.77108
 Alpha virt. eigenvalues --    0.77712   0.78422   0.79389   0.79419   0.80326
 Alpha virt. eigenvalues --    0.81266   0.82402   0.82650   0.83764   0.84420
 Alpha virt. eigenvalues --    0.84764   0.85549   0.85960   0.87650   0.88249
 Alpha virt. eigenvalues --    0.88529   0.88840   0.89120   0.90139   0.91477
 Alpha virt. eigenvalues --    0.91576   0.92851   0.92959   0.94095   0.96400
 Alpha virt. eigenvalues --    0.96463   0.97412   0.97606   0.98988   0.99734
 Alpha virt. eigenvalues --    1.00583   1.00933   1.01686   1.02682   1.03472
 Alpha virt. eigenvalues --    1.04040   1.04081   1.04647   1.05007   1.05493
 Alpha virt. eigenvalues --    1.06031   1.07310   1.07825   1.08000   1.08542
 Alpha virt. eigenvalues --    1.08864   1.09111   1.10214   1.10264   1.11279
 Alpha virt. eigenvalues --    1.11699   1.12959   1.13676   1.15398   1.15528
 Alpha virt. eigenvalues --    1.15830   1.16447   1.17236   1.18175   1.19453
 Alpha virt. eigenvalues --    1.21332   1.21803   1.22806   1.24192   1.24472
 Alpha virt. eigenvalues --    1.25424   1.25979   1.27629   1.28761   1.30127
 Alpha virt. eigenvalues --    1.30504   1.35048   1.35200   1.36833   1.37395
 Alpha virt. eigenvalues --    1.38806   1.42654   1.43219   1.43920   1.44504
 Alpha virt. eigenvalues --    1.44872   1.45067   1.45475   1.46542   1.46768
 Alpha virt. eigenvalues --    1.47546   1.47719   1.48040   1.48082   1.48842
 Alpha virt. eigenvalues --    1.48881   1.49468   1.49696   1.50161   1.50485
 Alpha virt. eigenvalues --    1.50820   1.51610   1.53516   1.54555   1.54914
 Alpha virt. eigenvalues --    1.55440   1.55658   1.56259   1.56341   1.57307
 Alpha virt. eigenvalues --    1.57444   1.57599   1.58594   1.59245   1.59886
 Alpha virt. eigenvalues --    1.60434   1.61180   1.61455   1.61597   1.63083
 Alpha virt. eigenvalues --    1.63339   1.63825   1.64434   1.64725   1.65639
 Alpha virt. eigenvalues --    1.66314   1.66618   1.67426   1.67576   1.67908
 Alpha virt. eigenvalues --    1.69248   1.69494   1.70182   1.71032   1.71420
 Alpha virt. eigenvalues --    1.72162   1.72455   1.73640   1.73851   1.74032
 Alpha virt. eigenvalues --    1.74942   1.75053   1.75109   1.75597   1.76099
 Alpha virt. eigenvalues --    1.76979   1.77003   1.78379   1.79170   1.80522
 Alpha virt. eigenvalues --    1.80573   1.81589   1.82617   1.83305   1.83394
 Alpha virt. eigenvalues --    1.83528   1.84643   1.85168   1.86122   1.86377
 Alpha virt. eigenvalues --    1.86622   1.87095   1.88238   1.89194   1.89200
 Alpha virt. eigenvalues --    1.89631   1.90736   1.91955   1.92109   1.92339
 Alpha virt. eigenvalues --    1.92546   1.92768   1.92981   1.93068   1.93420
 Alpha virt. eigenvalues --    1.94506   1.94602   1.95066   1.95547   1.95982
 Alpha virt. eigenvalues --    1.96175   1.96926   1.97759   1.99634   1.99812
 Alpha virt. eigenvalues --    2.00030   2.00585   2.02603   2.03226   2.04521
 Alpha virt. eigenvalues --    2.04912   2.07339   2.07430   2.09546   2.09764
 Alpha virt. eigenvalues --    2.10367   2.10891   2.11428   2.11856   2.12374
 Alpha virt. eigenvalues --    2.13370   2.14099   2.15805   2.16609   2.19772
 Alpha virt. eigenvalues --    2.20121   2.21013   2.22709   2.24369   2.24791
 Alpha virt. eigenvalues --    2.25544   2.26558   2.27283   2.28725   2.29203
 Alpha virt. eigenvalues --    2.29579   2.30644   2.32668   2.33422   2.34430
 Alpha virt. eigenvalues --    2.35797   2.35900   2.37308   2.37605   2.38225
 Alpha virt. eigenvalues --    2.39502   2.40130   2.41756   2.42417   2.42665
 Alpha virt. eigenvalues --    2.43239   2.43285   2.44495   2.44844   2.45027
 Alpha virt. eigenvalues --    2.46047   2.48598   2.48986   2.50987   2.52031
 Alpha virt. eigenvalues --    2.52317   2.53145   2.54649   2.55515   2.57068
 Alpha virt. eigenvalues --    2.58719   2.58993   2.59466   2.60258   2.60321
 Alpha virt. eigenvalues --    2.60383   2.61244   2.61331   2.61777   2.61999
 Alpha virt. eigenvalues --    2.62502   2.62585   2.63372   2.63720   2.64264
 Alpha virt. eigenvalues --    2.64417   2.65072   2.65288   2.65385   2.66545
 Alpha virt. eigenvalues --    2.66659   2.67734   2.68195   2.68779   2.70340
 Alpha virt. eigenvalues --    2.70624   2.71018   2.71402   2.71468   2.72007
 Alpha virt. eigenvalues --    2.72546   2.72788   2.74476   2.75646   2.75848
 Alpha virt. eigenvalues --    2.77871   2.78299   2.79029   2.79188   2.79939
 Alpha virt. eigenvalues --    2.81680   2.81898   2.82054   2.82363   2.83543
 Alpha virt. eigenvalues --    2.83550   2.84580   2.84837   2.84934   2.86229
 Alpha virt. eigenvalues --    2.88322   2.89029   2.89432   2.90573   2.91520
 Alpha virt. eigenvalues --    2.92816   2.93394   2.94680   2.95247   2.95700
 Alpha virt. eigenvalues --    2.97432   2.97950   2.99565   3.02347   3.02830
 Alpha virt. eigenvalues --    3.04463   3.05239   3.06051   3.10548   3.12838
 Alpha virt. eigenvalues --    3.13782   3.14369   3.14786   3.18362   3.18887
 Alpha virt. eigenvalues --    3.21970   3.23274   3.25188   3.26224   3.26878
 Alpha virt. eigenvalues --    3.28269   3.31426   3.33226   3.36675   3.36879
 Alpha virt. eigenvalues --    3.38174   3.40057   3.40907   3.42142   3.42666
 Alpha virt. eigenvalues --    3.46048   3.47633   3.47831   3.48509   3.49772
 Alpha virt. eigenvalues --    3.50600   3.50647   3.58455   3.58599   3.59864
 Alpha virt. eigenvalues --    3.61839   3.66623   3.66774   3.70844   3.73107
 Alpha virt. eigenvalues --    3.73644   3.76055   3.77550   3.79791   3.80948
 Alpha virt. eigenvalues --    3.81622   3.85070   3.85543   3.90144   4.02688
 Alpha virt. eigenvalues --    4.02907   4.03189   4.03587   4.03814   4.04778
 Alpha virt. eigenvalues --    4.05653   4.08244   4.11329   4.13460   4.16071
 Alpha virt. eigenvalues --    4.21553   4.22540   4.26221   4.32182   4.39665
 Alpha virt. eigenvalues --    4.41214   4.45724   4.62183   4.63165   4.83115
 Alpha virt. eigenvalues --    4.83678   4.87362   4.87494  23.43734  23.45827
 Alpha virt. eigenvalues --   23.64651  23.65731  23.80118  23.85492  23.90538
 Alpha virt. eigenvalues --   23.92650  23.92855  23.93349  23.93710  23.94396
 Alpha virt. eigenvalues --   23.95145  23.96053  23.96244  23.96479  24.01025
 Alpha virt. eigenvalues --   24.08074  24.08344  24.09011  24.09022  24.10778
 Alpha virt. eigenvalues --   24.10815  24.11308  24.12164  24.19304  24.19579
 Alpha virt. eigenvalues --   24.20000  24.20082
          Condensed to atoms (all electrons):
 Mulliken charges:
               1
     1  C   -0.277706
     2  C   -0.277765
     3  H    0.106266
     4  H    0.106264
     5  C   -0.021901
     6  C   -0.027575
     7  C    0.004097
     8  C   -0.014433
     9  C    0.004104
    10  C   -0.014424
    11  C   -0.021779
    12  C   -0.027564
    13  C   -0.076779
    14  C   -0.045505
    15  C   -0.086609
    16  C   -0.079402
    17  C   -0.094767
    18  C   -0.089961
    19  C   -0.035474
    20  C   -0.039110
    21  H    0.078479
    22  H    0.079275
    23  H    0.089149
    24  H    0.087898
    25  H    0.088507
    26  H    0.087093
    27  H    0.078950
    28  H    0.080927
    29  C   -0.039087
    30  C   -0.035450
    31  C   -0.094780
    32  C   -0.089970
    33  C   -0.079378
    34  C   -0.086597
    35  C   -0.076809
    36  C   -0.045476
    37  H    0.078948
    38  H    0.080918
    39  H    0.087091
    40  H    0.088506
    41  H    0.087900
    42  H    0.089148
    43  H    0.078476
    44  H    0.079276
    45  C   -0.207434
    46  H    0.119862
    47  H    0.102217
    48  H    0.104967
    49  C   -0.022195
    50  C   -0.207437
    51  H    0.102219
    52  H    0.104969
    53  H    0.119863
 Sum of Mulliken charges =  -0.00000
 Mulliken charges with hydrogens summed into heavy atoms:
               1
     1  C   -0.277706
     2  C   -0.277765
     5  C   -0.021901
     6  C   -0.027575
     7  C    0.004097
     8  C   -0.014433
     9  C    0.004104
    10  C   -0.014424
    11  C   -0.021779
    12  C   -0.027564
    13  C    0.002171
    14  C    0.035423
    15  C    0.001898
    16  C    0.007690
    17  C   -0.006870
    18  C   -0.000812
    19  C    0.043801
    20  C    0.039369
    29  C    0.039389
    30  C    0.043826
    31  C   -0.006881
    32  C   -0.000822
    33  C    0.007713
    34  C    0.001910
    35  C    0.002139
    36  C    0.035442
    45  C    0.119612
    49  C    0.190335
    50  C    0.119614
 Electronic spatial extent (au):  <R**2>=           8131.7589
 Charge=              0.0000 electrons
 Dipole moment (field-independent basis, Debye):
    X=              0.2160    Y=             -0.4367    Z=             -0.1158  Tot=              0.5007
 Quadrupole moment (field-independent basis, Debye-Ang):
   XX=           -156.5799   YY=           -156.9670   ZZ=           -178.1590
   XY=             -0.0115   XZ=             -1.7719   YZ=              5.1080
 Traceless Quadrupole moment (field-independent basis, Debye-Ang):
   XX=              7.3221   YY=              6.9350   ZZ=            -14.2571
   XY=             -0.0115   XZ=             -1.7719   YZ=              5.1080
 Octapole moment (field-independent basis, Debye-Ang**2):
  XXX=             -5.4636  YYY=             17.8118  ZZZ=              8.2544  XYY=             -1.8532
  XXY=              3.1471  XXZ=              4.9550  XZZ=             -7.2624  YZZ=              8.5226
  YYZ=             -5.3877  XYZ=             -2.1560
 Hexadecapole moment (field-independent basis, Debye-Ang**3):
 XXXX=          -4166.3553 YYYY=          -3120.9462 ZZZZ=          -3899.6069 XXXY=           -521.8273
 XXXZ=            315.5833 YYYX=           -523.7562 YYYZ=            347.6042 ZZZX=            374.8948
 ZZZY=            429.8075 XXYY=          -1211.4527 XXZZ=          -1382.4128 YYZZ=          -1162.6510
 XXYZ=            114.2285 YYXZ=            137.8399 ZZXY=           -228.5483
 N-N= 2.755077850375D+03 E-N=-8.108367038491D+03  KE= 1.114814984235D+03
 No NMR shielding tensors so no spin-rotation constants.
 Leave Link  601 at Tue Mar 17 10:05:55 2026, MaxMem=   104857600 cpu:               0.3 elap:               0.3
 (Enter /sw/cluster/pub/apps//g16/l9999.exe)
 1\1\GINC-N07\SP\RB3LYP\6-311G(d,p)\C29H24\UNKNOWN\17-Mar-2026\0\\#p B3
 LYP/6-311G(d,p) nosymm density=current sp\\Generated by extraQ₂\\0,1
 \C,0,0.52922285,-1.61388009,0.98980343\C,0,0.68399565,-0.83930591,-1.6
 4071029\H,0,0.43056494,-2.80764164,-0.7836099\H,0,1.99790046,-2.102558
 02,-0.5192899\C,0,0.79434267,-0.21429075,1.54640539\C,0,1.68261813,0.3
 1948252,-1.6279499\C,0,1.01597862,1.55587516,-1.6279499\C,0,-0.3874225
 7,0.34544435,2.06593529\C,0,-1.48341047,-0.61070757,1.87874601\C,0,-0.
 42886797,1.30512952,-1.6279499\C,0,-0.64632087,-0.08500947,-1.62578204
 \C,0,-0.97208344,-1.75620498,1.24672293\C,0,-1.79833358,-2.84291384,0.
 99327037\C,0,-1.94003099,-0.58533041,-1.69576484\C,0,-3.14663465,-2.77
 385599,1.35344607\C,0,-3.0154044,0.30428863,-1.73699541\C,0,-2.7980541
 8,1.68329885,-1.71791458\C,0,-3.65746718,-1.62806548,1.96651128\C,0,-2
 .82881567,-0.54041126,2.23710634\C,0,-1.50275339,2.1936274,-1.66812004
 \H,0,-1.33655746,3.26539447,-1.66786032\H,0,-3.22958832,0.34397411,2.7
 2021046\H,0,-4.70598579,-1.58759165,2.24017674\H,0,-3.64386073,2.36130
 355,-1.74888087\H,0,-3.80025024,-3.61706367,1.15906135\H,0,-4.02788908
 ,-0.08062385,-1.78011478\H,0,-1.41214523,-3.74118123,0.52156126\H,0,-2
 .12635786,-1.65258568,-1.70752772\C,0,-0.37330561,1.59983814,2.6746770
 4\C,0,1.73650106,2.74910272,-1.65104762\C,0,0.83395514,2.28819025,2.77
 171293\C,0,3.12901734,2.69661001,-1.68301125\C,0,2.01152297,1.72559916
 ,2.27563489\C,0,3.79240296,1.46808923,-1.6999794\C,0,3.06949124,0.2725
 9572,-1.67532781\C,0,1.99710228,0.46992886,1.6651915\H,0,3.59677489,-0
 .67617565,-1.69374579\H,0,2.91923585,0.0493663,1.28219432\H,0,2.945505
 01,2.26924768,2.36088218\H,0,4.87591801,1.44202526,-1.73627052\H,0,0.8
 6132849,3.26509149,3.24176741\H,0,3.70243305,3.61680726,-1.70177089\H,
 0,-1.28389526,2.03326491,3.07376693\H,0,1.22654934,3.70621453,-1.64552
 222\C,0,1.28683931,-2.66040397,1.84998455\H,0,0.99321626,-2.58188144,2
 .89855663\H,0,1.0663713,-3.67595084,1.50825579\H,0,2.3670496,-2.505350
 79,1.78297065\C,0,0.92687938,-1.87413285,-0.49727733\C,0,0.82366312,-1
 .607183,-2.98234525\H,0,1.79419852,-2.10827457,-3.04309021\H,0,0.04203
 48,-2.36597493,-3.07550408\H,0,0.73968213,-0.92225422,-3.8283382\\Vers
 ion=ES64L-G16RevA.03\HF=-1119.8295933\RMSD=5.727e-09\Dipole=0.0849659,
 -0.1717942,-0.0455716\Quadrupole=5.4437923,5.1559846,-10.599777,-0.008
 5782,-1.3173538,3.7977073\PG=C01 [X(C29H24)]\\@


 ALMOST ALL THE CHEMICAL PROCESSES WHICH OCCUR IN NATURE,
 WHETHER IN ANIMAL OR VEGETABLE ORGANISMS,
 OR IN THE NON-LIVING SURFACE OF THE EARTH ... 
 TAKE PLACE BETWEEN SUBSTANCES IN SOLUTION

                                    -- W. OSTWALD, 1890
 Job cpu time:       0 days  0 hours 11 minutes 32.2 seconds.
 Elapsed time:       0 days  0 hours 11 minutes 33.1 seconds.
 File lengths (MBytes):  RWF=    243 Int=      0 D2E=      0 Chk=     27 Scr=      1
 Normal termination of Gaussian 16 at Tue Mar 17 10:05:55 2026.
