77
Generated from .fchk
C 0.645812 -0.504203 -0.352056
C 1.425505 -2.022360 1.831480
H 2.610822 -0.921999 0.398209
H 1.813706 -2.329013 -0.242772
C 0.678808 0.379354 -2.978523
H 3.227666 -3.256841 1.618892
H 0.655177 -1.627979 -2.178452
H 3.511242 -1.705818 2.427615
H 2.709287 -3.025148 3.296089
H 2.134948 -0.753933 -1.909589
C 0.716282 0.923847 0.192386
C 1.557085 1.632035 -2.959517
C 0.837580 -1.088260 2.890553
C 0.770109 2.795435 -2.959517
C -0.306169 -1.661441 3.476518
C -0.541997 1.342253 0.657310
C -1.501566 0.253516 0.456481
C -0.559502 -2.959970 2.844782
C -0.642129 2.401696 -2.959517
C 0.431757 -3.184891 1.875429
C -0.720501 0.996747 -2.954322
C -0.831576 -0.833702 -0.129651
C -1.531234 -1.989166 -0.452396
C -1.958045 0.370679 -3.027766
C 0.451914 -4.374138 1.158910
C -2.898031 -2.060669 -0.175985
C -0.537818 -5.331409 1.396388
C -3.115817 1.149595 -3.074348
C -1.532460 -5.099495 2.348597
C -3.036667 2.543426 -3.057771
C -3.559232 -0.981883 0.414525
C -2.865588 0.183465 0.733239
C -1.798480 3.179509 -3.005127
C -1.547540 -3.914446 3.082213
H -2.317873 -3.743039 3.826109
H -1.738920 4.262464 -3.007389
H -3.383946 1.023118 1.182782
H -4.620770 -1.052290 0.625258
H -3.945437 3.134182 -3.093094
H -2.294531 -5.851003 2.523155
H -3.446878 -2.964868 -0.413662
H -0.531054 -6.262862 0.841042
H -4.084847 0.665741 -3.118852
H -1.031753 -2.839177 -0.902635
H 1.223268 -4.569353 0.420312
H -2.038192 -0.709554 -3.035529
C -0.709546 2.608184 1.215341
C 1.367651 4.054784 -2.984055
C -0.973643 -1.015340 4.516352
C 0.393156 3.454147 1.311036
C 2.758347 4.142304 -3.016728
C -0.483211 0.204535 4.976632
C 1.646593 3.037961 0.857886
C 3.541411 2.986310 -3.033573
C 0.663857 0.764613 4.411076
C 2.941692 1.724543 -3.008721
C 1.331745 0.118185 3.369265
C 1.812889 1.769384 0.298676
H 3.561640 0.833535 -3.028533
H 2.216915 0.569909 2.938211
H 2.790864 1.465790 -0.056448
H 2.496167 3.707357 0.931588
H 4.622089 3.068766 -3.070984
H 1.038141 1.712799 4.779815
H 0.278431 4.443002 1.741422
H 3.236679 5.115335 -3.036591
H -0.991267 0.719935 5.784311
H -1.679568 2.930682 1.577079
H 0.764225 4.955909 -2.979085
H -1.856298 -1.455678 4.967311
C 1.045070 -0.653921 -1.865773
C 2.806593 -2.535393 2.325268
C 1.653409 -1.452960 0.394870
C 0.884205 -0.346249 -4.337102
H 1.899542 -0.746224 -4.413724
H 0.180816 -1.176811 -4.440105
H 0.725398 0.343423 -5.168339