%chk=bz.chk
#P B3LYP/6-31G* nosymm Density=Current

Opt bz

0 1
 C                  1.39625208   -0.03221583    0.00000000
 C                  0.67022575   -1.22529381   -0.00000000
 C                 -0.72602584   -1.19307917   -0.00000000
 C                 -1.39625209    0.03221583   -0.00000001
 C                 -0.67022575    1.22529382    0.00000001
 C                  0.72602586    1.19307916    0.00000000
 H                  2.48297554   -0.05729334   -0.00000000
 H                  1.19187211   -2.17896110   -0.00000000
 H                 -1.29110006   -2.12167317    0.00000000
 H                 -2.48297556    0.05729334   -0.00000000
 H                 -1.19187212    2.17896112   -0.00000000
 H                  1.29110006    2.12167316   -0.00000002

