77
Generated from .fchk
C 0.000037 0.000121 1.119479
C 2.409255 1.187100 1.531272
H 0.515965 1.549026 2.516438
H 1.248671 0.005287 2.895136
C -2.409038 -1.186881 1.531390
H 3.097487 1.597125 3.568696
H -0.515761 -1.548627 2.516621
H 2.393192 3.004122 2.748135
H 4.018756 2.441403 2.307746
H -1.248548 -0.004898 2.895193
C -0.624928 1.004086 0.153364
C -3.367630 -0.034804 1.237418
C 2.367747 1.896942 0.179838
C -3.772945 -0.053781 -0.110570
C 3.146392 1.205057 -0.767984
C -0.391083 0.619687 -1.179723
C 0.390900 -0.619770 -1.179678
C 3.772871 0.053663 -0.110693
C -3.146420 -1.205187 -0.767793
C 3.367725 0.034915 1.237353
C -2.367524 -1.896829 0.180009
C 0.624951 -1.003945 0.153428
C 1.322529 -2.169996 0.435919
C -1.726188 -3.077568 -0.169686
C 3.853236 -0.933192 2.104930
C 1.811267 -2.943314 -0.619874
C 4.728613 -1.909097 1.613933
C -1.818063 -3.538039 -1.485631
C 5.111660 -1.904813 0.269296
C -2.559924 -2.829159 -2.436625
C 1.590699 -2.553656 -1.945044
C 0.874475 -1.391452 -2.234444
C -3.237712 -1.662142 -2.082389
C 4.639732 -0.920285 -0.602045
H 4.941087 -0.919260 -1.645791
H -3.825769 -1.120237 -2.818099
H 0.693116 -1.097068 -3.264219
H 1.978978 -3.163152 -2.756552
H -2.613786 -3.194799 -3.458415
H 5.787247 -2.671448 -0.100086
H 2.379500 -3.843951 -0.408034
H 5.113372 -2.674583 2.282187
H -1.294987 -4.444546 -1.774393
H 1.508987 -2.473162 1.461331
H 3.553199 -0.945810 3.150299
H -1.131103 -3.623082 0.555137
C -0.874816 1.391189 -2.234540
C -4.639972 0.920011 -0.601949
C 3.237540 1.661822 -2.082660
C -1.591016 2.553436 -1.945228
C -5.111874 1.904619 0.269308
C 2.559892 2.828904 -2.436933
C -1.811381 2.943313 -0.620096
C -4.728651 1.909132 1.613898
C 1.818306 3.538043 -1.485910
C -3.853129 0.933378 2.104923
C 1.726556 3.077752 -0.169898
C -1.322463 2.170180 0.435758
H -3.552979 0.946158 3.150258
H 1.131675 3.623447 0.554958
H -1.508796 2.473513 1.461143
H -2.379601 3.843971 -0.408307
H -5.113390 2.674685 2.282086
H 1.295341 4.444598 -1.774720
H -1.979433 3.162780 -2.756784
H -5.787571 2.671148 -0.100093
H 2.613661 3.194416 -3.458774
H -0.693606 1.096636 -3.264294
H -4.941473 0.918797 -1.645653
H 3.825414 1.119738 -2.818385
C -1.031805 -0.691393 2.066368
C 3.018049 2.115411 2.606073
C 1.031953 0.691720 2.066253
C -3.017835 -2.115210 2.606220
H -3.097297 -1.596916 3.568838
H -2.392948 -3.003899 2.748282
H -4.018526 -2.441221 2.307869