%chk=f3_SP.chk
#p b3lyp/6-31g(d) nosymm density=current sp EmpiricalDispersion=GD3BJ

Generated by extraQ₂ - dispersion correction

0 1
C        -0.89427046      -0.60706128      -0.29153079
C        -0.44176850      -0.74857763      -2.96698199
H        -2.28787239      -0.35461503      -1.90736723
H        -1.69798819      -1.99532165      -1.75400892
C        -2.00467403      -0.91234160       2.16938257
H        -1.87043052      -1.77579943      -4.26952587
H        -1.73260443      -2.37479227       0.59672423
H        -2.04632108      -0.01004683      -4.25638720
H        -0.69854724      -0.76136904      -5.13506465
H        -2.92743740      -1.14476537       0.24629484
C        -0.77618703       0.90139000      -0.08528767
C        -2.63913025       0.45980457       2.38682167
C         0.37327142       0.54281014      -2.96698199
C        -1.75593398       1.31565110       3.07180568
C         1.75265235       0.25878958      -2.96698199
C         0.53627693       1.24930996       0.28343593
C         1.34836617       0.03029334       0.33098160
C         1.93268434      -1.19571574      -3.01408085
C        -0.52583279       0.57403791       3.36688594
C         0.66227577      -1.80192624      -3.03121853
C        -0.66064829      -0.73796057       2.87306307
C         0.53108246      -1.06767623       0.00532522
C         1.05064771      -2.35458744       0.00695337
C         0.34119282      -1.67393776       3.09216154
C         0.54172931      -3.18151069      -3.11985967
C         2.40113810      -2.54282614       0.31080582
C         1.70158228      -3.96427320      -3.16201956
C         1.50530108      -1.28166984       3.75786689
C         2.96332905      -3.36340363      -3.12027208
C         1.65502556       0.03254438       4.21358804
C         3.21685446      -1.44959188       0.62065224
C         2.69492480      -0.15547343       0.63780366
C         0.63627713       0.96806925       4.02986753
C         3.08794374      -1.97385816      -3.05040705
H         4.07012482      -1.51059220      -3.01996736
H         0.74736215       1.98465065       4.39724152
H         3.32678515       0.69103878       0.89110022
H         4.26629843      -1.61019567       0.85230924
H         2.57033108       0.32491224       4.72091965
H         3.85546206      -3.98301660      -3.14799469
H         2.82204723      -3.54348740       0.29020291
H         1.62086492      -5.04579033      -3.22817933
H         2.30581761      -1.99981101       3.90684170
H         0.42780871      -3.20721860      -0.24451763
H        -0.43711254      -3.65499734      -3.14548733
H         0.24351476      -2.68979722       2.72396508
C         0.87485083       2.57911009       0.52602855
C        -2.12620978       2.62670802       3.36418489
C         2.69081628       1.29062868      -2.94526326
C        -0.10936068       3.55939301       0.39248053
C        -3.39360841       3.07122049       2.98033266
C         2.23807623       2.61040998      -2.94468366
C        -1.41069791       3.21535330       0.01208900
C        -4.28002554       2.21372236       2.32172495
C         0.86850386       2.89318309      -2.98447753
C        -3.90459847       0.89843325       2.02371610
C        -0.06981246       1.85812324      -3.00415089
C        -1.74697965       1.88195811      -0.23403083
H        -4.59582452       0.23812710       1.50488959
H        -1.13010896       2.08782844      -3.01361262
H        -2.76232637       1.62243945      -0.51663725
H        -2.17000545       3.98627408      -0.07761383
H        -5.26687993       2.57047435       2.03991449
H         0.52939392       3.92456489      -2.98320688
H         0.13769359       4.60018470       0.58355083
H        -3.69561461       4.09146361       3.20052910
H         2.95523458       3.42632441      -2.91985010
H         1.88814022       2.84949016       0.80910287
H        -1.44092929       3.29546073       3.87739326
H         3.75509432       1.07199507      -2.92933315
C        -1.92238205      -1.29604255       0.66124393
C        -1.31885628      -0.82909315      -4.23655787
C        -1.37882192      -0.94505468      -1.73739080
C        -2.84472083      -1.99767564       2.87935402
H        -3.83105626      -2.09509547       2.41113603
H        -2.34420888      -2.97080800       2.82518103
H        -2.98838516      -1.74181583       3.93319238



