 Entering Gaussian System, Link 0=g16
 Initial command:
 /sw/cluster/pub/apps//g16/l1.exe "/data/mmaximo/52021/Gau-1751947.inp" -scrdir="/data/mmaximo/52021/"
 Entering Link 1 = /sw/cluster/pub/apps//g16/l1.exe PID=   1751948.
  
 Copyright (c) 1988,1990,1992,1993,1995,1998,2003,2009,2016,
            Gaussian, Inc.  All Rights Reserved.
  
 This is part of the Gaussian(R) 16 program.  It is based on
 the Gaussian(R) 09 system (copyright 2009, Gaussian, Inc.),
 the Gaussian(R) 03 system (copyright 2003, Gaussian, Inc.),
 the Gaussian(R) 98 system (copyright 1998, Gaussian, Inc.),
 the Gaussian(R) 94 system (copyright 1995, Gaussian, Inc.),
 the Gaussian 92(TM) system (copyright 1992, Gaussian, Inc.),
 the Gaussian 90(TM) system (copyright 1990, Gaussian, Inc.),
 the Gaussian 88(TM) system (copyright 1988, Gaussian, Inc.),
 the Gaussian 86(TM) system (copyright 1986, Carnegie Mellon
 University), and the Gaussian 82(TM) system (copyright 1983,
 Carnegie Mellon University). Gaussian is a federally registered
 trademark of Gaussian, Inc.
  
 This software contains proprietary and confidential information,
 including trade secrets, belonging to Gaussian, Inc.
  
 This software is provided under written license and may be
 used, copied, transmitted, or stored only in accord with that
 written license.
  
 The following legend is applicable only to US Government
 contracts under FAR:
  
                    RESTRICTED RIGHTS LEGEND
  
 Use, reproduction and disclosure by the US Government is
 subject to restrictions as set forth in subparagraphs (a)
 and (c) of the Commercial Computer Software - Restricted
 Rights clause in FAR 52.227-19.
  
 Gaussian, Inc.
 340 Quinnipiac St., Bldg. 40, Wallingford CT 06492
  
  
 ---------------------------------------------------------------
 Warning -- This program may not be used in any manner that
 competes with the business of Gaussian, Inc. or will provide
 assistance to any competitor of Gaussian, Inc.  The licensee
 of this program is prohibited from giving any competitor of
 Gaussian, Inc. access to this program.  By using this program,
 the user acknowledges that Gaussian, Inc. is engaged in the
 business of creating and licensing software in the field of
 computational chemistry and represents and warrants to the
 licensee that it is not a competitor of Gaussian, Inc. and that
 it will not use this program in any manner prohibited above.
 ---------------------------------------------------------------
  

 Cite this work as:
 Gaussian 16, Revision A.03,
 M. J. Frisch, G. W. Trucks, H. B. Schlegel, G. E. Scuseria, 
 M. A. Robb, J. R. Cheeseman, G. Scalmani, V. Barone, 
 G. A. Petersson, H. Nakatsuji, X. Li, M. Caricato, A. V. Marenich, 
 J. Bloino, B. G. Janesko, R. Gomperts, B. Mennucci, H. P. Hratchian, 
 J. V. Ortiz, A. F. Izmaylov, J. L. Sonnenberg, D. Williams-Young, 
 F. Ding, F. Lipparini, F. Egidi, J. Goings, B. Peng, A. Petrone, 
 T. Henderson, D. Ranasinghe, V. G. Zakrzewski, J. Gao, N. Rega, 
 G. Zheng, W. Liang, M. Hada, M. Ehara, K. Toyota, R. Fukuda, 
 J. Hasegawa, M. Ishida, T. Nakajima, Y. Honda, O. Kitao, H. Nakai, 
 T. Vreven, K. Throssell, J. A. Montgomery, Jr., J. E. Peralta, 
 F. Ogliaro, M. J. Bearpark, J. J. Heyd, E. N. Brothers, K. N. Kudin, 
 V. N. Staroverov, T. A. Keith, R. Kobayashi, J. Normand, 
 K. Raghavachari, A. P. Rendell, J. C. Burant, S. S. Iyengar, 
 J. Tomasi, M. Cossi, J. M. Millam, M. Klene, C. Adamo, R. Cammi, 
 J. W. Ochterski, R. L. Martin, K. Morokuma, O. Farkas, 
 J. B. Foresman, and D. J. Fox, Gaussian, Inc., Wallingford CT, 2016.
 
 ******************************************
 Gaussian 16:  ES64L-G16RevA.03 25-Dec-2016
                21-Aug-2026 
 ******************************************
 %chk=f3_SP.chk
 ---------------------------------------------------------------------
 #p b3lyp/6-31g(d) nosymm density=current sp EmpiricalDispersion=GD3BJ
 ---------------------------------------------------------------------
 1/30=1,38=1,172=1/1;
 2/12=2,15=1,17=6,18=5,40=1/2;
 3/5=1,6=6,7=1,11=2,25=1,30=1,74=-5,124=41/1,2,3;
 4//1;
 5/5=2,38=5/2;
 6/7=2,8=2,9=2,10=2,22=-1,28=1/1;
 99/5=1,9=1/99;
 Leave Link    1 at Fri Aug 21 09:57:53 2026, MaxMem=           0 cpu:               0.0 elap:               0.0
 (Enter /sw/cluster/pub/apps//g16/l101.exe)
 ----------------------------------------------
 Generated by extraQ₂ - dispersion correction
 ----------------------------------------------
 Symbolic Z-matrix:
 Charge =  0 Multiplicity = 1
 C                    -0.89427  -0.60706  -0.29153 
 C                    -0.44177  -0.74858  -2.96698 
 H                    -2.28787  -0.35462  -1.90737 
 H                    -1.69799  -1.99532  -1.75401 
 C                    -2.00467  -0.91234   2.16938 
 H                    -1.87043  -1.7758   -4.26953 
 H                    -1.7326   -2.37479   0.59672 
 H                    -2.04632  -0.01005  -4.25639 
 H                    -0.69855  -0.76137  -5.13506 
 H                    -2.92744  -1.14477   0.24629 
 C                    -0.77619   0.90139  -0.08529 
 C                    -2.63913   0.4598    2.38682 
 C                     0.37327   0.54281  -2.96698 
 C                    -1.75593   1.31565   3.07181 
 C                     1.75265   0.25879  -2.96698 
 C                     0.53628   1.24931   0.28344 
 C                     1.34837   0.03029   0.33098 
 C                     1.93268  -1.19572  -3.01408 
 C                    -0.52583   0.57404   3.36689 
 C                     0.66228  -1.80193  -3.03122 
 C                    -0.66065  -0.73796   2.87306 
 C                     0.53108  -1.06768   0.00533 
 C                     1.05065  -2.35459   0.00695 
 C                     0.34119  -1.67394   3.09216 
 C                     0.54173  -3.18151  -3.11986 
 C                     2.40114  -2.54283   0.31081 
 C                     1.70158  -3.96427  -3.16202 
 C                     1.5053   -1.28167   3.75787 
 C                     2.96333  -3.3634   -3.12027 
 C                     1.65503   0.03254   4.21359 
 C                     3.21685  -1.44959   0.62065 
 C                     2.69492  -0.15547   0.6378 
 C                     0.63628   0.96807   4.02987 
 C                     3.08794  -1.97386  -3.05041 
 H                     4.07012  -1.51059  -3.01997 
 H                     0.74736   1.98465   4.39724 
 H                     3.32679   0.69104   0.8911 
 H                     4.2663   -1.6102    0.85231 
 H                     2.57033   0.32491   4.72092 
 H                     3.85546  -3.98302  -3.14799 
 H                     2.82205  -3.54349   0.2902 
 H                     1.62086  -5.04579  -3.22818 
 H                     2.30582  -1.99981   3.90684 
 H                     0.42781  -3.20722  -0.24452 
 H                    -0.43711  -3.655    -3.14549 
 H                     0.24351  -2.6898    2.72397 
 C                     0.87485   2.57911   0.52603 
 C                    -2.12621   2.62671   3.36418 
 C                     2.69082   1.29063  -2.94526 
 C                    -0.10936   3.55939   0.39248 
 C                    -3.39361   3.07122   2.98033 
 C                     2.23808   2.61041  -2.94468 
 C                    -1.4107    3.21535   0.01209 
 C                    -4.28003   2.21372   2.32172 
 C                     0.8685    2.89318  -2.98448 
 C                    -3.9046    0.89843   2.02372 
 C                    -0.06981   1.85812  -3.00415 
 C                    -1.74698   1.88196  -0.23403 
 H                    -4.59582   0.23813   1.50489 
 H                    -1.13011   2.08783  -3.01361 
 H                    -2.76233   1.62244  -0.51664 
 H                    -2.17001   3.98627  -0.07761 
 H                    -5.26688   2.57047   2.03991 
 H                     0.52939   3.92456  -2.98321 
 H                     0.13769   4.60018   0.58355 
 H                    -3.69561   4.09146   3.20053 
 H                     2.95523   3.42632  -2.91985 
 H                     1.88814   2.84949   0.8091 
 H                    -1.44093   3.29546   3.87739 
 H                     3.75509   1.072    -2.92933 
 C                    -1.92238  -1.29604   0.66124 
 C                    -1.31886  -0.82909  -4.23656 
 C                    -1.37882  -0.94505  -1.73739 
 C                    -2.84472  -1.99768   2.87935 
 H                    -3.83106  -2.0951    2.41114 
 H                    -2.34421  -2.97081   2.82518 
 H                    -2.98839  -1.74182   3.93319 
 
 ITRead=  0  0  0  0  0  0  0  0  0  0  0  0  0  0  0  0  0  0  0  0
 ITRead=  0  0  0  0  0  0  0  0  0  0  0  0  0  0  0  0  0  0  0  0
 ITRead=  0  0  0  0  0  0  0  0  0  0  0  0  0  0  0  0  0  0  0  0
 ITRead=  0  0  0  0  0  0  0  0  0  0  0  0  0  0  0  0  0
 MicOpt= -1 -1 -1 -1 -1 -1 -1 -1 -1 -1 -1 -1 -1 -1 -1 -1 -1 -1 -1 -1
 MicOpt= -1 -1 -1 -1 -1 -1 -1 -1 -1 -1 -1 -1 -1 -1 -1 -1 -1 -1 -1 -1
 MicOpt= -1 -1 -1 -1 -1 -1 -1 -1 -1 -1 -1 -1 -1 -1 -1 -1 -1 -1 -1 -1
 MicOpt= -1 -1 -1 -1 -1 -1 -1 -1 -1 -1 -1 -1 -1 -1 -1 -1 -1
 NAtoms=     77 NQM=       77 NQMF=       0 NMMI=      0 NMMIF=      0
                NMic=       0 NMicF=      0.
                    Isotopes and Nuclear Properties:
 (Nuclear quadrupole moments (NQMom) in fm**2, nuclear magnetic moments (NMagM)
  in nuclear magnetons)

  Atom         1           2           3           4           5           6           7           8           9          10
 IAtWgt=          12          12           1           1          12           1           1           1           1           1
 AtmWgt=  12.0000000  12.0000000   1.0078250   1.0078250  12.0000000   1.0078250   1.0078250   1.0078250   1.0078250   1.0078250
 NucSpn=           0           0           1           1           0           1           1           1           1           1
 AtZEff=  -0.0000000  -0.0000000  -0.0000000  -0.0000000  -0.0000000  -0.0000000  -0.0000000  -0.0000000  -0.0000000  -0.0000000
 NQMom=    0.0000000   0.0000000   0.0000000   0.0000000   0.0000000   0.0000000   0.0000000   0.0000000   0.0000000   0.0000000
 NMagM=    0.0000000   0.0000000   2.7928460   2.7928460   0.0000000   2.7928460   2.7928460   2.7928460   2.7928460   2.7928460
 AtZNuc=   6.0000000   6.0000000   1.0000000   1.0000000   6.0000000   1.0000000   1.0000000   1.0000000   1.0000000   1.0000000

  Atom        11          12          13          14          15          16          17          18          19          20
 IAtWgt=          12          12          12          12          12          12          12          12          12          12
 AtmWgt=  12.0000000  12.0000000  12.0000000  12.0000000  12.0000000  12.0000000  12.0000000  12.0000000  12.0000000  12.0000000
 NucSpn=           0           0           0           0           0           0           0           0           0           0
 AtZEff=  -0.0000000  -0.0000000  -0.0000000  -0.0000000  -0.0000000  -0.0000000  -0.0000000  -0.0000000  -0.0000000  -0.0000000
 NQMom=    0.0000000   0.0000000   0.0000000   0.0000000   0.0000000   0.0000000   0.0000000   0.0000000   0.0000000   0.0000000
 NMagM=    0.0000000   0.0000000   0.0000000   0.0000000   0.0000000   0.0000000   0.0000000   0.0000000   0.0000000   0.0000000
 AtZNuc=   6.0000000   6.0000000   6.0000000   6.0000000   6.0000000   6.0000000   6.0000000   6.0000000   6.0000000   6.0000000

  Atom        21          22          23          24          25          26          27          28          29          30
 IAtWgt=          12          12          12          12          12          12          12          12          12          12
 AtmWgt=  12.0000000  12.0000000  12.0000000  12.0000000  12.0000000  12.0000000  12.0000000  12.0000000  12.0000000  12.0000000
 NucSpn=           0           0           0           0           0           0           0           0           0           0
 AtZEff=  -0.0000000  -0.0000000  -0.0000000  -0.0000000  -0.0000000  -0.0000000  -0.0000000  -0.0000000  -0.0000000  -0.0000000
 NQMom=    0.0000000   0.0000000   0.0000000   0.0000000   0.0000000   0.0000000   0.0000000   0.0000000   0.0000000   0.0000000
 NMagM=    0.0000000   0.0000000   0.0000000   0.0000000   0.0000000   0.0000000   0.0000000   0.0000000   0.0000000   0.0000000
 AtZNuc=   6.0000000   6.0000000   6.0000000   6.0000000   6.0000000   6.0000000   6.0000000   6.0000000   6.0000000   6.0000000

  Atom        31          32          33          34          35          36          37          38          39          40
 IAtWgt=          12          12          12          12           1           1           1           1           1           1
 AtmWgt=  12.0000000  12.0000000  12.0000000  12.0000000   1.0078250   1.0078250   1.0078250   1.0078250   1.0078250   1.0078250
 NucSpn=           0           0           0           0           1           1           1           1           1           1
 AtZEff=  -0.0000000  -0.0000000  -0.0000000  -0.0000000  -0.0000000  -0.0000000  -0.0000000  -0.0000000  -0.0000000  -0.0000000
 NQMom=    0.0000000   0.0000000   0.0000000   0.0000000   0.0000000   0.0000000   0.0000000   0.0000000   0.0000000   0.0000000
 NMagM=    0.0000000   0.0000000   0.0000000   0.0000000   2.7928460   2.7928460   2.7928460   2.7928460   2.7928460   2.7928460
 AtZNuc=   6.0000000   6.0000000   6.0000000   6.0000000   1.0000000   1.0000000   1.0000000   1.0000000   1.0000000   1.0000000

  Atom        41          42          43          44          45          46          47          48          49          50
 IAtWgt=           1           1           1           1           1           1          12          12          12          12
 AtmWgt=   1.0078250   1.0078250   1.0078250   1.0078250   1.0078250   1.0078250  12.0000000  12.0000000  12.0000000  12.0000000
 NucSpn=           1           1           1           1           1           1           0           0           0           0
 AtZEff=  -0.0000000  -0.0000000  -0.0000000  -0.0000000  -0.0000000  -0.0000000  -0.0000000  -0.0000000  -0.0000000  -0.0000000
 NQMom=    0.0000000   0.0000000   0.0000000   0.0000000   0.0000000   0.0000000   0.0000000   0.0000000   0.0000000   0.0000000
 NMagM=    2.7928460   2.7928460   2.7928460   2.7928460   2.7928460   2.7928460   0.0000000   0.0000000   0.0000000   0.0000000
 AtZNuc=   1.0000000   1.0000000   1.0000000   1.0000000   1.0000000   1.0000000   6.0000000   6.0000000   6.0000000   6.0000000

  Atom        51          52          53          54          55          56          57          58          59          60
 IAtWgt=          12          12          12          12          12          12          12          12           1           1
 AtmWgt=  12.0000000  12.0000000  12.0000000  12.0000000  12.0000000  12.0000000  12.0000000  12.0000000   1.0078250   1.0078250
 NucSpn=           0           0           0           0           0           0           0           0           1           1
 AtZEff=  -0.0000000  -0.0000000  -0.0000000  -0.0000000  -0.0000000  -0.0000000  -0.0000000  -0.0000000  -0.0000000  -0.0000000
 NQMom=    0.0000000   0.0000000   0.0000000   0.0000000   0.0000000   0.0000000   0.0000000   0.0000000   0.0000000   0.0000000
 NMagM=    0.0000000   0.0000000   0.0000000   0.0000000   0.0000000   0.0000000   0.0000000   0.0000000   2.7928460   2.7928460
 AtZNuc=   6.0000000   6.0000000   6.0000000   6.0000000   6.0000000   6.0000000   6.0000000   6.0000000   1.0000000   1.0000000

  Atom        61          62          63          64          65          66          67          68          69          70
 IAtWgt=           1           1           1           1           1           1           1           1           1           1
 AtmWgt=   1.0078250   1.0078250   1.0078250   1.0078250   1.0078250   1.0078250   1.0078250   1.0078250   1.0078250   1.0078250
 NucSpn=           1           1           1           1           1           1           1           1           1           1
 AtZEff=  -0.0000000  -0.0000000  -0.0000000  -0.0000000  -0.0000000  -0.0000000  -0.0000000  -0.0000000  -0.0000000  -0.0000000
 NQMom=    0.0000000   0.0000000   0.0000000   0.0000000   0.0000000   0.0000000   0.0000000   0.0000000   0.0000000   0.0000000
 NMagM=    2.7928460   2.7928460   2.7928460   2.7928460   2.7928460   2.7928460   2.7928460   2.7928460   2.7928460   2.7928460
 AtZNuc=   1.0000000   1.0000000   1.0000000   1.0000000   1.0000000   1.0000000   1.0000000   1.0000000   1.0000000   1.0000000

  Atom        71          72          73          74          75          76          77
 IAtWgt=          12          12          12          12           1           1           1
 AtmWgt=  12.0000000  12.0000000  12.0000000  12.0000000   1.0078250   1.0078250   1.0078250
 NucSpn=           0           0           0           0           1           1           1
 AtZEff=  -0.0000000  -0.0000000  -0.0000000  -0.0000000  -0.0000000  -0.0000000  -0.0000000
 NQMom=    0.0000000   0.0000000   0.0000000   0.0000000   0.0000000   0.0000000   0.0000000
 NMagM=    0.0000000   0.0000000   0.0000000   0.0000000   2.7928460   2.7928460   2.7928460
 AtZNuc=   6.0000000   6.0000000   6.0000000   6.0000000   1.0000000   1.0000000   1.0000000
 Leave Link  101 at Fri Aug 21 09:57:53 2026, MaxMem=   104857600 cpu:               0.0 elap:               0.0
 (Enter /sw/cluster/pub/apps//g16/l202.exe)
 Symmetry turned off by external request.
 Stoichiometry    C43H34
 Framework group  C1[X(C43H34)]
 Deg. of freedom   225
 Full point group                 C1      NOp   1
                          Input orientation:                          
 ---------------------------------------------------------------------
 Center     Atomic      Atomic             Coordinates (Angstroms)
 Number     Number       Type             X           Y           Z
 ---------------------------------------------------------------------
      1          6           0       -0.894270   -0.607061   -0.291531
      2          6           0       -0.441769   -0.748578   -2.966982
      3          1           0       -2.287872   -0.354615   -1.907367
      4          1           0       -1.697988   -1.995322   -1.754009
      5          6           0       -2.004674   -0.912342    2.169383
      6          1           0       -1.870431   -1.775799   -4.269526
      7          1           0       -1.732604   -2.374792    0.596724
      8          1           0       -2.046321   -0.010047   -4.256387
      9          1           0       -0.698547   -0.761369   -5.135065
     10          1           0       -2.927437   -1.144765    0.246295
     11          6           0       -0.776187    0.901390   -0.085288
     12          6           0       -2.639130    0.459805    2.386822
     13          6           0        0.373271    0.542810   -2.966982
     14          6           0       -1.755934    1.315651    3.071806
     15          6           0        1.752652    0.258790   -2.966982
     16          6           0        0.536277    1.249310    0.283436
     17          6           0        1.348366    0.030293    0.330982
     18          6           0        1.932684   -1.195716   -3.014081
     19          6           0       -0.525833    0.574038    3.366886
     20          6           0        0.662276   -1.801926   -3.031219
     21          6           0       -0.660648   -0.737961    2.873063
     22          6           0        0.531082   -1.067676    0.005325
     23          6           0        1.050648   -2.354587    0.006953
     24          6           0        0.341193   -1.673938    3.092162
     25          6           0        0.541729   -3.181511   -3.119860
     26          6           0        2.401138   -2.542826    0.310806
     27          6           0        1.701582   -3.964273   -3.162020
     28          6           0        1.505301   -1.281670    3.757867
     29          6           0        2.963329   -3.363404   -3.120272
     30          6           0        1.655026    0.032544    4.213588
     31          6           0        3.216854   -1.449592    0.620652
     32          6           0        2.694925   -0.155473    0.637804
     33          6           0        0.636277    0.968069    4.029868
     34          6           0        3.087944   -1.973858   -3.050407
     35          1           0        4.070125   -1.510592   -3.019967
     36          1           0        0.747362    1.984651    4.397242
     37          1           0        3.326785    0.691039    0.891100
     38          1           0        4.266298   -1.610196    0.852309
     39          1           0        2.570331    0.324912    4.720920
     40          1           0        3.855462   -3.983017   -3.147995
     41          1           0        2.822047   -3.543487    0.290203
     42          1           0        1.620865   -5.045790   -3.228179
     43          1           0        2.305818   -1.999811    3.906842
     44          1           0        0.427809   -3.207219   -0.244518
     45          1           0       -0.437113   -3.654997   -3.145487
     46          1           0        0.243515   -2.689797    2.723965
     47          6           0        0.874851    2.579110    0.526029
     48          6           0       -2.126210    2.626708    3.364185
     49          6           0        2.690816    1.290629   -2.945263
     50          6           0       -0.109361    3.559393    0.392481
     51          6           0       -3.393608    3.071220    2.980333
     52          6           0        2.238076    2.610410   -2.944684
     53          6           0       -1.410698    3.215353    0.012089
     54          6           0       -4.280026    2.213722    2.321725
     55          6           0        0.868504    2.893183   -2.984478
     56          6           0       -3.904598    0.898433    2.023716
     57          6           0       -0.069812    1.858123   -3.004151
     58          6           0       -1.746980    1.881958   -0.234031
     59          1           0       -4.595825    0.238127    1.504890
     60          1           0       -1.130109    2.087828   -3.013613
     61          1           0       -2.762326    1.622439   -0.516637
     62          1           0       -2.170005    3.986274   -0.077614
     63          1           0       -5.266880    2.570474    2.039914
     64          1           0        0.529394    3.924565   -2.983207
     65          1           0        0.137694    4.600185    0.583551
     66          1           0       -3.695615    4.091464    3.200529
     67          1           0        2.955235    3.426324   -2.919850
     68          1           0        1.888140    2.849490    0.809103
     69          1           0       -1.440929    3.295461    3.877393
     70          1           0        3.755094    1.071995   -2.929333
     71          6           0       -1.922382   -1.296043    0.661244
     72          6           0       -1.318856   -0.829093   -4.236558
     73          6           0       -1.378822   -0.945055   -1.737391
     74          6           0       -2.844721   -1.997676    2.879354
     75          1           0       -3.831056   -2.095095    2.411136
     76          1           0       -2.344209   -2.970808    2.825181
     77          1           0       -2.988385   -1.741816    3.933192
 ---------------------------------------------------------------------
 Rotational constants (GHZ):           0.1489983           0.0864286           0.0768685
 Leave Link  202 at Fri Aug 21 09:57:53 2026, MaxMem=   104857600 cpu:               0.0 elap:               0.0
 (Enter /sw/cluster/pub/apps//g16/l301.exe)
 Standard basis: 6-31G(d) (6D, 7F)
 Ernie: Thresh=  0.10000D-02 Tol=  0.10000D-05 Strict=F.
   713 basis functions,  1340 primitive gaussians,   713 cartesian basis functions
   146 alpha electrons      146 beta electrons
       nuclear repulsion energy      5325.0437410052 Hartrees.
 IExCor=  402 DFT=T Ex+Corr=B3LYP ExCW=0 ScaHFX=  0.200000
 ScaDFX=  0.800000  0.720000  1.000000  0.810000 ScalE2=  1.000000  1.000000
 IRadAn=      5 IRanWt=     -1 IRanGd=            0 ICorTp=0 IEmpDi=141
 NAtoms=   77 NActive=   77 NUniq=   77 SFac= 1.00D+00 NAtFMM=   60 NAOKFM=T Big=T
 Integral buffers will be    131072 words long.
 Raffenetti 2 integral format.
 Two-electron integral symmetry is turned off.
 R6Disp:  Grimme-D3(BJ) Dispersion energy=       -0.2510311021 Hartrees.
 Nuclear repulsion after empirical dispersion term =     5324.7927099031 Hartrees.
 Leave Link  301 at Fri Aug 21 09:57:53 2026, MaxMem=   104857600 cpu:               0.0 elap:               0.0
 (Enter /sw/cluster/pub/apps//g16/l302.exe)
 NPDir=0 NMtPBC=     1 NCelOv=     1 NCel=       1 NClECP=     1 NCelD=      1
         NCelK=      1 NCelE2=     1 NClLst=     1 CellRange=     0.0.
 One-electron integrals computed using PRISM.
 NBasis=   713 RedAO= T EigKep=  3.34D-04  NBF=   713
 NBsUse=   713 1.00D-06 EigRej= -1.00D+00 NBFU=   713
 Precomputing XC quadrature grid using
 IXCGrd= 4 IRadAn=           5 IRanWt=          -1 IRanGd=           0 AccXCQ= 0.00D+00.
 Generated NRdTot=       0 NPtTot=           0 NUsed=           0 NTot=          32
 NSgBfM=   703   702   702   702   703 MxSgAt=    77 MxSgA2=    77.
 Leave Link  302 at Fri Aug 21 09:57:56 2026, MaxMem=   104857600 cpu:               3.2 elap:               3.2
 (Enter /sw/cluster/pub/apps//g16/l303.exe)
 DipDrv:  MaxL=1.
 Leave Link  303 at Fri Aug 21 09:57:56 2026, MaxMem=   104857600 cpu:               0.0 elap:               0.0
 (Enter /sw/cluster/pub/apps//g16/l401.exe)
 ExpMin= 1.61D-01 ExpMax= 3.05D+03 ExpMxC= 4.57D+02 IAcc=3 IRadAn=         5 AccDes= 0.00D+00
 Harris functional with IExCor=  402 and IRadAn=       5 diagonalized for initial guess.
 HarFok:  IExCor=  402 AccDes= 0.00D+00 IRadAn=         5 IDoV= 1 UseB2=F ITyADJ=14
 ICtDFT=  3500011 ScaDFX=  1.000000  1.000000  1.000000  1.000000
 FoFCou: FMM=F IPFlag=           0 FMFlag=      100000 FMFlg1=        2001
         NFxFlg=           0 DoJE=T BraDBF=F KetDBF=T FulRan=T
         wScrn=  0.000000 ICntrl=       500 IOpCl=  0 I1Cent=   200000004 NGrid=           0
         NMat0=    1 NMatS0=      1 NMatT0=    0 NMatD0=    1 NMtDS0=    0 NMtDT0=    0
 Symmetry not used in FoFCou.
 Harris En= -1659.36151187701    
 JPrj=0 DoOrth=F DoCkMO=F.
 Leave Link  401 at Fri Aug 21 09:58:18 2026, MaxMem=   104857600 cpu:              21.9 elap:              21.9
 (Enter /sw/cluster/pub/apps//g16/l502.exe)
 Two-electron integral symmetry not used.
 Closed shell SCF:
 Using DIIS extrapolation, IDIIS=  1040.
 NGot=   104857600 LenX=   103830460 LenY=   103321378
 Requested convergence on RMS density matrix=1.00D-08 within 128 cycles.
 Requested convergence on MAX density matrix=1.00D-06.
 Requested convergence on             energy=1.00D-06.
 No special actions if energy rises.
 Fock matrices will be formed incrementally for  20 cycles.
 Integral accuracy reduced to 1.0D-05 until final iterations.

 Cycle   1  Pass 0  IDiag  1:
 FoFJK:  IHMeth= 1 ICntrl=       0 DoSepK=F KAlg= 0 I1Cent=           0 FoldK=F
 IRaf= 990000000 NMat=       1 IRICut=       1 DoRegI=T DoRafI=F ISym2E= 0 IDoP0=0 IntGTp=1.
 FoFCou: FMM=T IPFlag=           0 FMFlag=      100000 FMFlg1=        2001
         NFxFlg=           0 DoJE=F BraDBF=F KetDBF=F FulRan=T
         wScrn=  0.000000 ICntrl=         0 IOpCl=  0 I1Cent=           0 NGrid=           0
         NMat0=    1 NMatS0=      1 NMatT0=    0 NMatD0=    1 NMtDS0=    0 NMtDT0=    0
 Symmetry not used in FoFCou.
 FMM levels:  10  Number of levels for PrismC:   9
 E= -1658.40539786024    
 DIIS: error= 2.26D-02 at cycle   1 NSaved=   1.
 NSaved= 1 IEnMin= 1 EnMin= -1658.40539786024     IErMin= 1 ErrMin= 2.26D-02
 ErrMax= 2.26D-02  0.00D+00 EMaxC= 1.00D-01 BMatC= 8.37D-01 BMatP= 8.37D-01
 IDIUse=3 WtCom= 7.74D-01 WtEn= 2.26D-01
 Coeff-Com:  0.100D+01
 Coeff-En:   0.100D+01
 Coeff:      0.100D+01
 Gap=     0.180 Goal=   None    Shift=    0.000
 GapD=    0.180 DampG=1.000 DampE=0.500 DampFc=0.5000 IDamp=-1.
 Damping current iteration by 5.00D-01
 RMSDP=3.43D-03 MaxDP=1.34D-01              OVMax= 1.48D-01

 Cycle   2  Pass 0  IDiag  1:
 RMSU=  1.65D-03    CP:  9.64D-01
 E= -1658.84404438973     Delta-E=       -0.438646529487 Rises=F Damp=T
 DIIS: error= 5.37D-03 at cycle   2 NSaved=   2.
 NSaved= 2 IEnMin= 2 EnMin= -1658.84404438973     IErMin= 2 ErrMin= 5.37D-03
 ErrMax= 5.37D-03  0.00D+00 EMaxC= 1.00D-01 BMatC= 4.90D-02 BMatP= 8.37D-01
 IDIUse=3 WtCom= 9.46D-01 WtEn= 5.37D-02
 Coeff-Com: -0.673D-02 0.101D+01
 Coeff-En:   0.000D+00 0.100D+01
 Coeff:     -0.637D-02 0.101D+01
 Gap=     0.192 Goal=   None    Shift=    0.000
 RMSDP=1.31D-03 MaxDP=5.11D-02 DE=-4.39D-01 OVMax= 9.09D-02

 Cycle   3  Pass 0  IDiag  1:
 RMSU=  1.25D-03    CP:  9.34D-01  9.47D-01
 E= -1659.30482716147     Delta-E=       -0.460782771744 Rises=F Damp=F
 DIIS: error= 5.42D-03 at cycle   3 NSaved=   3.
 NSaved= 3 IEnMin= 3 EnMin= -1659.30482716147     IErMin= 2 ErrMin= 5.37D-03
 ErrMax= 5.42D-03  0.00D+00 EMaxC= 1.00D-01 BMatC= 2.47D-02 BMatP= 4.90D-02
 IDIUse=3 WtCom= 9.46D-01 WtEn= 5.42D-02
 Coeff-Com: -0.486D-01 0.408D+00 0.640D+00
 Coeff-En:   0.000D+00 0.000D+00 0.100D+01
 Coeff:     -0.460D-01 0.386D+00 0.660D+00
 Gap=     0.186 Goal=   None    Shift=    0.000
 RMSDP=6.41D-04 MaxDP=2.24D-02 DE=-4.61D-01 OVMax= 7.07D-02

 Cycle   4  Pass 0  IDiag  1:
 RMSU=  4.17D-04    CP:  9.40D-01  1.04D+00  6.35D-01
 E= -1659.30199125321     Delta-E=        0.002835908263 Rises=F Damp=F
 DIIS: error= 7.40D-03 at cycle   4 NSaved=   4.
 NSaved= 4 IEnMin= 3 EnMin= -1659.30482716147     IErMin= 2 ErrMin= 5.37D-03
 ErrMax= 7.40D-03  0.00D+00 EMaxC= 1.00D-01 BMatC= 2.77D-02 BMatP= 2.47D-02
 IDIUse=3 WtCom= 1.04D-01 WtEn= 8.96D-01
 Coeff-Com: -0.363D-01 0.168D+00 0.502D+00 0.366D+00
 Coeff-En:   0.000D+00 0.000D+00 0.520D+00 0.480D+00
 Coeff:     -0.378D-02 0.175D-01 0.518D+00 0.468D+00
 Gap=     0.176 Goal=   None    Shift=    0.000
 RMSDP=3.32D-04 MaxDP=1.50D-02 DE= 2.84D-03 OVMax= 4.75D-02

 Cycle   5  Pass 0  IDiag  1:
 RMSU=  1.51D-04    CP:  9.37D-01  1.07D+00  7.43D-01  3.81D-01
 E= -1659.32712459525     Delta-E=       -0.025133342036 Rises=F Damp=F
 DIIS: error= 1.86D-03 at cycle   5 NSaved=   5.
 NSaved= 5 IEnMin= 5 EnMin= -1659.32712459525     IErMin= 5 ErrMin= 1.86D-03
 ErrMax= 1.86D-03  0.00D+00 EMaxC= 1.00D-01 BMatC= 4.05D-03 BMatP= 2.47D-02
 IDIUse=3 WtCom= 9.81D-01 WtEn= 1.86D-02
 Coeff-Com:  0.213D-02 0.970D-02 0.241D+00 0.280D+00 0.468D+00
 Coeff-En:   0.000D+00 0.000D+00 0.000D+00 0.117D+00 0.883D+00
 Coeff:      0.209D-02 0.952D-02 0.236D+00 0.277D+00 0.475D+00
 Gap=     0.177 Goal=   None    Shift=    0.000
 RMSDP=1.23D-04 MaxDP=8.36D-03 DE=-2.51D-02 OVMax= 1.23D-02

 Cycle   6  Pass 0  IDiag  1:
 RMSU=  4.53D-05    CP:  9.37D-01  1.03D+00  7.65D-01  4.86D-01  4.51D-01
 E= -1659.33103074258     Delta-E=       -0.003906147330 Rises=F Damp=F
 DIIS: error= 3.98D-04 at cycle   6 NSaved=   6.
 NSaved= 6 IEnMin= 6 EnMin= -1659.33103074258     IErMin= 6 ErrMin= 3.98D-04
 ErrMax= 3.98D-04  0.00D+00 EMaxC= 1.00D-01 BMatC= 1.97D-04 BMatP= 4.05D-03
 IDIUse=3 WtCom= 9.96D-01 WtEn= 3.98D-03
 Coeff-Com:  0.517D-02-0.102D-01 0.107D+00 0.144D+00 0.314D+00 0.440D+00
 Coeff-En:   0.000D+00 0.000D+00 0.000D+00 0.000D+00 0.000D+00 0.100D+01
 Coeff:      0.515D-02-0.102D-01 0.107D+00 0.143D+00 0.313D+00 0.442D+00
 Gap=     0.176 Goal=   None    Shift=    0.000
 RMSDP=2.86D-05 MaxDP=1.97D-03 DE=-3.91D-03 OVMax= 3.42D-03

 Cycle   7  Pass 0  IDiag  1:
 RMSU=  1.05D-05    CP:  9.37D-01  1.03D+00  7.67D-01  4.83D-01  5.28D-01
                    CP:  4.74D-01
 E= -1659.33125768087     Delta-E=       -0.000226938290 Rises=F Damp=F
 DIIS: error= 9.05D-05 at cycle   7 NSaved=   7.
 NSaved= 7 IEnMin= 7 EnMin= -1659.33125768087     IErMin= 7 ErrMin= 9.05D-05
 ErrMax= 9.05D-05  0.00D+00 EMaxC= 1.00D-01 BMatC= 1.00D-05 BMatP= 1.97D-04
 IDIUse=1 WtCom= 1.00D+00 WtEn= 0.00D+00
 Coeff-Com:  0.304D-02-0.684D-02 0.476D-01 0.662D-01 0.155D+00 0.263D+00
 Coeff-Com:  0.472D+00
 Coeff:      0.304D-02-0.684D-02 0.476D-01 0.662D-01 0.155D+00 0.263D+00
 Coeff:      0.472D+00
 Gap=     0.176 Goal=   None    Shift=    0.000
 RMSDP=6.95D-06 MaxDP=3.13D-04 DE=-2.27D-04 OVMax= 1.00D-03

 Initial convergence to 1.0D-05 achieved.  Increase integral accuracy.
 Cycle   8  Pass 1  IDiag  1:
 E= -1659.33114739993     Delta-E=        0.000110280933 Rises=F Damp=F
 DIIS: error= 2.60D-04 at cycle   1 NSaved=   1.
 NSaved= 1 IEnMin= 1 EnMin= -1659.33114739993     IErMin= 1 ErrMin= 2.60D-04
 ErrMax= 2.60D-04  0.00D+00 EMaxC= 1.00D-01 BMatC= 3.15D-05 BMatP= 3.15D-05
 IDIUse=3 WtCom= 9.97D-01 WtEn= 2.60D-03
 Coeff-Com:  0.100D+01
 Coeff-En:   0.100D+01
 Coeff:      0.100D+01
 Gap=     0.176 Goal=   None    Shift=    0.000
 RMSDP=6.95D-06 MaxDP=3.13D-04 DE= 1.10D-04 OVMax= 1.02D-03

 Cycle   9  Pass 1  IDiag  1:
 RMSU=  1.60D-04    CP:  1.00D+00
 E= -1659.33116717014     Delta-E=       -0.000019770210 Rises=F Damp=F
 DIIS: error= 9.97D-05 at cycle   2 NSaved=   2.
 NSaved= 2 IEnMin= 2 EnMin= -1659.33116717014     IErMin= 2 ErrMin= 9.97D-05
 ErrMax= 9.97D-05  0.00D+00 EMaxC= 1.00D-01 BMatC= 6.77D-06 BMatP= 3.15D-05
 IDIUse=1 WtCom= 1.00D+00 WtEn= 0.00D+00
 Coeff-Com:  0.216D+00 0.784D+00
 Coeff:      0.216D+00 0.784D+00
 Gap=     0.176 Goal=   None    Shift=    0.000
 RMSDP=1.19D-05 MaxDP=5.47D-04 DE=-1.98D-05 OVMax= 1.75D-03

 Cycle  10  Pass 1  IDiag  1:
 RMSU=  1.18D-05    CP:  1.00D+00  1.01D+00
 E= -1659.33115351651     Delta-E=        0.000013653633 Rises=F Damp=F
 DIIS: error= 1.71D-04 at cycle   3 NSaved=   3.
 NSaved= 3 IEnMin= 2 EnMin= -1659.33116717014     IErMin= 2 ErrMin= 9.97D-05
 ErrMax= 1.71D-04  0.00D+00 EMaxC= 1.00D-01 BMatC= 1.85D-05 BMatP= 6.77D-06
 IDIUse=3 WtCom= 4.33D-01 WtEn= 5.67D-01
 Coeff-Com: -0.200D-02 0.625D+00 0.377D+00
 Coeff-En:   0.000D+00 0.676D+00 0.324D+00
 Coeff:     -0.865D-03 0.654D+00 0.347D+00
 Gap=     0.176 Goal=   None    Shift=    0.000
 RMSDP=6.77D-06 MaxDP=3.01D-04 DE= 1.37D-05 OVMax= 1.01D-03

 Cycle  11  Pass 1  IDiag  1:
 RMSU=  1.06D-06    CP:  1.00D+00  1.01D+00  4.39D-01
 E= -1659.33117465444     Delta-E=       -0.000021137925 Rises=F Damp=F
 DIIS: error= 1.65D-05 at cycle   4 NSaved=   4.
 NSaved= 4 IEnMin= 4 EnMin= -1659.33117465444     IErMin= 4 ErrMin= 1.65D-05
 ErrMax= 1.65D-05  0.00D+00 EMaxC= 1.00D-01 BMatC= 3.06D-07 BMatP= 6.77D-06
 IDIUse=1 WtCom= 1.00D+00 WtEn= 0.00D+00
 Coeff-Com: -0.350D-02 0.399D+00 0.200D+00 0.404D+00
 Coeff:     -0.350D-02 0.399D+00 0.200D+00 0.404D+00
 Gap=     0.176 Goal=   None    Shift=    0.000
 RMSDP=9.47D-07 MaxDP=5.01D-05 DE=-2.11D-05 OVMax= 1.23D-04

 Cycle  12  Pass 1  IDiag  1:
 RMSU=  2.57D-07    CP:  1.00D+00  1.01D+00  3.80D-01  4.46D-01
 E= -1659.33117499064     Delta-E=       -0.000000336209 Rises=F Damp=F
 DIIS: error= 2.95D-06 at cycle   5 NSaved=   5.
 NSaved= 5 IEnMin= 5 EnMin= -1659.33117499064     IErMin= 5 ErrMin= 2.95D-06
 ErrMax= 2.95D-06  0.00D+00 EMaxC= 1.00D-01 BMatC= 4.49D-09 BMatP= 3.06D-07
 IDIUse=1 WtCom= 1.00D+00 WtEn= 0.00D+00
 Coeff-Com: -0.219D-02 0.237D+00 0.117D+00 0.259D+00 0.389D+00
 Coeff:     -0.219D-02 0.237D+00 0.117D+00 0.259D+00 0.389D+00
 Gap=     0.176 Goal=   None    Shift=    0.000
 RMSDP=1.47D-07 MaxDP=7.48D-06 DE=-3.36D-07 OVMax= 2.14D-05

 Cycle  13  Pass 1  IDiag  1:
 RMSU=  1.27D-07    CP:  1.00D+00  1.01D+00  3.81D-01  4.77D-01  7.50D-01
 E= -1659.33117499489     Delta-E=       -0.000000004250 Rises=F Damp=F
 DIIS: error= 8.62D-07 at cycle   6 NSaved=   6.
 NSaved= 6 IEnMin= 6 EnMin= -1659.33117499489     IErMin= 6 ErrMin= 8.62D-07
 ErrMax= 8.62D-07  0.00D+00 EMaxC= 1.00D-01 BMatC= 5.02D-10 BMatP= 4.49D-09
 IDIUse=1 WtCom= 1.00D+00 WtEn= 0.00D+00
 Coeff-Com: -0.868D-03 0.908D-01 0.440D-01 0.105D+00 0.264D+00 0.498D+00
 Coeff:     -0.868D-03 0.908D-01 0.440D-01 0.105D+00 0.264D+00 0.498D+00
 Gap=     0.176 Goal=   None    Shift=    0.000
 RMSDP=4.69D-08 MaxDP=1.79D-06 DE=-4.25D-09 OVMax= 5.25D-06

 Cycle  14  Pass 1  IDiag  1:
 RMSU=  2.56D-08    CP:  1.00D+00  1.01D+00  3.80D-01  4.76D-01  7.84D-01
                    CP:  7.05D-01
 E= -1659.33117499544     Delta-E=       -0.000000000544 Rises=F Damp=F
 DIIS: error= 1.39D-07 at cycle   7 NSaved=   7.
 NSaved= 7 IEnMin= 7 EnMin= -1659.33117499544     IErMin= 7 ErrMin= 1.39D-07
 ErrMax= 1.39D-07  0.00D+00 EMaxC= 1.00D-01 BMatC= 3.46D-11 BMatP= 5.02D-10
 IDIUse=1 WtCom= 1.00D+00 WtEn= 0.00D+00
 Coeff-Com: -0.243D-03 0.245D-01 0.117D-01 0.296D-01 0.107D+00 0.274D+00
 Coeff-Com:  0.553D+00
 Coeff:     -0.243D-03 0.245D-01 0.117D-01 0.296D-01 0.107D+00 0.274D+00
 Coeff:      0.553D+00
 Gap=     0.176 Goal=   None    Shift=    0.000
 RMSDP=1.20D-08 MaxDP=7.21D-07 DE=-5.44D-10 OVMax= 1.55D-06

 Cycle  15  Pass 1  IDiag  1:
 RMSU=  8.59D-09    CP:  1.00D+00  1.01D+00  3.80D-01  4.77D-01  7.89D-01
                    CP:  7.29D-01  7.10D-01
 E= -1659.33117499543     Delta-E=        0.000000000012 Rises=F Damp=F
 DIIS: error= 4.51D-08 at cycle   8 NSaved=   8.
 NSaved= 8 IEnMin= 7 EnMin= -1659.33117499544     IErMin= 8 ErrMin= 4.51D-08
 ErrMax= 4.51D-08  0.00D+00 EMaxC= 1.00D-01 BMatC= 3.91D-12 BMatP= 3.46D-11
 IDIUse=1 WtCom= 1.00D+00 WtEn= 0.00D+00
 Coeff-Com: -0.769D-05 0.289D-03 0.230D-04 0.114D-02 0.207D-01 0.736D-01
 Coeff-Com:  0.295D+00 0.609D+00
 Coeff:     -0.769D-05 0.289D-03 0.230D-04 0.114D-02 0.207D-01 0.736D-01
 Coeff:      0.295D+00 0.609D+00
 Gap=     0.176 Goal=   None    Shift=    0.000
 RMSDP=4.10D-09 MaxDP=2.14D-07 DE= 1.18D-11 OVMax= 5.53D-07

 SCF Done:  E(RB3LYP) =  -1659.33117500     A.U. after   15 cycles
            NFock= 15  Conv=0.41D-08     -V/T= 2.0097
 KE= 1.643359607361D+03 PE=-1.449303329210D+04 EE= 5.865549799838D+03
 Leave Link  502 at Fri Aug 21 10:08:57 2026, MaxMem=   104857600 cpu:             637.8 elap:             638.5
 (Enter /sw/cluster/pub/apps//g16/l601.exe)
 Copying SCF densities to generalized density rwf, IOpCl= 0 IROHF=0.

 **********************************************************************

            Population analysis using the SCF density.

 **********************************************************************

 Alpha  occ. eigenvalues --  -10.20249 -10.20212 -10.20211 -10.19043 -10.19043
 Alpha  occ. eigenvalues --  -10.18291 -10.18291 -10.18203 -10.18202 -10.18189
 Alpha  occ. eigenvalues --  -10.18188 -10.18141 -10.18141 -10.18089 -10.18088
 Alpha  occ. eigenvalues --  -10.18009 -10.18009 -10.17951 -10.17951 -10.17872
 Alpha  occ. eigenvalues --  -10.17872 -10.17804 -10.17804 -10.17778 -10.17778
 Alpha  occ. eigenvalues --  -10.17770 -10.17770 -10.17717 -10.17716 -10.17684
 Alpha  occ. eigenvalues --  -10.17683 -10.17682 -10.17666 -10.17656 -10.17655
 Alpha  occ. eigenvalues --  -10.17644 -10.17643 -10.17624 -10.17616 -10.17585
 Alpha  occ. eigenvalues --  -10.17580 -10.17526 -10.17525  -0.88804  -0.87937
 Alpha  occ. eigenvalues --   -0.86895  -0.83482  -0.83271  -0.82822  -0.81773
 Alpha  occ. eigenvalues --   -0.80365  -0.78625  -0.76774  -0.76428  -0.75515
 Alpha  occ. eigenvalues --   -0.73456  -0.73234  -0.73041  -0.72805  -0.72330
 Alpha  occ. eigenvalues --   -0.70781  -0.70292  -0.70276  -0.69993  -0.67463
 Alpha  occ. eigenvalues --   -0.64033  -0.63573  -0.63423  -0.61637  -0.61101
 Alpha  occ. eigenvalues --   -0.60974  -0.57603  -0.57425  -0.57096  -0.56601
 Alpha  occ. eigenvalues --   -0.56530  -0.56356  -0.56206  -0.54523  -0.54167
 Alpha  occ. eigenvalues --   -0.50530  -0.49938  -0.49799  -0.49146  -0.48641
 Alpha  occ. eigenvalues --   -0.48073  -0.46789  -0.46114  -0.45523  -0.44801
 Alpha  occ. eigenvalues --   -0.44581  -0.44534  -0.43946  -0.43624  -0.43427
 Alpha  occ. eigenvalues --   -0.42973  -0.42971  -0.42792  -0.42716  -0.42009
 Alpha  occ. eigenvalues --   -0.41592  -0.41015  -0.40851  -0.40705  -0.40647
 Alpha  occ. eigenvalues --   -0.40645  -0.40263  -0.40080  -0.38357  -0.38057
 Alpha  occ. eigenvalues --   -0.37576  -0.37529  -0.37357  -0.37324  -0.37226
 Alpha  occ. eigenvalues --   -0.37192  -0.35951  -0.35770  -0.34996  -0.34296
 Alpha  occ. eigenvalues --   -0.33916  -0.33886  -0.33691  -0.33564  -0.33080
 Alpha  occ. eigenvalues --   -0.32863  -0.32455  -0.31934  -0.31707  -0.31201
 Alpha  occ. eigenvalues --   -0.30982  -0.30883  -0.30544  -0.30103  -0.27626
 Alpha  occ. eigenvalues --   -0.26840  -0.26150  -0.24989  -0.24947  -0.23846
 Alpha  occ. eigenvalues --   -0.23472  -0.22768  -0.21226  -0.20190  -0.20125
 Alpha  occ. eigenvalues --   -0.19812
 Alpha virt. eigenvalues --   -0.02210  -0.02048  -0.01576  -0.00747  -0.00186
 Alpha virt. eigenvalues --    0.00603   0.01817   0.02127   0.02170   0.05105
 Alpha virt. eigenvalues --    0.05297   0.05548   0.07405   0.09316   0.10247
 Alpha virt. eigenvalues --    0.10725   0.10764   0.11135   0.11231   0.11328
 Alpha virt. eigenvalues --    0.11856   0.12984   0.13638   0.13900   0.13974
 Alpha virt. eigenvalues --    0.14253   0.14497   0.14858   0.14980   0.16020
 Alpha virt. eigenvalues --    0.16284   0.16490   0.16661   0.16879   0.16950
 Alpha virt. eigenvalues --    0.17261   0.17486   0.17681   0.18170   0.18867
 Alpha virt. eigenvalues --    0.19001   0.19201   0.19290   0.19898   0.21032
 Alpha virt. eigenvalues --    0.21072   0.21530   0.21743   0.21788   0.22426
 Alpha virt. eigenvalues --    0.22537   0.22746   0.23813   0.24196   0.24298
 Alpha virt. eigenvalues --    0.25273   0.25380   0.25917   0.26595   0.26746
 Alpha virt. eigenvalues --    0.26855   0.27220   0.27487   0.27782   0.27878
 Alpha virt. eigenvalues --    0.28113   0.28498   0.29290   0.30233   0.30933
 Alpha virt. eigenvalues --    0.30963   0.31177   0.32293   0.32473   0.32750
 Alpha virt. eigenvalues --    0.33218   0.33605   0.33877   0.34998   0.37649
 Alpha virt. eigenvalues --    0.37783   0.38274   0.38470   0.39246   0.40305
 Alpha virt. eigenvalues --    0.40418   0.40644   0.40742   0.41343   0.41513
 Alpha virt. eigenvalues --    0.42138   0.42429   0.42729   0.44458   0.44814
 Alpha virt. eigenvalues --    0.48267   0.48326   0.48594   0.48979   0.49957
 Alpha virt. eigenvalues --    0.50104   0.50110   0.51161   0.51181   0.51987
 Alpha virt. eigenvalues --    0.52226   0.52957   0.53135   0.53615   0.53712
 Alpha virt. eigenvalues --    0.55002   0.55106   0.55233   0.55371   0.55584
 Alpha virt. eigenvalues --    0.55623   0.56346   0.56355   0.56538   0.56562
 Alpha virt. eigenvalues --    0.56886   0.57428   0.57600   0.57721   0.58144
 Alpha virt. eigenvalues --    0.58248   0.58980   0.59098   0.59549   0.59647
 Alpha virt. eigenvalues --    0.59830   0.59899   0.60865   0.61094   0.61101
 Alpha virt. eigenvalues --    0.61195   0.61519   0.61707   0.62777   0.62871
 Alpha virt. eigenvalues --    0.63008   0.63800   0.63857   0.64318   0.64822
 Alpha virt. eigenvalues --    0.65203   0.65381   0.65397   0.65925   0.67135
 Alpha virt. eigenvalues --    0.67372   0.67708   0.67966   0.68350   0.68770
 Alpha virt. eigenvalues --    0.69989   0.70042   0.71815   0.72508   0.72559
 Alpha virt. eigenvalues --    0.73159   0.73708   0.74718   0.74720   0.75899
 Alpha virt. eigenvalues --    0.76406   0.77554   0.77796   0.78451   0.78457
 Alpha virt. eigenvalues --    0.78903   0.79496   0.79514   0.79673   0.80210
 Alpha virt. eigenvalues --    0.80531   0.81049   0.81078   0.81611   0.82021
 Alpha virt. eigenvalues --    0.82232   0.82780   0.83127   0.83666   0.83936
 Alpha virt. eigenvalues --    0.84307   0.84363   0.84397   0.84684   0.84990
 Alpha virt. eigenvalues --    0.85188   0.85347   0.85597   0.85709   0.86460
 Alpha virt. eigenvalues --    0.86611   0.86732   0.87131   0.87235   0.87652
 Alpha virt. eigenvalues --    0.87724   0.88127   0.89171   0.89868   0.89980
 Alpha virt. eigenvalues --    0.90895   0.91273   0.91280   0.91730   0.92158
 Alpha virt. eigenvalues --    0.92622   0.93070   0.93163   0.93269   0.93478
 Alpha virt. eigenvalues --    0.93761   0.94984   0.95224   0.95759   0.96028
 Alpha virt. eigenvalues --    0.96303   0.96457   0.97126   0.97140   0.97253
 Alpha virt. eigenvalues --    0.98859   0.99132   0.99425   0.99590   1.00056
 Alpha virt. eigenvalues --    1.00234   1.00607   1.01614   1.01810   1.01813
 Alpha virt. eigenvalues --    1.02931   1.03620   1.03864   1.05379   1.05687
 Alpha virt. eigenvalues --    1.05852   1.06001   1.06408   1.08030   1.08096
 Alpha virt. eigenvalues --    1.08126   1.09097   1.09901   1.10413   1.11632
 Alpha virt. eigenvalues --    1.11817   1.12416   1.13505   1.13781   1.14793
 Alpha virt. eigenvalues --    1.16769   1.16936   1.17948   1.18249   1.20067
 Alpha virt. eigenvalues --    1.20855   1.21582   1.21916   1.22358   1.22865
 Alpha virt. eigenvalues --    1.23205   1.24297   1.24427   1.25446   1.26093
 Alpha virt. eigenvalues --    1.26403   1.27223   1.27387   1.27885   1.28602
 Alpha virt. eigenvalues --    1.28883   1.29393   1.29456   1.30415   1.31640
 Alpha virt. eigenvalues --    1.31850   1.33245   1.33370   1.35835   1.35929
 Alpha virt. eigenvalues --    1.36980   1.38658   1.38891   1.39126   1.40935
 Alpha virt. eigenvalues --    1.41635   1.42851   1.43213   1.43316   1.43780
 Alpha virt. eigenvalues --    1.44455   1.45218   1.45281   1.46219   1.46823
 Alpha virt. eigenvalues --    1.47437   1.47979   1.48307   1.48705   1.49309
 Alpha virt. eigenvalues --    1.49858   1.49926   1.50321   1.50761   1.50899
 Alpha virt. eigenvalues --    1.50967   1.51400   1.51462   1.51957   1.53087
 Alpha virt. eigenvalues --    1.53221   1.53341   1.55098   1.55374   1.56276
 Alpha virt. eigenvalues --    1.56364   1.57882   1.58348   1.58810   1.61383
 Alpha virt. eigenvalues --    1.61528   1.61897   1.63418   1.64360   1.68757
 Alpha virt. eigenvalues --    1.69291   1.71383   1.71660   1.72480   1.74874
 Alpha virt. eigenvalues --    1.76705   1.77240   1.77778   1.78628   1.79014
 Alpha virt. eigenvalues --    1.79139   1.79855   1.80718   1.81132   1.81347
 Alpha virt. eigenvalues --    1.81931   1.82890   1.83310   1.84474   1.85245
 Alpha virt. eigenvalues --    1.85483   1.85746   1.86796   1.87365   1.89212
 Alpha virt. eigenvalues --    1.89350   1.89781   1.90168   1.91183   1.91201
 Alpha virt. eigenvalues --    1.91765   1.91800   1.93273   1.93621   1.94261
 Alpha virt. eigenvalues --    1.94445   1.94667   1.94799   1.95511   1.95533
 Alpha virt. eigenvalues --    1.96761   1.97219   1.97443   1.97707   1.98370
 Alpha virt. eigenvalues --    1.99374   2.00532   2.00807   2.01110   2.01360
 Alpha virt. eigenvalues --    2.02003   2.02605   2.03562   2.03684   2.04965
 Alpha virt. eigenvalues --    2.05199   2.05844   2.06671   2.07021   2.07769
 Alpha virt. eigenvalues --    2.08739   2.09143   2.10302   2.10581   2.11436
 Alpha virt. eigenvalues --    2.11777   2.12749   2.12946   2.13753   2.14046
 Alpha virt. eigenvalues --    2.15040   2.17224   2.17340   2.17878   2.18884
 Alpha virt. eigenvalues --    2.19706   2.20045   2.20859   2.21551   2.22496
 Alpha virt. eigenvalues --    2.22725   2.23180   2.23429   2.23592   2.24442
 Alpha virt. eigenvalues --    2.24492   2.25397   2.25897   2.26882   2.27118
 Alpha virt. eigenvalues --    2.27873   2.28041   2.28468   2.28696   2.29346
 Alpha virt. eigenvalues --    2.29826   2.30270   2.30717   2.31313   2.31865
 Alpha virt. eigenvalues --    2.32008   2.32571   2.33197   2.33872   2.33987
 Alpha virt. eigenvalues --    2.34687   2.34968   2.35882   2.35942   2.36574
 Alpha virt. eigenvalues --    2.37470   2.38582   2.38949   2.40317   2.43266
 Alpha virt. eigenvalues --    2.43572   2.44252   2.44269   2.46071   2.46956
 Alpha virt. eigenvalues --    2.48311   2.48488   2.49892   2.50443   2.50908
 Alpha virt. eigenvalues --    2.54223   2.54279   2.56099   2.57979   2.58115
 Alpha virt. eigenvalues --    2.60492   2.61082   2.62036   2.62956   2.63273
 Alpha virt. eigenvalues --    2.63719   2.64280   2.65746   2.65770   2.66505
 Alpha virt. eigenvalues --    2.67594   2.68015   2.69126   2.70228   2.70764
 Alpha virt. eigenvalues --    2.71469   2.71613   2.71831   2.71910   2.72305
 Alpha virt. eigenvalues --    2.72691   2.72848   2.73638   2.73743   2.74599
 Alpha virt. eigenvalues --    2.75306   2.75878   2.76207   2.78044   2.79879
 Alpha virt. eigenvalues --    2.79964   2.80298   2.82375   2.83149   2.84191
 Alpha virt. eigenvalues --    2.84352   2.85038   2.85399   2.87203   2.88360
 Alpha virt. eigenvalues --    2.89506   2.89580   2.91182   2.94912   2.97659
 Alpha virt. eigenvalues --    2.97973   2.99259   2.99603   3.03053   3.05104
 Alpha virt. eigenvalues --    3.06562   3.11866   3.12464   3.14836   3.19368
 Alpha virt. eigenvalues --    3.30857   3.30880   3.32997   3.36806   3.37655
 Alpha virt. eigenvalues --    3.38551   3.52297   3.52362   3.53729   4.04809
 Alpha virt. eigenvalues --    4.06397   4.09384   4.10942   4.12380   4.12825
 Alpha virt. eigenvalues --    4.14436   4.16118   4.16275   4.17986   4.19242
 Alpha virt. eigenvalues --    4.21501   4.21888   4.22702   4.24079   4.27653
 Alpha virt. eigenvalues --    4.28148   4.29865   4.31095   4.31870   4.32952
 Alpha virt. eigenvalues --    4.35022   4.36492   4.36802   4.36989   4.41226
 Alpha virt. eigenvalues --    4.44806   4.45850   4.47323   4.47379   4.51002
 Alpha virt. eigenvalues --    4.54127   4.56042   4.56778   4.69154   4.69992
 Alpha virt. eigenvalues --    4.73711   4.84224   4.85677   4.86479   4.87892
 Alpha virt. eigenvalues --    4.92061   5.01552
          Condensed to atoms (all electrons):
 Mulliken charges:
               1
     1  C   -0.053089
     2  C   -0.063407
     3  H    0.135910
     4  H    0.133646
     5  C   -0.063430
     6  H    0.140738
     7  H    0.135911
     8  H    0.143862
     9  H    0.159374
    10  H    0.133653
    11  C    0.089466
    12  C    0.102501
    13  C    0.091467
    14  C    0.097492
    15  C    0.086797
    16  C    0.104317
    17  C    0.104283
    18  C    0.097498
    19  C    0.086820
    20  C    0.102508
    21  C    0.091522
    22  C    0.089493
    23  C   -0.194523
    24  C   -0.182870
    25  C   -0.210717
    26  C   -0.122812
    27  C   -0.133790
    28  C   -0.122469
    29  C   -0.137644
    30  C   -0.138060
    31  C   -0.139698
    32  C   -0.182183
    33  C   -0.192369
    34  C   -0.181494
    35  H    0.125710
    36  H    0.123341
    37  H    0.122383
    38  H    0.118226
    39  H    0.120797
    40  H    0.122507
    41  H    0.119689
    42  H    0.121676
    43  H    0.122219
    44  H    0.119539
    45  H    0.119044
    46  H    0.121543
    47  C   -0.182197
    48  C   -0.181476
    49  C   -0.192361
    50  C   -0.139691
    51  C   -0.137648
    52  C   -0.138039
    53  C   -0.122836
    54  C   -0.133794
    55  C   -0.122473
    56  C   -0.210713
    57  C   -0.182840
    58  C   -0.194467
    59  H    0.119042
    60  H    0.121537
    61  H    0.119532
    62  H    0.119687
    63  H    0.121674
    64  H    0.122221
    65  H    0.118229
    66  H    0.122505
    67  H    0.120798
    68  H    0.122383
    69  H    0.125708
    70  H    0.123342
    71  C   -0.270284
    72  C   -0.443459
    73  C   -0.270272
    74  C   -0.443458
    75  H    0.140736
    76  H    0.143862
    77  H    0.159376
 Sum of Mulliken charges =  -0.00000
 Mulliken charges with hydrogens summed into heavy atoms:
               1
     1  C   -0.053089
     2  C   -0.063407
     5  C   -0.063430
    11  C    0.089466
    12  C    0.102501
    13  C    0.091467
    14  C    0.097492
    15  C    0.086797
    16  C    0.104317
    17  C    0.104283
    18  C    0.097498
    19  C    0.086820
    20  C    0.102508
    21  C    0.091522
    22  C    0.089493
    23  C   -0.074984
    24  C   -0.061327
    25  C   -0.091674
    26  C   -0.003123
    27  C   -0.012114
    28  C   -0.000251
    29  C   -0.015137
    30  C   -0.017263
    31  C   -0.021472
    32  C   -0.059800
    33  C   -0.069028
    34  C   -0.055784
    47  C   -0.059814
    48  C   -0.055768
    49  C   -0.069018
    50  C   -0.021462
    51  C   -0.015143
    52  C   -0.017241
    53  C   -0.003149
    54  C   -0.012120
    55  C   -0.000252
    56  C   -0.091671
    57  C   -0.061303
    58  C   -0.074936
    71  C   -0.000720
    72  C    0.000515
    73  C   -0.000716
    74  C    0.000516
 Electronic spatial extent (au):  <R**2>=          16002.3963
 Charge=             -0.0000 electrons
 Dipole moment (field-independent basis, Debye):
    X=             -0.3894    Y=             -0.2646    Z=             -0.1272  Tot=              0.4877
 Quadrupole moment (field-independent basis, Debye-Ang):
   XX=           -229.7111   YY=           -228.4854   ZZ=           -259.0290
   XY=             -0.1721   XZ=              8.1649   YZ=              3.2733
 Traceless Quadrupole moment (field-independent basis, Debye-Ang):
   XX=              9.3641   YY=             10.5898   ZZ=            -19.9539
   XY=             -0.1721   XZ=              8.1649   YZ=              3.2733
 Octapole moment (field-independent basis, Debye-Ang**2):
  XXX=             26.2151  YYY=             10.2511  ZZZ=             15.1379  XYY=              3.4370
  XXY=              3.5783  XXZ=            -10.4641  XZZ=             11.1377  YZZ=             13.8710
  YYZ=              8.6201  XYZ=              0.2383
 Hexadecapole moment (field-independent basis, Debye-Ang**3):
 XXXX=          -5925.4528 YYYY=          -5686.0594 ZZZZ=         -10483.6847 XXXY=            845.8310
 XXXZ=           1465.9579 YYYX=            845.6671 YYYZ=           -641.2247 ZZZX=           1703.9348
 ZZZY=           -708.3472 XXYY=          -1923.6674 XXZZ=          -2720.5625 YYZZ=          -2624.4784
 XXYZ=           -241.7935 YYXZ=            459.0440 ZZXY=            337.7644
 N-N= 5.324792709903D+03 E-N=-1.449303325349D+04  KE= 1.643359607361D+03
 No NMR shielding tensors so no spin-rotation constants.
 Leave Link  601 at Fri Aug 21 10:08:57 2026, MaxMem=   104857600 cpu:               0.3 elap:               0.3
 (Enter /sw/cluster/pub/apps//g16/l9999.exe)
 1\1\GINC-N12\SP\RB3LYP\6-31G(d)\C43H34\UNKNOWN\21-Aug-2026\0\\#p b3lyp
 /6-31g(d) nosymm density=current sp EmpiricalDispersion=GD3BJ\\Generat
 ed by extraQ₂ - dispersion correction\\0,1\C,0,-0.89427046,-0.607061
 28,-0.29153079\C,0,-0.4417685,-0.74857763,-2.96698199\H,0,-2.28787239,
 -0.35461503,-1.90736723\H,0,-1.69798819,-1.99532165,-1.75400892\C,0,-2
 .00467403,-0.9123416,2.16938257\H,0,-1.87043052,-1.77579943,-4.2695258
 7\H,0,-1.73260443,-2.37479227,0.59672423\H,0,-2.04632108,-0.01004683,-
 4.2563872\H,0,-0.69854724,-0.76136904,-5.13506465\H,0,-2.9274374,-1.14
 476537,0.24629484\C,0,-0.77618703,0.90139,-0.08528767\C,0,-2.63913025,
 0.45980457,2.38682167\C,0,0.37327142,0.54281014,-2.96698199\C,0,-1.755
 93398,1.3156511,3.07180568\C,0,1.75265235,0.25878958,-2.96698199\C,0,0
 .53627693,1.24930996,0.28343593\C,0,1.34836617,0.03029334,0.3309816\C,
 0,1.93268434,-1.19571574,-3.01408085\C,0,-0.52583279,0.57403791,3.3668
 8594\C,0,0.66227577,-1.80192624,-3.03121853\C,0,-0.66064829,-0.7379605
 7,2.87306307\C,0,0.53108246,-1.06767623,0.00532522\C,0,1.05064771,-2.3
 5458744,0.00695337\C,0,0.34119282,-1.67393776,3.09216154\C,0,0.5417293
 1,-3.18151069,-3.11985967\C,0,2.4011381,-2.54282614,0.31080582\C,0,1.7
 0158228,-3.9642732,-3.16201956\C,0,1.50530108,-1.28166984,3.75786689\C
 ,0,2.96332905,-3.36340363,-3.12027208\C,0,1.65502556,0.03254438,4.2135
 8804\C,0,3.21685446,-1.44959188,0.62065224\C,0,2.6949248,-0.15547343,0
 .63780366\C,0,0.63627713,0.96806925,4.02986753\C,0,3.08794374,-1.97385
 816,-3.05040705\H,0,4.07012482,-1.5105922,-3.01996736\H,0,0.74736215,1
 .98465065,4.39724152\H,0,3.32678515,0.69103878,0.89110022\H,0,4.266298
 43,-1.61019567,0.85230924\H,0,2.57033108,0.32491224,4.72091965\H,0,3.8
 5546206,-3.9830166,-3.14799469\H,0,2.82204723,-3.5434874,0.29020291\H,
 0,1.62086492,-5.04579033,-3.22817933\H,0,2.30581761,-1.99981101,3.9068
 417\H,0,0.42780871,-3.2072186,-0.24451763\H,0,-0.43711254,-3.65499734,
 -3.14548733\H,0,0.24351476,-2.68979722,2.72396508\C,0,0.87485083,2.579
 11009,0.52602855\C,0,-2.12620978,2.62670802,3.36418489\C,0,2.69081628,
 1.29062868,-2.94526326\C,0,-0.10936068,3.55939301,0.39248053\C,0,-3.39
 360841,3.07122049,2.98033266\C,0,2.23807623,2.61040998,-2.94468366\C,0
 ,-1.41069791,3.2153533,0.012089\C,0,-4.28002554,2.21372236,2.32172495\
 C,0,0.86850386,2.89318309,-2.98447753\C,0,-3.90459847,0.89843325,2.023
 7161\C,0,-0.06981246,1.85812324,-3.00415089\C,0,-1.74697965,1.88195811
 ,-0.23403083\H,0,-4.59582452,0.2381271,1.50488959\H,0,-1.13010896,2.08
 782844,-3.01361262\H,0,-2.76232637,1.62243945,-0.51663725\H,0,-2.17000
 545,3.98627408,-0.07761383\H,0,-5.26687993,2.57047435,2.03991449\H,0,0
 .52939392,3.92456489,-2.98320688\H,0,0.13769359,4.6001847,0.58355083\H
 ,0,-3.69561461,4.09146361,3.2005291\H,0,2.95523458,3.42632441,-2.91985
 01\H,0,1.88814022,2.84949016,0.80910287\H,0,-1.44092929,3.29546073,3.8
 7739326\H,0,3.75509432,1.07199507,-2.92933315\C,0,-1.92238205,-1.29604
 255,0.66124393\C,0,-1.31885628,-0.82909315,-4.23655787\C,0,-1.37882192
 ,-0.94505468,-1.7373908\C,0,-2.84472083,-1.99767564,2.87935402\H,0,-3.
 83105626,-2.09509547,2.41113603\H,0,-2.34420888,-2.970808,2.82518103\H
 ,0,-2.98838516,-1.74181583,3.93319238\\Version=ES64L-G16RevA.03\HF=-16
 59.331175\RMSD=4.099e-09\Dipole=-0.153205,-0.1041032,-0.0500525\Quadru
 pole=6.9619572,7.8732566,-14.8352138,-0.1279411,6.0703802,2.4336205\PG
 =C01 [X(C43H34)]\\@


 Mondays are the potholes in the road of life.
                                -- Tom Wilson
 Job cpu time:       0 days  0 hours 11 minutes  3.3 seconds.
 Elapsed time:       0 days  0 hours 11 minutes  4.0 seconds.
 File lengths (MBytes):  RWF=    277 Int=      0 D2E=      0 Chk=     31 Scr=      1
 Normal termination of Gaussian 16 at Fri Aug 21 10:08:58 2026.
