101
Generated from .fchk
C 0.510161 0.195167 -1.668596
C 3.085301 0.521823 3.029023
C 1.534112 0.014436 0.853656
H 2.405369 -0.629477 -1.001066
H 2.280483 1.109964 -0.866867
C 0.217845 -0.183115 -4.345767
H 3.294433 1.272095 1.034380
H 1.696991 0.988042 -3.281397
H 3.615625 -0.443338 1.163665
H 1.857781 -0.743834 -3.088213
C -0.564584 -0.846282 -1.365378
C 2.343082 -0.495478 3.892959
C -0.318096 -1.612944 -4.387314
C 1.106267 -1.411776 1.198603
C -1.725593 -1.618871 -4.397759
C -0.122647 -1.411493 1.882348
C 1.398309 0.148232 4.715637
C -1.793332 -0.218050 -1.087026
C -1.617907 1.233022 -1.188470
C 1.488621 1.594567 4.492197
C -0.570888 -0.024368 2.029460
C -2.195713 -0.230004 -4.397759
C 0.381427 0.827495 1.438358
C -1.076714 0.625329 -4.397759
C 2.482200 1.834846 3.524591
C -0.278985 1.496596 -1.528401
C 0.163933 2.800834 -1.691770
C 2.808883 3.132812 3.158430
C -1.248296 2.000313 -4.485090
C 0.195316 2.203107 1.459709
C -0.740187 3.853540 -1.511443
C 2.115286 4.199145 3.742489
C -0.947409 2.727258 2.063576
C -2.543141 2.524503 -4.514368
C -1.896438 1.879434 2.645405
C -3.654550 1.675996 -4.471720
C -2.070632 3.591668 -1.172321
C 1.110591 3.959155 4.684555
C -2.519031 2.278869 -1.009382
C 0.793001 2.654595 5.069794
C -3.488994 0.291441 -4.422666
C -1.714324 0.497085 2.634089
H -2.448896 -0.161915 3.088591
H -4.352731 -0.367644 -4.406372
H -3.553572 2.079736 -0.745860
H 0.012773 2.472201 5.803358
H -2.763147 4.417519 -1.034380
H 0.575049 4.795730 5.124875
H -4.655245 2.099212 -4.484638
H -2.782005 2.302938 3.111667
H -0.406052 4.880119 -1.634971
H 2.358491 5.220041 3.461152
H -1.097362 3.801674 2.080288
H -2.685712 3.600114 -4.553857
H 1.198616 3.010687 -1.954635
H 3.583271 3.325410 2.419388
H 0.922898 2.869165 1.013940
H -0.392829 2.667583 -4.497882
C 0.588196 -0.588904 5.579032
C -2.926229 -0.972904 -0.784251
C -2.427542 -2.822207 -4.418216
C -0.701333 -2.609071 2.293230
C 0.746895 -1.974159 5.630853
C -2.820897 -2.363126 -0.765014
C -1.710554 -4.020679 -4.445412
C -0.041553 -3.808244 2.014432
C 1.714168 -2.609513 4.844901
C -1.601512 -2.988615 -1.047601
C -0.312623 -4.014303 -4.461138
C 1.180477 -3.808401 1.335974
C 0.391188 -2.804680 -4.434137
C 1.760931 -2.603476 0.924430
C 2.521918 -1.869716 3.977435
C -0.470104 -2.231289 -1.350224
H 1.478819 -2.806348 -4.437377
H 2.711803 -2.609743 0.395744
H 0.467365 -2.726624 -1.568217
H 3.255289 -2.374056 3.356917
H 1.828484 -3.688018 4.895691
H -1.531011 -4.071177 -1.032680
H 0.230949 -4.954522 -4.493448
H 1.682037 -4.749292 1.126376
H 0.119193 -2.564357 6.292917
H -3.693489 -2.966900 -0.530445
H -2.244403 -4.966911 -4.459415
H -0.482615 -4.750325 2.328413
H -0.151967 -0.094291 6.202103
H -3.873379 -0.486338 -0.568354
H -3.513795 -2.831203 -4.407704
H -1.650682 -2.613356 2.820573
C 4.597978 0.487063 3.342393
H 4.772783 0.676962 4.405435
H 5.133483 1.248876 2.764063
H 5.022402 -0.491495 3.091830
C 1.122673 0.070406 -3.100987
C 2.923811 0.344489 1.487949
C 1.730661 0.177455 -0.689893
C 1.072483 0.094441 -5.602802
H 1.980702 -0.519334 -5.600013
H 1.373150 1.147350 -5.641218
H 0.505206 -0.135650 -6.509406