29
Generated from .fchk
C 0.000045 1.412550 0.000077
C -1.177926 0.443999 0.000055
C -0.732661 -0.887036 -0.000040
C 0.732611 -0.887082 -0.000049
C 1.177914 0.443936 0.000048
C 2.534409 0.725252 0.000087
C 3.448230 -0.328146 0.000020
C 3.005207 -1.648999 -0.000081
C 1.644510 -1.938238 -0.000116
H 1.306579 -2.967397 -0.000190
H 3.726661 -2.456486 -0.000128
H 4.510492 -0.118267 0.000052
H 2.892040 1.748360 0.000166
C -1.644527 -1.938219 -0.000113
C -3.005227 -1.648997 -0.000082
C -3.448226 -0.328137 0.000023
C -2.534424 0.725279 0.000092
H -2.892132 1.748362 0.000180
H -4.510487 -0.118243 0.000052
H -3.726710 -2.456457 -0.000140
H -1.306502 -2.967345 -0.000190
C 0.000035 2.297626 1.261510
H 0.000148 1.689927 2.167135
H 0.882718 2.940034 1.281138
H -0.882765 2.939866 1.281220
C 0.000019 2.297560 -1.261430
H -0.882875 2.939670 -1.281259
H 0.882614 2.940087 -1.281032
H 0.000287 1.689796 -2.167012