77
Generated from .fchk
C 0.000027 0.000091 0.864780
C -2.516599 1.028199 1.445125
H -0.570390 1.555015 2.231538
H -1.151397 -0.018860 2.707040
C 2.516502 -1.028357 1.445077
H -2.923099 1.547697 3.542985
H 0.570228 -1.554975 2.231473
H -2.449198 2.933497 2.537286
H -4.080069 2.246190 2.391817
H 1.151424 0.018791 2.707053
C 0.574292 1.034537 -0.107516
C 3.466973 0.170869 1.384513
C -2.758520 1.669878 0.076554
C 4.181818 0.184556 0.171436
C -3.744592 0.958282 -0.638502
C 0.356058 0.641479 -1.442586
C -0.355938 -0.640775 -1.442739
C -4.181760 -0.184909 0.171470
C 3.744562 -0.958613 -0.638518
C -3.466975 -0.171100 1.384580
C 2.758383 -1.670079 0.076521
C -0.574238 -1.034117 -0.107767
C -1.209630 -2.242105 0.166559
C 2.232947 -2.847482 -0.449203
C -3.728839 -1.126893 2.362231
C -1.638446 -3.049003 -0.894717
C -4.692694 -2.113984 2.115679
C 2.670603 -3.294385 -1.702160
C -5.391603 -2.135460 0.901819
C 3.635050 -2.574994 -2.419106
C -1.427974 -2.650305 -2.220842
C -0.783127 -1.443189 -2.503381
C 4.182301 -1.403517 -1.889095
C -5.143590 -1.167985 -0.076578
H -5.694878 -1.184251 -1.013831
H 4.941950 -0.854550 -2.440790
H -0.612329 -1.140703 -3.533790
H -1.767750 -3.285187 -3.035654
H 3.964531 -2.933917 -3.391153
H -6.137427 -2.906004 0.722434
H -2.146674 -3.986945 -0.685725
H -4.902497 -2.865182 2.873286
H 2.253251 -4.205790 -2.122396
H -1.389665 -2.562204 1.189495
H -3.197878 -1.117524 3.312516
H 1.480047 -3.414574 0.090591
C 0.783305 1.444108 -2.503037
C 5.143738 1.167540 -0.076622
C -4.182325 1.403112 -1.889108
C 1.428169 2.651153 -2.220213
C 5.391765 2.135065 0.901725
C -3.635182 2.574640 -2.419118
C 1.638578 3.049567 -0.893996
C 4.692782 2.113722 2.115544
C -2.670850 3.294161 -1.702149
C 3.728851 1.126707 2.362115
C -2.233194 2.847330 -0.449168
C 1.209685 2.242456 0.167092
H 3.197844 1.117444 3.312375
H -1.480389 3.414515 0.090661
H 1.389715 2.562321 1.190102
H 2.146836 3.987441 -0.684773
H 4.902586 2.864956 2.873114
H -2.253591 4.205606 -2.122389
H 1.768001 3.286193 -3.034877
H 6.137642 2.905553 0.722324
H -3.964661 2.933503 -3.391188
H 0.612549 1.141848 -3.533520
H 5.695060 1.183718 -1.013857
H -4.941892 0.854057 -2.440828
C 1.051743 -0.649219 1.841403
C -3.024846 2.000652 2.549129
C -1.051821 0.649227 1.841436
C 3.024671 -2.000819 2.549102
H 2.922926 -1.547844 3.542951
H 2.448964 -2.933627 2.537261
H 4.079883 -2.246429 2.391824