 Entering Gaussian System, Link 0=g16
 Initial command:
 /sw/cluster/pub/apps//g16/l1.exe "/data/mmaximo/44342/Gau-1908481.inp" -scrdir="/data/mmaximo/44342/"
 Entering Link 1 = /sw/cluster/pub/apps//g16/l1.exe PID=   1908482.
  
 Copyright (c) 1988,1990,1992,1993,1995,1998,2003,2009,2016,
            Gaussian, Inc.  All Rights Reserved.
  
 This is part of the Gaussian(R) 16 program.  It is based on
 the Gaussian(R) 09 system (copyright 2009, Gaussian, Inc.),
 the Gaussian(R) 03 system (copyright 2003, Gaussian, Inc.),
 the Gaussian(R) 98 system (copyright 1998, Gaussian, Inc.),
 the Gaussian(R) 94 system (copyright 1995, Gaussian, Inc.),
 the Gaussian 92(TM) system (copyright 1992, Gaussian, Inc.),
 the Gaussian 90(TM) system (copyright 1990, Gaussian, Inc.),
 the Gaussian 88(TM) system (copyright 1988, Gaussian, Inc.),
 the Gaussian 86(TM) system (copyright 1986, Carnegie Mellon
 University), and the Gaussian 82(TM) system (copyright 1983,
 Carnegie Mellon University). Gaussian is a federally registered
 trademark of Gaussian, Inc.
  
 This software contains proprietary and confidential information,
 including trade secrets, belonging to Gaussian, Inc.
  
 This software is provided under written license and may be
 used, copied, transmitted, or stored only in accord with that
 written license.
  
 The following legend is applicable only to US Government
 contracts under FAR:
  
                    RESTRICTED RIGHTS LEGEND
  
 Use, reproduction and disclosure by the US Government is
 subject to restrictions as set forth in subparagraphs (a)
 and (c) of the Commercial Computer Software - Restricted
 Rights clause in FAR 52.227-19.
  
 Gaussian, Inc.
 340 Quinnipiac St., Bldg. 40, Wallingford CT 06492
  
  
 ---------------------------------------------------------------
 Warning -- This program may not be used in any manner that
 competes with the business of Gaussian, Inc. or will provide
 assistance to any competitor of Gaussian, Inc.  The licensee
 of this program is prohibited from giving any competitor of
 Gaussian, Inc. access to this program.  By using this program,
 the user acknowledges that Gaussian, Inc. is engaged in the
 business of creating and licensing software in the field of
 computational chemistry and represents and warrants to the
 licensee that it is not a competitor of Gaussian, Inc. and that
 it will not use this program in any manner prohibited above.
 ---------------------------------------------------------------
  

 Cite this work as:
 Gaussian 16, Revision A.03,
 M. J. Frisch, G. W. Trucks, H. B. Schlegel, G. E. Scuseria, 
 M. A. Robb, J. R. Cheeseman, G. Scalmani, V. Barone, 
 G. A. Petersson, H. Nakatsuji, X. Li, M. Caricato, A. V. Marenich, 
 J. Bloino, B. G. Janesko, R. Gomperts, B. Mennucci, H. P. Hratchian, 
 J. V. Ortiz, A. F. Izmaylov, J. L. Sonnenberg, D. Williams-Young, 
 F. Ding, F. Lipparini, F. Egidi, J. Goings, B. Peng, A. Petrone, 
 T. Henderson, D. Ranasinghe, V. G. Zakrzewski, J. Gao, N. Rega, 
 G. Zheng, W. Liang, M. Hada, M. Ehara, K. Toyota, R. Fukuda, 
 J. Hasegawa, M. Ishida, T. Nakajima, Y. Honda, O. Kitao, H. Nakai, 
 T. Vreven, K. Throssell, J. A. Montgomery, Jr., J. E. Peralta, 
 F. Ogliaro, M. J. Bearpark, J. J. Heyd, E. N. Brothers, K. N. Kudin, 
 V. N. Staroverov, T. A. Keith, R. Kobayashi, J. Normand, 
 K. Raghavachari, A. P. Rendell, J. C. Burant, S. S. Iyengar, 
 J. Tomasi, M. Cossi, J. M. Millam, M. Klene, C. Adamo, R. Cammi, 
 J. W. Ochterski, R. L. Martin, K. Morokuma, O. Farkas, 
 J. B. Foresman, and D. J. Fox, Gaussian, Inc., Wallingford CT, 2016.
 
 ******************************************
 Gaussian 16:  ES64L-G16RevA.03 25-Dec-2016
                17-Mar-2026 
 ******************************************
 %chk=f3-6-31+Gstar_SP.chk
 ------------------------------------------
 #p B3LYP/6-31+G* nosymm density=current sp
 ------------------------------------------
 1/30=1,38=1,172=1/1;
 2/12=2,15=1,17=6,18=5,40=1/2;
 3/5=1,6=6,7=11,11=2,25=1,30=1,74=-5/1,2,3;
 4//1;
 5/5=2,38=5/2;
 6/7=2,8=2,9=2,10=2,22=-1,28=1/1;
 99/5=1,9=1/99;
 Leave Link    1 at Tue Mar 17 09:54:04 2026, MaxMem=           0 cpu:               0.0 elap:               0.0
 (Enter /sw/cluster/pub/apps//g16/l101.exe)
 ------------------------------------------------
 Single-Point F3 6-31+G* - Generated by extraQ₂
 ------------------------------------------------
 Symbolic Z-matrix:
 Charge =  0 Multiplicity = 1
 C                     0.62421  -0.47631  -0.36239 
 C                     1.4868   -2.02737   1.77709 
 H                     2.61595  -0.87695   0.33305 
 H                     1.82195  -2.28825  -0.31388 
 C                     0.59906   0.43512  -2.98837 
 H                     3.31448  -3.2131    1.47745 
 H                     0.60519  -1.58166  -2.20333 
 H                     3.58603  -1.67286   2.32028 
 H                     2.8422   -3.03719   3.1797 
 H                     2.08557  -0.69419  -1.95519 
 C                     0.68977   0.9464    0.20046 
 C                     1.47428   1.69178  -2.98837 
 C                     0.91323  -1.13257   2.87873 
 C                     0.68195   2.85581  -2.98837 
 C                    -0.19172  -1.75343   3.4981 
 C                    -0.56536   1.34475   0.70097 
 C                    -1.5166    0.2451    0.50856 
 C                    -0.4347   -3.04483   2.84442 
 C                    -0.73018   2.45671  -2.96307 
 C                     0.52412  -3.21729   1.82773 
 C                    -0.80291   1.04806  -2.94289 
 C                    -0.84485  -0.82757  -0.11004 
 C                    -1.53925  -1.99052  -0.43186 
 C                    -2.04244   0.41569  -2.99193 
 C                     0.54853  -4.39157   1.08049 
 C                    -2.90176  -2.08479  -0.12209 
 C                    -0.40455  -5.38689   1.33572 
 C                    -3.20742   1.19198  -3.02888 
 C                    -1.36752  -5.20682   2.33704 
 C                    -3.13289   2.5906   -3.0282 
 C                    -3.56426  -1.01979   0.50141 
 C                    -2.87541   0.15374   0.81936 
 C                    -1.89206   3.23271  -2.99998 
 C                    -1.3859   -4.03602   3.10103 
 H                    -2.13042  -3.9048    3.88275 
 H                    -1.83606   4.31874  -3.01463 
 H                    -3.39444   0.98273   1.29456 
 H                    -4.62196  -1.10672   0.73839 
 H                    -4.04608   3.18014  -3.05634 
 H                    -2.10139  -5.98649   2.52605 
 H                    -3.44535  -2.99573  -0.35954 
 H                    -0.39355  -6.30661   0.75583 
 H                    -4.1776    0.70253  -3.0536 
 H                    -1.03863  -2.83013  -0.90696 
 H                     1.29564  -4.54718   0.30418 
 H                    -2.11874  -0.66782  -2.98714 
 C                    -0.73727   2.60468   1.27917 
 C                     1.27504   4.1203   -3.03717 
 C                    -0.8351   -1.15164   4.58319 
 C                     0.35958   3.46675   1.36014 
 C                     2.66896   4.21323  -3.09323 
 C                    -0.3593    0.07434   5.05577 
 C                     1.61117   3.07048   0.87194 
 C                     3.45822   3.056    -3.10921 
 C                     0.75021   0.68305   4.45566 
 C                     2.86109   1.78902  -3.06055 
 C                     1.39392   0.07895   3.36852 
 C                     1.78031   1.80693   0.29218 
 H                     3.48575   0.8977   -3.08065 
 H                     2.24948   0.56771   2.9114 
 H                     2.75617   1.51938  -0.09029 
 H                     2.45657   3.75104   0.93407 
 H                     4.54081   3.14108  -3.16429 
 H                     1.11381   1.63545   4.83271 
 H                     0.24133   4.45142   1.80611 
 H                     3.14385   5.19055  -3.13194 
 H                    -0.8493    0.55572   5.89864 
 H                    -1.70552   2.9111    1.66778 
 H                     0.66661   5.02165  -3.03338 
 H                    -1.68753  -1.62982   5.06017 
 C                     0.99331  -0.60462  -1.88844 
 C                     2.89667  -2.51892   2.21692 
 C                     1.66474  -1.42418   0.34504 
 C                     0.7828   -0.28972  -4.35352 
 H                     1.79961  -0.69048  -4.44707 
 H                     0.07636  -1.12275  -4.4469 
 H                     0.61017   0.40181  -5.18449 
 
 ITRead=  0  0  0  0  0  0  0  0  0  0  0  0  0  0  0  0  0  0  0  0
 ITRead=  0  0  0  0  0  0  0  0  0  0  0  0  0  0  0  0  0  0  0  0
 ITRead=  0  0  0  0  0  0  0  0  0  0  0  0  0  0  0  0  0  0  0  0
 ITRead=  0  0  0  0  0  0  0  0  0  0  0  0  0  0  0  0  0
 MicOpt= -1 -1 -1 -1 -1 -1 -1 -1 -1 -1 -1 -1 -1 -1 -1 -1 -1 -1 -1 -1
 MicOpt= -1 -1 -1 -1 -1 -1 -1 -1 -1 -1 -1 -1 -1 -1 -1 -1 -1 -1 -1 -1
 MicOpt= -1 -1 -1 -1 -1 -1 -1 -1 -1 -1 -1 -1 -1 -1 -1 -1 -1 -1 -1 -1
 MicOpt= -1 -1 -1 -1 -1 -1 -1 -1 -1 -1 -1 -1 -1 -1 -1 -1 -1
 NAtoms=     77 NQM=       77 NQMF=       0 NMMI=      0 NMMIF=      0
                NMic=       0 NMicF=      0.
                    Isotopes and Nuclear Properties:
 (Nuclear quadrupole moments (NQMom) in fm**2, nuclear magnetic moments (NMagM)
  in nuclear magnetons)

  Atom         1           2           3           4           5           6           7           8           9          10
 IAtWgt=          12          12           1           1          12           1           1           1           1           1
 AtmWgt=  12.0000000  12.0000000   1.0078250   1.0078250  12.0000000   1.0078250   1.0078250   1.0078250   1.0078250   1.0078250
 NucSpn=           0           0           1           1           0           1           1           1           1           1
 AtZEff=  -0.0000000  -0.0000000  -0.0000000  -0.0000000  -0.0000000  -0.0000000  -0.0000000  -0.0000000  -0.0000000  -0.0000000
 NQMom=    0.0000000   0.0000000   0.0000000   0.0000000   0.0000000   0.0000000   0.0000000   0.0000000   0.0000000   0.0000000
 NMagM=    0.0000000   0.0000000   2.7928460   2.7928460   0.0000000   2.7928460   2.7928460   2.7928460   2.7928460   2.7928460
 AtZNuc=   6.0000000   6.0000000   1.0000000   1.0000000   6.0000000   1.0000000   1.0000000   1.0000000   1.0000000   1.0000000

  Atom        11          12          13          14          15          16          17          18          19          20
 IAtWgt=          12          12          12          12          12          12          12          12          12          12
 AtmWgt=  12.0000000  12.0000000  12.0000000  12.0000000  12.0000000  12.0000000  12.0000000  12.0000000  12.0000000  12.0000000
 NucSpn=           0           0           0           0           0           0           0           0           0           0
 AtZEff=  -0.0000000  -0.0000000  -0.0000000  -0.0000000  -0.0000000  -0.0000000  -0.0000000  -0.0000000  -0.0000000  -0.0000000
 NQMom=    0.0000000   0.0000000   0.0000000   0.0000000   0.0000000   0.0000000   0.0000000   0.0000000   0.0000000   0.0000000
 NMagM=    0.0000000   0.0000000   0.0000000   0.0000000   0.0000000   0.0000000   0.0000000   0.0000000   0.0000000   0.0000000
 AtZNuc=   6.0000000   6.0000000   6.0000000   6.0000000   6.0000000   6.0000000   6.0000000   6.0000000   6.0000000   6.0000000

  Atom        21          22          23          24          25          26          27          28          29          30
 IAtWgt=          12          12          12          12          12          12          12          12          12          12
 AtmWgt=  12.0000000  12.0000000  12.0000000  12.0000000  12.0000000  12.0000000  12.0000000  12.0000000  12.0000000  12.0000000
 NucSpn=           0           0           0           0           0           0           0           0           0           0
 AtZEff=  -0.0000000  -0.0000000  -0.0000000  -0.0000000  -0.0000000  -0.0000000  -0.0000000  -0.0000000  -0.0000000  -0.0000000
 NQMom=    0.0000000   0.0000000   0.0000000   0.0000000   0.0000000   0.0000000   0.0000000   0.0000000   0.0000000   0.0000000
 NMagM=    0.0000000   0.0000000   0.0000000   0.0000000   0.0000000   0.0000000   0.0000000   0.0000000   0.0000000   0.0000000
 AtZNuc=   6.0000000   6.0000000   6.0000000   6.0000000   6.0000000   6.0000000   6.0000000   6.0000000   6.0000000   6.0000000

  Atom        31          32          33          34          35          36          37          38          39          40
 IAtWgt=          12          12          12          12           1           1           1           1           1           1
 AtmWgt=  12.0000000  12.0000000  12.0000000  12.0000000   1.0078250   1.0078250   1.0078250   1.0078250   1.0078250   1.0078250
 NucSpn=           0           0           0           0           1           1           1           1           1           1
 AtZEff=  -0.0000000  -0.0000000  -0.0000000  -0.0000000  -0.0000000  -0.0000000  -0.0000000  -0.0000000  -0.0000000  -0.0000000
 NQMom=    0.0000000   0.0000000   0.0000000   0.0000000   0.0000000   0.0000000   0.0000000   0.0000000   0.0000000   0.0000000
 NMagM=    0.0000000   0.0000000   0.0000000   0.0000000   2.7928460   2.7928460   2.7928460   2.7928460   2.7928460   2.7928460
 AtZNuc=   6.0000000   6.0000000   6.0000000   6.0000000   1.0000000   1.0000000   1.0000000   1.0000000   1.0000000   1.0000000

  Atom        41          42          43          44          45          46          47          48          49          50
 IAtWgt=           1           1           1           1           1           1          12          12          12          12
 AtmWgt=   1.0078250   1.0078250   1.0078250   1.0078250   1.0078250   1.0078250  12.0000000  12.0000000  12.0000000  12.0000000
 NucSpn=           1           1           1           1           1           1           0           0           0           0
 AtZEff=  -0.0000000  -0.0000000  -0.0000000  -0.0000000  -0.0000000  -0.0000000  -0.0000000  -0.0000000  -0.0000000  -0.0000000
 NQMom=    0.0000000   0.0000000   0.0000000   0.0000000   0.0000000   0.0000000   0.0000000   0.0000000   0.0000000   0.0000000
 NMagM=    2.7928460   2.7928460   2.7928460   2.7928460   2.7928460   2.7928460   0.0000000   0.0000000   0.0000000   0.0000000
 AtZNuc=   1.0000000   1.0000000   1.0000000   1.0000000   1.0000000   1.0000000   6.0000000   6.0000000   6.0000000   6.0000000

  Atom        51          52          53          54          55          56          57          58          59          60
 IAtWgt=          12          12          12          12          12          12          12          12           1           1
 AtmWgt=  12.0000000  12.0000000  12.0000000  12.0000000  12.0000000  12.0000000  12.0000000  12.0000000   1.0078250   1.0078250
 NucSpn=           0           0           0           0           0           0           0           0           1           1
 AtZEff=  -0.0000000  -0.0000000  -0.0000000  -0.0000000  -0.0000000  -0.0000000  -0.0000000  -0.0000000  -0.0000000  -0.0000000
 NQMom=    0.0000000   0.0000000   0.0000000   0.0000000   0.0000000   0.0000000   0.0000000   0.0000000   0.0000000   0.0000000
 NMagM=    0.0000000   0.0000000   0.0000000   0.0000000   0.0000000   0.0000000   0.0000000   0.0000000   2.7928460   2.7928460
 AtZNuc=   6.0000000   6.0000000   6.0000000   6.0000000   6.0000000   6.0000000   6.0000000   6.0000000   1.0000000   1.0000000

  Atom        61          62          63          64          65          66          67          68          69          70
 IAtWgt=           1           1           1           1           1           1           1           1           1           1
 AtmWgt=   1.0078250   1.0078250   1.0078250   1.0078250   1.0078250   1.0078250   1.0078250   1.0078250   1.0078250   1.0078250
 NucSpn=           1           1           1           1           1           1           1           1           1           1
 AtZEff=  -0.0000000  -0.0000000  -0.0000000  -0.0000000  -0.0000000  -0.0000000  -0.0000000  -0.0000000  -0.0000000  -0.0000000
 NQMom=    0.0000000   0.0000000   0.0000000   0.0000000   0.0000000   0.0000000   0.0000000   0.0000000   0.0000000   0.0000000
 NMagM=    2.7928460   2.7928460   2.7928460   2.7928460   2.7928460   2.7928460   2.7928460   2.7928460   2.7928460   2.7928460
 AtZNuc=   1.0000000   1.0000000   1.0000000   1.0000000   1.0000000   1.0000000   1.0000000   1.0000000   1.0000000   1.0000000

  Atom        71          72          73          74          75          76          77
 IAtWgt=          12          12          12          12           1           1           1
 AtmWgt=  12.0000000  12.0000000  12.0000000  12.0000000   1.0078250   1.0078250   1.0078250
 NucSpn=           0           0           0           0           1           1           1
 AtZEff=  -0.0000000  -0.0000000  -0.0000000  -0.0000000  -0.0000000  -0.0000000  -0.0000000
 NQMom=    0.0000000   0.0000000   0.0000000   0.0000000   0.0000000   0.0000000   0.0000000
 NMagM=    0.0000000   0.0000000   0.0000000   0.0000000   2.7928460   2.7928460   2.7928460
 AtZNuc=   6.0000000   6.0000000   6.0000000   6.0000000   1.0000000   1.0000000   1.0000000
 Leave Link  101 at Tue Mar 17 09:54:05 2026, MaxMem=   104857600 cpu:               0.0 elap:               0.0
 (Enter /sw/cluster/pub/apps//g16/l202.exe)
 Symmetry turned off by external request.
 Stoichiometry    C43H34
 Framework group  C1[X(C43H34)]
 Deg. of freedom   225
 Full point group                 C1      NOp   1
                          Input orientation:                          
 ---------------------------------------------------------------------
 Center     Atomic      Atomic             Coordinates (Angstroms)
 Number     Number       Type             X           Y           Z
 ---------------------------------------------------------------------
      1          6           0        0.624212   -0.476315   -0.362393
      2          6           0        1.486798   -2.027374    1.777087
      3          1           0        2.615955   -0.876947    0.333053
      4          1           0        1.821952   -2.288254   -0.313883
      5          6           0        0.599059    0.435122   -2.988368
      6          1           0        3.314476   -3.213101    1.477447
      7          1           0        0.605190   -1.581660   -2.203333
      8          1           0        3.586030   -1.672861    2.320284
      9          1           0        2.842195   -3.037194    3.179701
     10          1           0        2.085572   -0.694193   -1.955186
     11          6           0        0.689768    0.946400    0.200459
     12          6           0        1.474283    1.691780   -2.988368
     13          6           0        0.913234   -1.132570    2.878728
     14          6           0        0.681955    2.855809   -2.988368
     15          6           0       -0.191722   -1.753428    3.498098
     16          6           0       -0.565360    1.344747    0.700965
     17          6           0       -1.516601    0.245095    0.508557
     18          6           0       -0.434702   -3.044833    2.844422
     19          6           0       -0.730184    2.456715   -2.963068
     20          6           0        0.524125   -3.217287    1.827734
     21          6           0       -0.802905    1.048056   -2.942893
     22          6           0       -0.844854   -0.827571   -0.110043
     23          6           0       -1.539252   -1.990523   -0.431861
     24          6           0       -2.042442    0.415687   -2.991926
     25          6           0        0.548530   -4.391573    1.080492
     26          6           0       -2.901760   -2.084785   -0.122085
     27          6           0       -0.404546   -5.386891    1.335720
     28          6           0       -3.207416    1.191984   -3.028877
     29          6           0       -1.367522   -5.206820    2.337041
     30          6           0       -3.132892    2.590604   -3.028203
     31          6           0       -3.564264   -1.019792    0.501407
     32          6           0       -2.875414    0.153739    0.819363
     33          6           0       -1.892064    3.232712   -2.999975
     34          6           0       -1.385900   -4.036023    3.101027
     35          1           0       -2.130425   -3.904802    3.882750
     36          1           0       -1.836065    4.318736   -3.014626
     37          1           0       -3.394435    0.982726    1.294558
     38          1           0       -4.621963   -1.106723    0.738386
     39          1           0       -4.046080    3.180142   -3.056342
     40          1           0       -2.101393   -5.986486    2.526046
     41          1           0       -3.445354   -2.995734   -0.359543
     42          1           0       -0.393551   -6.306613    0.755826
     43          1           0       -4.177602    0.702526   -3.053600
     44          1           0       -1.038633   -2.830128   -0.906960
     45          1           0        1.295640   -4.547179    0.304179
     46          1           0       -2.118739   -0.667819   -2.987143
     47          6           0       -0.737271    2.604680    1.279172
     48          6           0        1.275040    4.120304   -3.037174
     49          6           0       -0.835097   -1.151643    4.583190
     50          6           0        0.359577    3.466750    1.360136
     51          6           0        2.668958    4.213234   -3.093229
     52          6           0       -0.359304    0.074343    5.055771
     53          6           0        1.611173    3.070484    0.871939
     54          6           0        3.458220    3.055996   -3.109205
     55          6           0        0.750211    0.683053    4.455656
     56          6           0        2.861095    1.789018   -3.060546
     57          6           0        1.393922    0.078952    3.368522
     58          6           0        1.780307    1.806932    0.292184
     59          1           0        3.485752    0.897700   -3.080647
     60          1           0        2.249480    0.567711    2.911396
     61          1           0        2.756169    1.519382   -0.090285
     62          1           0        2.456567    3.751040    0.934066
     63          1           0        4.540813    3.141077   -3.164294
     64          1           0        1.113809    1.635455    4.832706
     65          1           0        0.241331    4.451416    1.806107
     66          1           0        3.143847    5.190552   -3.131938
     67          1           0       -0.849305    0.555723    5.898643
     68          1           0       -1.705520    2.911102    1.667778
     69          1           0        0.666615    5.021654   -3.033384
     70          1           0       -1.687527   -1.629821    5.060167
     71          6           0        0.993306   -0.604617   -1.888437
     72          6           0        2.896670   -2.518916    2.216918
     73          6           0        1.664744   -1.424178    0.345044
     74          6           0        0.782795   -0.289719   -4.353519
     75          1           0        1.799610   -0.690479   -4.447073
     76          1           0        0.076361   -1.122750   -4.446896
     77          1           0        0.610168    0.401814   -5.184491
 ---------------------------------------------------------------------
 Rotational constants (GHZ):           0.1466355           0.0734968           0.0682965
 Leave Link  202 at Tue Mar 17 09:54:05 2026, MaxMem=   104857600 cpu:               0.0 elap:               0.0
 (Enter /sw/cluster/pub/apps//g16/l301.exe)
 Standard basis: 6-31+G(d) (6D, 7F)
 Ernie: Thresh=  0.10000D-02 Tol=  0.10000D-05 Strict=F.
   885 basis functions,  1512 primitive gaussians,   885 cartesian basis functions
   146 alpha electrons      146 beta electrons
       nuclear repulsion energy      5146.5819048384 Hartrees.
 IExCor=  402 DFT=T Ex+Corr=B3LYP ExCW=0 ScaHFX=  0.200000
 ScaDFX=  0.800000  0.720000  1.000000  0.810000 ScalE2=  1.000000  1.000000
 IRadAn=      5 IRanWt=     -1 IRanGd=            0 ICorTp=0 IEmpDi=  4
 NAtoms=   77 NActive=   77 NUniq=   77 SFac= 1.00D+00 NAtFMM=   60 NAOKFM=T Big=T
 Integral buffers will be    131072 words long.
 Raffenetti 2 integral format.
 Two-electron integral symmetry is turned off.
 Leave Link  301 at Tue Mar 17 09:54:05 2026, MaxMem=   104857600 cpu:               0.0 elap:               0.0
 (Enter /sw/cluster/pub/apps//g16/l302.exe)
 NPDir=0 NMtPBC=     1 NCelOv=     1 NCel=       1 NClECP=     1 NCelD=      1
         NCelK=      1 NCelE2=     1 NClLst=     1 CellRange=     0.0.
 One-electron integrals computed using PRISM.
 NBasis=   885 RedAO= T EigKep=  1.08D-06  NBF=   885
 NBsUse=   866 1.00D-06 EigRej=  8.45D-07 NBFU=   866
 Precomputing XC quadrature grid using
 IXCGrd= 4 IRadAn=           5 IRanWt=          -1 IRanGd=           0 AccXCQ= 0.00D+00.
 Generated NRdTot=       0 NPtTot=           0 NUsed=           0 NTot=          32
 NSgBfM=   874   872   872   873   874 MxSgAt=    77 MxSgA2=    77.
 Leave Link  302 at Tue Mar 17 09:54:08 2026, MaxMem=   104857600 cpu:               3.6 elap:               3.6
 (Enter /sw/cluster/pub/apps//g16/l303.exe)
 DipDrv:  MaxL=1.
 Leave Link  303 at Tue Mar 17 09:54:08 2026, MaxMem=   104857600 cpu:               0.0 elap:               0.1
 (Enter /sw/cluster/pub/apps//g16/l401.exe)
 ExpMin= 4.38D-02 ExpMax= 3.05D+03 ExpMxC= 4.57D+02 IAcc=3 IRadAn=         5 AccDes= 0.00D+00
 Harris functional with IExCor=  402 and IRadAn=       5 diagonalized for initial guess.
 HarFok:  IExCor=  402 AccDes= 0.00D+00 IRadAn=         5 IDoV= 1 UseB2=F ITyADJ=14
 ICtDFT=  3500011 ScaDFX=  1.000000  1.000000  1.000000  1.000000
 FoFCou: FMM=F IPFlag=           0 FMFlag=      100000 FMFlg1=        2001
         NFxFlg=           0 DoJE=T BraDBF=F KetDBF=T FulRan=T
         wScrn=  0.000000 ICntrl=       500 IOpCl=  0 I1Cent=   200000004 NGrid=           0
         NMat0=    1 NMatS0=      1 NMatT0=    0 NMatD0=    1 NMtDS0=    0 NMtDT0=    0
 Symmetry not used in FoFCou.
 Harris En= -1659.13349115138    
 JPrj=0 DoOrth=F DoCkMO=F.
 Leave Link  401 at Tue Mar 17 09:54:42 2026, MaxMem=   104857600 cpu:              34.1 elap:              34.1
 (Enter /sw/cluster/pub/apps//g16/l502.exe)
 Two-electron integral symmetry not used.
 Closed shell SCF:
 Using DIIS extrapolation, IDIIS=  1040.
 NGot=   104857600 LenX=   103278856 LenY=   102494746
 Requested convergence on RMS density matrix=1.00D-08 within 128 cycles.
 Requested convergence on MAX density matrix=1.00D-06.
 Requested convergence on             energy=1.00D-06.
 No special actions if energy rises.
 Fock matrices will be formed incrementally for  20 cycles.

 Cycle   1  Pass 1  IDiag  1:
 FoFJK:  IHMeth= 1 ICntrl=       0 DoSepK=F KAlg= 0 I1Cent=           0 FoldK=F
 IRaf= 990000000 NMat=       1 IRICut=       1 DoRegI=T DoRafI=F ISym2E= 0 IDoP0=0 IntGTp=1.
 FoFCou: FMM=T IPFlag=           0 FMFlag=      100000 FMFlg1=        2001
         NFxFlg=           0 DoJE=F BraDBF=F KetDBF=F FulRan=T
         wScrn=  0.000000 ICntrl=         0 IOpCl=  0 I1Cent=           0 NGrid=           0
         NMat0=    1 NMatS0=      1 NMatT0=    0 NMatD0=    1 NMtDS0=    0 NMtDT0=    0
 Symmetry not used in FoFCou.
 FMM levels:  10  Number of levels for PrismC:   9
 E= -1658.22615895335    
 DIIS: error= 1.92D-02 at cycle   1 NSaved=   1.
 NSaved= 1 IEnMin= 1 EnMin= -1658.22615895335     IErMin= 1 ErrMin= 1.92D-02
 ErrMax= 1.92D-02  0.00D+00 EMaxC= 1.00D-01 BMatC= 8.20D-01 BMatP= 8.20D-01
 IDIUse=3 WtCom= 8.08D-01 WtEn= 1.92D-01
 Coeff-Com:  0.100D+01
 Coeff-En:   0.100D+01
 Coeff:      0.100D+01
 Gap=     0.178 Goal=   None    Shift=    0.000
 GapD=    0.178 DampG=1.000 DampE=0.500 DampFc=0.5000 IDamp=-1.
 Damping current iteration by 5.00D-01
 RMSDP=8.75D-02 MaxDP=1.09D+01              OVMax= 1.69D-01

 Cycle   2  Pass 1  IDiag  1:
 RMSU=  3.12D-02    CP:  1.32D+00
 E= -1658.63254542321     Delta-E=       -0.406386469863 Rises=F Damp=T
 DIIS: error= 4.83D-03 at cycle   2 NSaved=   2.
 NSaved= 2 IEnMin= 2 EnMin= -1658.63254542321     IErMin= 2 ErrMin= 4.83D-03
 ErrMax= 4.83D-03  0.00D+00 EMaxC= 1.00D-01 BMatC= 5.20D-02 BMatP= 8.20D-01
 IDIUse=3 WtCom= 9.52D-01 WtEn= 4.83D-02
 Coeff-Com:  0.208D-01 0.979D+00
 Coeff-En:   0.721D-01 0.928D+00
 Coeff:      0.233D-01 0.977D+00
 Gap=     0.227 Goal=   None    Shift=    0.000
 RMSDP=6.52D-02 MaxDP=8.79D+00 DE=-4.06D-01 OVMax= 1.14D-01

 Cycle   3  Pass 1  IDiag  1:
 RMSU=  1.26D-02    CP:  7.08D-01  1.84D-01
 E= -1659.11059819388     Delta-E=       -0.478052770673 Rises=F Damp=F
 DIIS: error= 2.89D-03 at cycle   3 NSaved=   3.
 NSaved= 3 IEnMin= 3 EnMin= -1659.11059819388     IErMin= 3 ErrMin= 2.89D-03
 ErrMax= 2.89D-03  0.00D+00 EMaxC= 1.00D-01 BMatC= 2.45D-02 BMatP= 5.20D-02
 IDIUse=3 WtCom= 9.71D-01 WtEn= 2.89D-02
 Coeff-Com: -0.476D-01 0.389D+00 0.659D+00
 Coeff-En:   0.000D+00 0.000D+00 0.100D+01
 Coeff:     -0.462D-01 0.378D+00 0.669D+00
 Gap=     0.184 Goal=   None    Shift=    0.000
 RMSDP=1.33D-02 MaxDP=1.06D+00 DE=-4.78D-01 OVMax= 5.85D-02

 Cycle   4  Pass 1  IDiag  1:
 RMSU=  7.17D-03    CP:  7.93D-01  3.65D-01  5.80D-01
 E= -1659.11393816142     Delta-E=       -0.003339967536 Rises=F Damp=F
 DIIS: error= 4.02D-03 at cycle   4 NSaved=   4.
 NSaved= 4 IEnMin= 4 EnMin= -1659.11393816142     IErMin= 3 ErrMin= 2.89D-03
 ErrMax= 4.02D-03  0.00D+00 EMaxC= 1.00D-01 BMatC= 2.24D-02 BMatP= 2.45D-02
 IDIUse=3 WtCom= 9.60D-01 WtEn= 4.02D-02
 Coeff-Com: -0.401D-01 0.177D+00 0.491D+00 0.372D+00
 Coeff-En:   0.000D+00 0.000D+00 0.472D+00 0.528D+00
 Coeff:     -0.385D-01 0.170D+00 0.490D+00 0.378D+00
 Gap=     0.175 Goal=   None    Shift=    0.000
 RMSDP=4.59D-03 MaxDP=3.73D-01 DE=-3.34D-03 OVMax= 3.57D-02

 Cycle   5  Pass 1  IDiag  1:
 RMSU=  1.97D-03    CP:  7.81D-01  3.41D-01  7.77D-01  5.77D-01
 E= -1659.13693325815     Delta-E=       -0.022995096736 Rises=F Damp=F
 DIIS: error= 8.04D-04 at cycle   5 NSaved=   5.
 NSaved= 5 IEnMin= 5 EnMin= -1659.13693325815     IErMin= 5 ErrMin= 8.04D-04
 ErrMax= 8.04D-04  0.00D+00 EMaxC= 1.00D-01 BMatC= 8.95D-04 BMatP= 2.24D-02
 IDIUse=3 WtCom= 9.92D-01 WtEn= 8.04D-03
 Coeff-Com: -0.147D-01 0.409D-01 0.170D+00 0.208D+00 0.595D+00
 Coeff-En:   0.000D+00 0.000D+00 0.000D+00 0.355D-03 0.100D+01
 Coeff:     -0.146D-01 0.406D-01 0.168D+00 0.207D+00 0.599D+00
 Gap=     0.175 Goal=   None    Shift=    0.000
 RMSDP=9.48D-04 MaxDP=6.96D-02 DE=-2.30D-02 OVMax= 8.79D-03

 Cycle   6  Pass 1  IDiag  1:
 RMSU=  6.66D-04    CP:  7.77D-01  3.38D-01  7.78D-01  5.80D-01  7.04D-01
 E= -1659.13770756170     Delta-E=       -0.000774303542 Rises=F Damp=F
 DIIS: error= 3.09D-04 at cycle   6 NSaved=   6.
 NSaved= 6 IEnMin= 6 EnMin= -1659.13770756170     IErMin= 6 ErrMin= 3.09D-04
 ErrMax= 3.09D-04  0.00D+00 EMaxC= 1.00D-01 BMatC= 1.71D-04 BMatP= 8.95D-04
 IDIUse=3 WtCom= 9.97D-01 WtEn= 3.09D-03
 Coeff-Com: -0.609D-02 0.116D-01 0.662D-01 0.991D-01 0.390D+00 0.439D+00
 Coeff-En:   0.000D+00 0.000D+00 0.000D+00 0.000D+00 0.172D+00 0.828D+00
 Coeff:     -0.607D-02 0.115D-01 0.660D-01 0.988D-01 0.390D+00 0.440D+00
 Gap=     0.175 Goal=   None    Shift=    0.000
 RMSDP=3.49D-04 MaxDP=2.26D-02 DE=-7.74D-04 OVMax= 3.50D-03

 Cycle   7  Pass 1  IDiag  1:
 RMSU=  1.84D-04    CP:  7.77D-01  3.37D-01  7.81D-01  5.84D-01  7.61D-01
                    CP:  5.96D-01
 E= -1659.13789374761     Delta-E=       -0.000186185912 Rises=F Damp=F
 DIIS: error= 7.61D-05 at cycle   7 NSaved=   7.
 NSaved= 7 IEnMin= 7 EnMin= -1659.13789374761     IErMin= 7 ErrMin= 7.61D-05
 ErrMax= 7.61D-05  0.00D+00 EMaxC= 1.00D-01 BMatC= 9.61D-06 BMatP= 1.71D-04
 IDIUse=1 WtCom= 1.00D+00 WtEn= 0.00D+00
 Coeff-Com: -0.269D-02 0.415D-02 0.283D-01 0.457D-01 0.197D+00 0.267D+00
 Coeff-Com:  0.461D+00
 Coeff:     -0.269D-02 0.415D-02 0.283D-01 0.457D-01 0.197D+00 0.267D+00
 Coeff:      0.461D+00
 Gap=     0.175 Goal=   None    Shift=    0.000
 RMSDP=9.97D-05 MaxDP=8.22D-03 DE=-1.86D-04 OVMax= 9.85D-04

 Cycle   8  Pass 1  IDiag  1:
 RMSU=  6.83D-05    CP:  7.77D-01  3.37D-01  7.82D-01  5.87D-01  7.67D-01
                    CP:  5.98D-01  6.40D-01
 E= -1659.13790346649     Delta-E=       -0.000009718878 Rises=F Damp=F
 DIIS: error= 2.53D-05 at cycle   8 NSaved=   8.
 NSaved= 8 IEnMin= 8 EnMin= -1659.13790346649     IErMin= 8 ErrMin= 2.53D-05
 ErrMax= 2.53D-05  0.00D+00 EMaxC= 1.00D-01 BMatC= 8.94D-07 BMatP= 9.61D-06
 IDIUse=1 WtCom= 1.00D+00 WtEn= 0.00D+00
 Coeff-Com: -0.678D-03 0.753D-03 0.669D-02 0.122D-01 0.564D-01 0.904D-01
 Coeff-Com:  0.266D+00 0.568D+00
 Coeff:     -0.678D-03 0.753D-03 0.669D-02 0.122D-01 0.564D-01 0.904D-01
 Coeff:      0.266D+00 0.568D+00
 Gap=     0.175 Goal=   None    Shift=    0.000
 RMSDP=2.69D-05 MaxDP=2.67D-03 DE=-9.72D-06 OVMax= 3.00D-04

 Cycle   9  Pass 1  IDiag  1:
 RMSU=  2.12D-05    CP:  7.77D-01  3.37D-01  7.82D-01  5.87D-01  7.69D-01
                    CP:  5.92D-01  6.30D-01  8.88D-01
 E= -1659.13790431822     Delta-E=       -0.000000851730 Rises=F Damp=F
 DIIS: error= 1.03D-05 at cycle   9 NSaved=   9.
 NSaved= 9 IEnMin= 9 EnMin= -1659.13790431822     IErMin= 9 ErrMin= 1.03D-05
 ErrMax= 1.03D-05  0.00D+00 EMaxC= 1.00D-01 BMatC= 1.42D-07 BMatP= 8.94D-07
 IDIUse=1 WtCom= 1.00D+00 WtEn= 0.00D+00
 Coeff-Com: -0.122D-03 0.138D-04 0.879D-03 0.246D-02 0.123D-01 0.256D-01
 Coeff-Com:  0.110D+00 0.348D+00 0.501D+00
 Coeff:     -0.122D-03 0.138D-04 0.879D-03 0.246D-02 0.123D-01 0.256D-01
 Coeff:      0.110D+00 0.348D+00 0.501D+00
 Gap=     0.175 Goal=   None    Shift=    0.000
 RMSDP=1.24D-05 MaxDP=7.70D-04 DE=-8.52D-07 OVMax= 1.12D-04

 Cycle  10  Pass 1  IDiag  1:
 RMSU=  5.25D-06    CP:  7.77D-01  3.37D-01  7.82D-01  5.87D-01  7.67D-01
                    CP:  5.98D-01  6.44D-01  8.47D-01  6.42D-01
 E= -1659.13790446929     Delta-E=       -0.000000151071 Rises=F Damp=F
 DIIS: error= 1.93D-06 at cycle  10 NSaved=  10.
 NSaved=10 IEnMin=10 EnMin= -1659.13790446929     IErMin=10 ErrMin= 1.93D-06
 ErrMax= 1.93D-06  0.00D+00 EMaxC= 1.00D-01 BMatC= 1.04D-08 BMatP= 1.42D-07
 IDIUse=1 WtCom= 1.00D+00 WtEn= 0.00D+00
 Coeff-Com:  0.619D-05-0.751D-04-0.307D-03 0.175D-04 0.313D-03 0.361D-02
 Coeff-Com:  0.274D-01 0.119D+00 0.268D+00 0.582D+00
 Coeff:      0.619D-05-0.751D-04-0.307D-03 0.175D-04 0.313D-03 0.361D-02
 Coeff:      0.274D-01 0.119D+00 0.268D+00 0.582D+00
 Gap=     0.175 Goal=   None    Shift=    0.000
 RMSDP=2.67D-06 MaxDP=2.77D-04 DE=-1.51D-07 OVMax= 2.83D-05

 Cycle  11  Pass 1  IDiag  1:
 RMSU=  1.68D-06    CP:  7.77D-01  3.37D-01  7.82D-01  5.87D-01  7.68D-01
                    CP:  5.99D-01  6.50D-01  8.37D-01  6.33D-01  8.29D-01
 E= -1659.13790447967     Delta-E=       -0.000000010381 Rises=F Damp=F
 DIIS: error= 7.29D-07 at cycle  11 NSaved=  11.
 NSaved=11 IEnMin=11 EnMin= -1659.13790447967     IErMin=11 ErrMin= 7.29D-07
 ErrMax= 7.29D-07  0.00D+00 EMaxC= 1.00D-01 BMatC= 1.17D-09 BMatP= 1.04D-08
 IDIUse=1 WtCom= 1.00D+00 WtEn= 0.00D+00
 Coeff-Com:  0.118D-04-0.330D-04-0.241D-03-0.197D-03-0.955D-03-0.484D-03
 Coeff-Com:  0.374D-02 0.292D-01 0.951D-01 0.317D+00 0.557D+00
 Coeff:      0.118D-04-0.330D-04-0.241D-03-0.197D-03-0.955D-03-0.484D-03
 Coeff:      0.374D-02 0.292D-01 0.951D-01 0.317D+00 0.557D+00
 Gap=     0.175 Goal=   None    Shift=    0.000
 RMSDP=1.02D-06 MaxDP=5.63D-05 DE=-1.04D-08 OVMax= 8.12D-06

 Cycle  12  Pass 1  IDiag  1:
 RMSU=  3.99D-07    CP:  7.77D-01  3.37D-01  7.82D-01  5.87D-01  7.67D-01
                    CP:  5.98D-01  6.49D-01  8.45D-01  6.44D-01  8.38D-01
                    CP:  7.78D-01
 E= -1659.13790448067     Delta-E=       -0.000000001004 Rises=F Damp=F
 DIIS: error= 1.83D-07 at cycle  12 NSaved=  12.
 NSaved=12 IEnMin=12 EnMin= -1659.13790448067     IErMin=12 ErrMin= 1.83D-07
 ErrMax= 1.83D-07  0.00D+00 EMaxC= 1.00D-01 BMatC= 8.26D-11 BMatP= 1.17D-09
 IDIUse=1 WtCom= 1.00D+00 WtEn= 0.00D+00
 Coeff-Com:  0.468D-05-0.104D-04-0.999D-04-0.928D-04-0.471D-03-0.423D-03
 Coeff-Com:  0.178D-03 0.741D-02 0.318D-01 0.126D+00 0.291D+00 0.545D+00
 Coeff:      0.468D-05-0.104D-04-0.999D-04-0.928D-04-0.471D-03-0.423D-03
 Coeff:      0.178D-03 0.741D-02 0.318D-01 0.126D+00 0.291D+00 0.545D+00
 Gap=     0.175 Goal=   None    Shift=    0.000
 RMSDP=2.43D-07 MaxDP=1.29D-05 DE=-1.00D-09 OVMax= 2.07D-06

 Cycle  13  Pass 1  IDiag  1:
 RMSU=  1.67D-07    CP:  7.77D-01  3.37D-01  7.82D-01  5.87D-01  7.68D-01
                    CP:  5.98D-01  6.48D-01  8.46D-01  6.48D-01  8.33D-01
                    CP:  7.76D-01  8.14D-01
 E= -1659.13790448090     Delta-E=       -0.000000000226 Rises=F Damp=F
 DIIS: error= 8.55D-08 at cycle  13 NSaved=  13.
 NSaved=13 IEnMin=13 EnMin= -1659.13790448090     IErMin=13 ErrMin= 8.55D-08
 ErrMax= 8.55D-08  0.00D+00 EMaxC= 1.00D-01 BMatC= 9.90D-12 BMatP= 8.26D-11
 IDIUse=1 WtCom= 1.00D+00 WtEn= 0.00D+00
 Coeff-Com:  0.140D-05-0.247D-05-0.319D-04-0.334D-04-0.166D-03-0.185D-03
 Coeff-Com: -0.338D-03 0.982D-03 0.740D-02 0.354D-01 0.991D-01 0.304D+00
 Coeff-Com:  0.554D+00
 Coeff:      0.140D-05-0.247D-05-0.319D-04-0.334D-04-0.166D-03-0.185D-03
 Coeff:     -0.338D-03 0.982D-03 0.740D-02 0.354D-01 0.991D-01 0.304D+00
 Coeff:      0.554D+00
 Gap=     0.175 Goal=   None    Shift=    0.000
 RMSDP=1.06D-07 MaxDP=9.64D-06 DE=-2.26D-10 OVMax= 8.15D-07

 Cycle  14  Pass 1  IDiag  1:
 RMSU=  4.90D-08    CP:  7.77D-01  3.37D-01  7.82D-01  5.87D-01  7.68D-01
                    CP:  5.98D-01  6.48D-01  8.45D-01  6.48D-01  8.39D-01
                    CP:  7.81D-01  7.91D-01  6.67D-01
 E= -1659.13790448073     Delta-E=        0.000000000168 Rises=F Damp=F
 DIIS: error= 3.58D-08 at cycle  14 NSaved=  14.
 NSaved=14 IEnMin=13 EnMin= -1659.13790448090     IErMin=14 ErrMin= 3.58D-08
 ErrMax= 3.58D-08  0.00D+00 EMaxC= 1.00D-01 BMatC= 1.87D-12 BMatP= 9.90D-12
 IDIUse=1 WtCom= 1.00D+00 WtEn= 0.00D+00
 Coeff-Com:  0.259D-06-0.150D-06-0.692D-05-0.914D-05-0.441D-04-0.618D-04
 Coeff-Com: -0.261D-03-0.420D-03 0.300D-03 0.518D-02 0.224D-01 0.121D+00
 Coeff-Com:  0.350D+00 0.501D+00
 Coeff:      0.259D-06-0.150D-06-0.692D-05-0.914D-05-0.441D-04-0.618D-04
 Coeff:     -0.261D-03-0.420D-03 0.300D-03 0.518D-02 0.224D-01 0.121D+00
 Coeff:      0.350D+00 0.501D+00
 Gap=     0.175 Goal=   None    Shift=    0.000
 RMSDP=3.48D-08 MaxDP=1.85D-06 DE= 1.68D-10 OVMax= 3.21D-07

 Cycle  15  Pass 1  IDiag  1:
 RMSU=  1.90D-08    CP:  7.77D-01  3.37D-01  7.82D-01  5.87D-01  7.68D-01
                    CP:  5.98D-01  6.48D-01  8.45D-01  6.48D-01  8.39D-01
                    CP:  7.85D-01  8.11D-01  7.11D-01  6.55D-01
 E= -1659.13790448076     Delta-E=       -0.000000000029 Rises=F Damp=F
 DIIS: error= 7.85D-09 at cycle  15 NSaved=  15.
 NSaved=15 IEnMin=13 EnMin= -1659.13790448090     IErMin=15 ErrMin= 7.85D-09
 ErrMax= 7.85D-09  0.00D+00 EMaxC= 1.00D-01 BMatC= 1.10D-13 BMatP= 1.87D-12
 IDIUse=1 WtCom= 1.00D+00 WtEn= 0.00D+00
 Coeff-Com: -0.396D-07 0.230D-06 0.497D-06-0.519D-06-0.150D-05-0.650D-05
 Coeff-Com: -0.816D-04-0.298D-03-0.725D-03-0.183D-02-0.198D-02 0.210D-01
 Coeff-Com:  0.973D-01 0.241D+00 0.645D+00
 Coeff:     -0.396D-07 0.230D-06 0.497D-06-0.519D-06-0.150D-05-0.650D-05
 Coeff:     -0.816D-04-0.298D-03-0.725D-03-0.183D-02-0.198D-02 0.210D-01
 Coeff:      0.973D-01 0.241D+00 0.645D+00
 Gap=     0.175 Goal=   None    Shift=    0.000
 RMSDP=1.52D-08 MaxDP=1.84D-06 DE=-2.91D-11 OVMax= 1.03D-07

 Cycle  16  Pass 1  IDiag  1:
 RMSU=  7.79D-09    CP:  7.77D-01  3.37D-01  7.82D-01  5.87D-01  7.68D-01
                    CP:  5.98D-01  6.48D-01  8.45D-01  6.48D-01  8.38D-01
                    CP:  7.85D-01  8.20D-01  7.20D-01  6.63D-01  7.91D-01
 E= -1659.13790448065     Delta-E=        0.000000000106 Rises=F Damp=F
 DIIS: error= 3.04D-09 at cycle  16 NSaved=  16.
 NSaved=16 IEnMin=13 EnMin= -1659.13790448090     IErMin=16 ErrMin= 3.04D-09
 ErrMax= 3.04D-09  0.00D+00 EMaxC= 1.00D-01 BMatC= 2.87D-14 BMatP= 1.10D-13
 IDIUse=1 WtCom= 1.00D+00 WtEn= 0.00D+00
 Coeff-Com: -0.542D-07 0.149D-06 0.124D-05 0.895D-06 0.489D-05 0.395D-05
 Coeff-Com: -0.148D-04-0.127D-03-0.491D-03-0.187D-02-0.435D-02-0.379D-02
 Coeff-Com:  0.106D-01 0.766D-01 0.397D+00 0.527D+00
 Coeff:     -0.542D-07 0.149D-06 0.124D-05 0.895D-06 0.489D-05 0.395D-05
 Coeff:     -0.148D-04-0.127D-03-0.491D-03-0.187D-02-0.435D-02-0.379D-02
 Coeff:      0.106D-01 0.766D-01 0.397D+00 0.527D+00
 Gap=     0.175 Goal=   None    Shift=    0.000
 RMSDP=3.56D-09 MaxDP=1.99D-07 DE= 1.06D-10 OVMax= 4.48D-08

 SCF Done:  E(RB3LYP) =  -1659.13790448     A.U. after   16 cycles
            NFock= 16  Conv=0.36D-08     -V/T= 2.0097
 KE= 1.643203762842D+03 PE=-1.413293121524D+04 EE= 5.684007643081D+03
 Leave Link  502 at Tue Mar 17 10:47:21 2026, MaxMem=   104857600 cpu:            3154.5 elap:            3158.4
 (Enter /sw/cluster/pub/apps//g16/l601.exe)
 Copying SCF densities to generalized density rwf, IOpCl= 0 IROHF=0.

 **********************************************************************

            Population analysis using the SCF density.

 **********************************************************************

 Alpha  occ. eigenvalues --  -10.21746 -10.21548 -10.21548 -10.20119 -10.20119
 Alpha  occ. eigenvalues --  -10.19492 -10.19492 -10.19438 -10.19438 -10.19423
 Alpha  occ. eigenvalues --  -10.19423 -10.19396 -10.19396 -10.19332 -10.19332
 Alpha  occ. eigenvalues --  -10.19316 -10.19316 -10.19249 -10.19249 -10.19118
 Alpha  occ. eigenvalues --  -10.19117 -10.19073 -10.19048 -10.19048 -10.19047
 Alpha  occ. eigenvalues --  -10.19021 -10.19021 -10.18998 -10.18994 -10.18994
 Alpha  occ. eigenvalues --  -10.18991 -10.18922 -10.18922 -10.18882 -10.18881
 Alpha  occ. eigenvalues --  -10.18881 -10.18881 -10.18844 -10.18844 -10.18764
 Alpha  occ. eigenvalues --  -10.18764 -10.18586 -10.18585  -0.89560  -0.88982
 Alpha  occ. eigenvalues --   -0.88274  -0.84442  -0.84374  -0.84131  -0.82630
 Alpha  occ. eigenvalues --   -0.81331  -0.79865  -0.77811  -0.77498  -0.76677
 Alpha  occ. eigenvalues --   -0.74435  -0.74306  -0.74079  -0.74014  -0.73368
 Alpha  occ. eigenvalues --   -0.71766  -0.71396  -0.71395  -0.71190  -0.68045
 Alpha  occ. eigenvalues --   -0.65064  -0.64641  -0.64488  -0.62775  -0.62189
 Alpha  occ. eigenvalues --   -0.62096  -0.58607  -0.58478  -0.58223  -0.57629
 Alpha  occ. eigenvalues --   -0.57587  -0.57478  -0.57307  -0.55546  -0.55197
 Alpha  occ. eigenvalues --   -0.51600  -0.50940  -0.50797  -0.50054  -0.49581
 Alpha  occ. eigenvalues --   -0.49090  -0.47915  -0.47135  -0.46654  -0.45748
 Alpha  occ. eigenvalues --   -0.45650  -0.45252  -0.44964  -0.44442  -0.44389
 Alpha  occ. eigenvalues --   -0.43967  -0.43902  -0.43785  -0.43611  -0.43010
 Alpha  occ. eigenvalues --   -0.42355  -0.42070  -0.41882  -0.41800  -0.41764
 Alpha  occ. eigenvalues --   -0.41706  -0.41308  -0.41160  -0.39226  -0.39105
 Alpha  occ. eigenvalues --   -0.38578  -0.38516  -0.38290  -0.38249  -0.38144
 Alpha  occ. eigenvalues --   -0.37534  -0.37465  -0.36452  -0.35593  -0.35277
 Alpha  occ. eigenvalues --   -0.35028  -0.35001  -0.34788  -0.34678  -0.34464
 Alpha  occ. eigenvalues --   -0.34214  -0.33981  -0.33072  -0.32998  -0.32536
 Alpha  occ. eigenvalues --   -0.32120  -0.31928  -0.31666  -0.31292  -0.28236
 Alpha  occ. eigenvalues --   -0.28157  -0.27951  -0.25579  -0.25521  -0.24920
 Alpha  occ. eigenvalues --   -0.24602  -0.24384  -0.23099  -0.21654  -0.21571
 Alpha  occ. eigenvalues --   -0.21193
 Alpha virt. eigenvalues --   -0.03736  -0.03716  -0.03458  -0.02246  -0.01927
 Alpha virt. eigenvalues --   -0.01506  -0.01021   0.00031   0.00120   0.00267
 Alpha virt. eigenvalues --    0.00301   0.00453   0.00808   0.01446   0.01582
 Alpha virt. eigenvalues --    0.01854   0.02135   0.02411   0.02873   0.02957
 Alpha virt. eigenvalues --    0.03169   0.03179   0.03398   0.03581   0.03678
 Alpha virt. eigenvalues --    0.04227   0.04311   0.04790   0.04961   0.05097
 Alpha virt. eigenvalues --    0.05474   0.05662   0.05953   0.06554   0.06680
 Alpha virt. eigenvalues --    0.06687   0.06740   0.07323   0.07486   0.07587
 Alpha virt. eigenvalues --    0.07856   0.08080   0.08304   0.08849   0.09223
 Alpha virt. eigenvalues --    0.09320   0.09693   0.09835   0.10275   0.10429
 Alpha virt. eigenvalues --    0.10576   0.10720   0.11051   0.11082   0.11484
 Alpha virt. eigenvalues --    0.11604   0.11768   0.11963   0.12122   0.12576
 Alpha virt. eigenvalues --    0.12593   0.12999   0.13106   0.13153   0.13443
 Alpha virt. eigenvalues --    0.13622   0.14199   0.14313   0.14455   0.14871
 Alpha virt. eigenvalues --    0.14922   0.15298   0.15351   0.15457   0.15699
 Alpha virt. eigenvalues --    0.15826   0.16070   0.16353   0.16658   0.16758
 Alpha virt. eigenvalues --    0.16796   0.16915   0.16983   0.17314   0.17491
 Alpha virt. eigenvalues --    0.17724   0.17817   0.18006   0.18239   0.18385
 Alpha virt. eigenvalues --    0.18535   0.18579   0.18770   0.18983   0.19012
 Alpha virt. eigenvalues --    0.19194   0.19254   0.19346   0.19466   0.19484
 Alpha virt. eigenvalues --    0.19788   0.19844   0.20025   0.20284   0.20502
 Alpha virt. eigenvalues --    0.20554   0.20738   0.20842   0.21132   0.21304
 Alpha virt. eigenvalues --    0.21341   0.21564   0.21778   0.21824   0.21971
 Alpha virt. eigenvalues --    0.22173   0.22218   0.22489   0.22552   0.22753
 Alpha virt. eigenvalues --    0.22839   0.22841   0.23037   0.23367   0.23520
 Alpha virt. eigenvalues --    0.23541   0.23732   0.24000   0.24117   0.24257
 Alpha virt. eigenvalues --    0.24387   0.24589   0.24706   0.24932   0.25215
 Alpha virt. eigenvalues --    0.25640   0.25733   0.25735   0.26038   0.26046
 Alpha virt. eigenvalues --    0.26227   0.26348   0.26562   0.26566   0.26838
 Alpha virt. eigenvalues --    0.26853   0.27452   0.27459   0.27657   0.27698
 Alpha virt. eigenvalues --    0.27783   0.27926   0.28010   0.28235   0.28610
 Alpha virt. eigenvalues --    0.28714   0.28753   0.29094   0.29196   0.29308
 Alpha virt. eigenvalues --    0.29541   0.29856   0.29969   0.30119   0.30298
 Alpha virt. eigenvalues --    0.30510   0.30631   0.31035   0.31077   0.31173
 Alpha virt. eigenvalues --    0.31540   0.31674   0.31741   0.32037   0.32358
 Alpha virt. eigenvalues --    0.32566   0.32581   0.33017   0.33066   0.33119
 Alpha virt. eigenvalues --    0.33249   0.33257   0.33848   0.34290   0.34385
 Alpha virt. eigenvalues --    0.34622   0.34736   0.34750   0.34893   0.35093
 Alpha virt. eigenvalues --    0.35357   0.35697   0.35709   0.36220   0.36278
 Alpha virt. eigenvalues --    0.36550   0.36611   0.36688   0.37039   0.37073
 Alpha virt. eigenvalues --    0.37720   0.38070   0.38284   0.38449   0.38531
 Alpha virt. eigenvalues --    0.38603   0.38735   0.38916   0.38980   0.39131
 Alpha virt. eigenvalues --    0.39679   0.39939   0.40113   0.40512   0.40770
 Alpha virt. eigenvalues --    0.41064   0.41468   0.41737   0.42304   0.42460
 Alpha virt. eigenvalues --    0.42818   0.42915   0.43937   0.44373   0.44621
 Alpha virt. eigenvalues --    0.44908   0.45389   0.45823   0.46174   0.46368
 Alpha virt. eigenvalues --    0.47062   0.47472   0.47627   0.47670   0.49200
 Alpha virt. eigenvalues --    0.49428   0.50523   0.51010   0.51867   0.52136
 Alpha virt. eigenvalues --    0.53227   0.53374   0.54101   0.57041   0.58056
 Alpha virt. eigenvalues --    0.58182   0.58753   0.62759   0.62880   0.63201
 Alpha virt. eigenvalues --    0.63379   0.63597   0.63922   0.63944   0.65204
 Alpha virt. eigenvalues --    0.65639   0.70258   0.70400   0.70726   0.71235
 Alpha virt. eigenvalues --    0.71442   0.72102   0.72433   0.72995   0.73115
 Alpha virt. eigenvalues --    0.73365   0.73461   0.73818   0.73841   0.74386
 Alpha virt. eigenvalues --    0.74596   0.74610   0.75346   0.75901   0.75972
 Alpha virt. eigenvalues --    0.76509   0.76589   0.77044   0.77114   0.77786
 Alpha virt. eigenvalues --    0.78143   0.78188   0.78231   0.78449   0.78514
 Alpha virt. eigenvalues --    0.78923   0.79219   0.79367   0.79417   0.80234
 Alpha virt. eigenvalues --    0.80553   0.80821   0.80882   0.81247   0.81452
 Alpha virt. eigenvalues --    0.82148   0.82481   0.82921   0.83135   0.83902
 Alpha virt. eigenvalues --    0.84222   0.84816   0.85090   0.85477   0.86029
 Alpha virt. eigenvalues --    0.86207   0.86656   0.87038   0.87041   0.87305
 Alpha virt. eigenvalues --    0.88119   0.88281   0.88288   0.89128   0.89517
 Alpha virt. eigenvalues --    0.89752   0.90001   0.90273   0.90368   0.91066
 Alpha virt. eigenvalues --    0.91723   0.92040   0.92213   0.92721   0.93014
 Alpha virt. eigenvalues --    0.93242   0.93249   0.93572   0.94213   0.94491
 Alpha virt. eigenvalues --    0.94934   0.95605   0.95767   0.95957   0.96388
 Alpha virt. eigenvalues --    0.96525   0.96637   0.96967   0.97020   0.97483
 Alpha virt. eigenvalues --    0.97729   0.97769   0.98366   0.98432   0.99128
 Alpha virt. eigenvalues --    0.99736   0.99866   0.99909   1.00340   1.01030
 Alpha virt. eigenvalues --    1.01433   1.01664   1.02162   1.02222   1.02284
 Alpha virt. eigenvalues --    1.03075   1.03723   1.03785   1.04067   1.04663
 Alpha virt. eigenvalues --    1.04800   1.05042   1.05630   1.05978   1.06151
 Alpha virt. eigenvalues --    1.06820   1.07109   1.08849   1.08867   1.09408
 Alpha virt. eigenvalues --    1.09803   1.10630   1.11198   1.11590   1.12500
 Alpha virt. eigenvalues --    1.12805   1.13809   1.14505   1.14912   1.15500
 Alpha virt. eigenvalues --    1.15896   1.16203   1.16796   1.17102   1.17371
 Alpha virt. eigenvalues --    1.17555   1.18204   1.18434   1.18548   1.19766
 Alpha virt. eigenvalues --    1.20139   1.20254   1.20908   1.21614   1.22054
 Alpha virt. eigenvalues --    1.22342   1.22947   1.23426   1.23529   1.24214
 Alpha virt. eigenvalues --    1.24397   1.24636   1.25185   1.26164   1.26506
 Alpha virt. eigenvalues --    1.27131   1.27469   1.27606   1.28245   1.28474
 Alpha virt. eigenvalues --    1.28959   1.29598   1.29881   1.30200   1.30452
 Alpha virt. eigenvalues --    1.32513   1.32844   1.33000   1.34534   1.35029
 Alpha virt. eigenvalues --    1.35721   1.35990   1.36823   1.37087   1.37712
 Alpha virt. eigenvalues --    1.38084   1.38973   1.38986   1.40044   1.40787
 Alpha virt. eigenvalues --    1.41978   1.42758   1.42759   1.43226   1.43452
 Alpha virt. eigenvalues --    1.44388   1.44602   1.45479   1.45681   1.46091
 Alpha virt. eigenvalues --    1.46142   1.46817   1.47379   1.47737   1.47795
 Alpha virt. eigenvalues --    1.48068   1.49112   1.49126   1.49756   1.49807
 Alpha virt. eigenvalues --    1.49980   1.50037   1.50448   1.51295   1.51398
 Alpha virt. eigenvalues --    1.51961   1.52120   1.52572   1.52717   1.53185
 Alpha virt. eigenvalues --    1.53248   1.54301   1.54804   1.55957   1.56108
 Alpha virt. eigenvalues --    1.56436   1.58515   1.58828   1.59821   1.59865
 Alpha virt. eigenvalues --    1.60685   1.61280   1.62948   1.63222   1.65144
 Alpha virt. eigenvalues --    1.66174   1.66587   1.67706   1.68285   1.71093
 Alpha virt. eigenvalues --    1.71487   1.71655   1.73541   1.74642   1.75689
 Alpha virt. eigenvalues --    1.77644   1.78586   1.79539   1.80524   1.80565
 Alpha virt. eigenvalues --    1.81273   1.81813   1.82445   1.82743   1.82828
 Alpha virt. eigenvalues --    1.83314   1.84330   1.84537   1.85011   1.85942
 Alpha virt. eigenvalues --    1.87302   1.87980   1.87997   1.88868   1.89709
 Alpha virt. eigenvalues --    1.89957   1.90266   1.91940   1.92307   1.92874
 Alpha virt. eigenvalues --    1.93000   1.93331   1.94951   1.95484   1.95559
 Alpha virt. eigenvalues --    1.96225   1.96350   1.98165   1.98172   1.99317
 Alpha virt. eigenvalues --    2.00554   2.00668   2.00993   2.01753   2.02152
 Alpha virt. eigenvalues --    2.02253   2.03069   2.03778   2.04084   2.04939
 Alpha virt. eigenvalues --    2.05503   2.06048   2.07102   2.07229   2.07800
 Alpha virt. eigenvalues --    2.08986   2.09127   2.09509   2.09535   2.10074
 Alpha virt. eigenvalues --    2.10101   2.10786   2.11407   2.12196   2.12867
 Alpha virt. eigenvalues --    2.13937   2.14091   2.15869   2.15870   2.16004
 Alpha virt. eigenvalues --    2.16938   2.17500   2.18158   2.18872   2.18998
 Alpha virt. eigenvalues --    2.19414   2.19673   2.20913   2.21642   2.21900
 Alpha virt. eigenvalues --    2.22216   2.22559   2.22634   2.24276   2.24460
 Alpha virt. eigenvalues --    2.25870   2.25932   2.26452   2.26488   2.26629
 Alpha virt. eigenvalues --    2.27748   2.27841   2.28713   2.29682   2.30138
 Alpha virt. eigenvalues --    2.30173   2.30229   2.30723   2.31781   2.31976
 Alpha virt. eigenvalues --    2.32051   2.32514   2.33015   2.33252   2.33997
 Alpha virt. eigenvalues --    2.34612   2.35151   2.36744   2.37784   2.37839
 Alpha virt. eigenvalues --    2.38837   2.40037   2.41198   2.41911   2.42135
 Alpha virt. eigenvalues --    2.42928   2.43547   2.44315   2.44725   2.45487
 Alpha virt. eigenvalues --    2.47237   2.47649   2.49882   2.52665   2.54444
 Alpha virt. eigenvalues --    2.54564   2.56381   2.56847   2.57021   2.58276
 Alpha virt. eigenvalues --    2.59058   2.61368   2.61540   2.62079   2.62603
 Alpha virt. eigenvalues --    2.63169   2.63212   2.64064   2.64202   2.65505
 Alpha virt. eigenvalues --    2.68749   2.69005   2.69757   2.69894   2.70207
 Alpha virt. eigenvalues --    2.70831   2.71326   2.72508   2.73230   2.73933
 Alpha virt. eigenvalues --    2.73935   2.74859   2.75547   2.75940   2.76595
 Alpha virt. eigenvalues --    2.76748   2.77036   2.77637   2.78319   2.78988
 Alpha virt. eigenvalues --    2.79090   2.79397   2.81797   2.82079   2.83891
 Alpha virt. eigenvalues --    2.84367   2.84579   2.85324   2.86776   2.87468
 Alpha virt. eigenvalues --    2.88116   2.89104   2.89719   2.91086   2.91676
 Alpha virt. eigenvalues --    2.96606   2.97470   2.98635   3.00256   3.02973
 Alpha virt. eigenvalues --    3.03769   3.05288   3.05997   3.07159   3.08395
 Alpha virt. eigenvalues --    3.13499   3.14879   3.16340   3.29778   3.30103
 Alpha virt. eigenvalues --    3.31927   3.35054   3.35074   3.36128   3.50604
 Alpha virt. eigenvalues --    3.50645   3.51654   4.31569   4.32465   4.34332
 Alpha virt. eigenvalues --    4.34918   4.36372   4.36910   4.37039   4.37692
 Alpha virt. eigenvalues --    4.38801   4.40961   4.40989   4.41701   4.41953
 Alpha virt. eigenvalues --    4.42384   4.44217   4.44517   4.44763   4.45996
 Alpha virt. eigenvalues --    4.46530   4.47303   4.49124   4.49670   4.51167
 Alpha virt. eigenvalues --    4.51248   4.54001   4.55133   4.56703   4.58633
 Alpha virt. eigenvalues --    4.60182   4.61042   4.64876   4.67439   4.69767
 Alpha virt. eigenvalues --    4.73565   4.76683   4.77913   4.84104   4.84789
 Alpha virt. eigenvalues --    4.87218   4.89331   4.94489   4.96740   5.03849
          Condensed to atoms (all electrons):
 Mulliken charges:
               1
     1  C   -1.103863
     2  C   -0.415301
     3  H    0.233617
     4  H    0.232876
     5  C   -0.415037
     6  H    0.228136
     7  H    0.233633
     8  H    0.228556
     9  H    0.235271
    10  H    0.232888
    11  C   -0.257326
    12  C   -0.100631
    13  C   -0.017483
    14  C    0.348340
    15  C    0.309010
    16  C    0.205641
    17  C    0.205088
    18  C    0.348573
    19  C    0.309184
    20  C   -0.101055
    21  C   -0.017646
    22  C   -0.256460
    23  C   -0.059292
    24  C    0.076773
    25  C   -0.125339
    26  C   -0.315539
    27  C   -0.344956
    28  C   -0.382065
    29  C   -0.477817
    30  C   -0.433763
    31  C   -0.585099
    32  C    0.061443
    33  C   -0.075083
    34  C   -0.164161
    35  H    0.176452
    36  H    0.175118
    37  H    0.175178
    38  H    0.174894
    39  H    0.176587
    40  H    0.176303
    41  H    0.176077
    42  H    0.174604
    43  H    0.174496
    44  H    0.191599
    45  H    0.177234
    46  H    0.192065
    47  C    0.060675
    48  C   -0.164018
    49  C   -0.074937
    50  C   -0.584814
    51  C   -0.477794
    52  C   -0.433709
    53  C   -0.315693
    54  C   -0.345005
    55  C   -0.381995
    56  C   -0.125859
    57  C    0.076435
    58  C   -0.059231
    59  H    0.177229
    60  H    0.192069
    61  H    0.191594
    62  H    0.176079
    63  H    0.174603
    64  H    0.174498
    65  H    0.174891
    66  H    0.176303
    67  H    0.176589
    68  H    0.175183
    69  H    0.176452
    70  H    0.175114
    71  C    0.176910
    72  C   -0.170927
    73  C    0.176589
    74  C   -0.170905
    75  H    0.228135
    76  H    0.228553
    77  H    0.235268
 Sum of Mulliken charges =  -0.00000
 Mulliken charges with hydrogens summed into heavy atoms:
               1
     1  C   -1.103863
     2  C   -0.415301
     5  C   -0.415037
    11  C   -0.257326
    12  C   -0.100631
    13  C   -0.017483
    14  C    0.348340
    15  C    0.309010
    16  C    0.205641
    17  C    0.205088
    18  C    0.348573
    19  C    0.309184
    20  C   -0.101055
    21  C   -0.017646
    22  C   -0.256460
    23  C    0.132307
    24  C    0.268838
    25  C    0.051896
    26  C   -0.139462
    27  C   -0.170352
    28  C   -0.207570
    29  C   -0.301514
    30  C   -0.257176
    31  C   -0.410205
    32  C    0.236621
    33  C    0.100035
    34  C    0.012291
    47  C    0.235859
    48  C    0.012433
    49  C    0.100176
    50  C   -0.409923
    51  C   -0.301491
    52  C   -0.257120
    53  C   -0.139613
    54  C   -0.170402
    55  C   -0.207497
    56  C    0.051370
    57  C    0.268503
    58  C    0.132363
    71  C    0.643431
    72  C    0.521037
    73  C    0.643082
    74  C    0.521051
 Electronic spatial extent (au):  <R**2>=          17819.8025
 Charge=             -0.0000 electrons
 Dipole moment (field-independent basis, Debye):
    X=              0.3527    Y=             -0.2693    Z=             -0.2048  Tot=              0.4888
 Quadrupole moment (field-independent basis, Debye-Ang):
   XX=           -237.3521   YY=           -238.8697   ZZ=           -261.1280
   XY=              2.8535   XZ=             -7.5902   YZ=              9.8392
 Traceless Quadrupole moment (field-independent basis, Debye-Ang):
   XX=              8.4312   YY=              6.9136   ZZ=            -15.3447
   XY=              2.8535   XZ=             -7.5902   YZ=              9.8392
 Octapole moment (field-independent basis, Debye-Ang**2):
  XXX=            -10.3285  YYY=             35.4802  ZZZ=             51.5580  XYY=            -19.1091
  XXY=              7.3590  XXZ=              0.7999  XZZ=            -28.9010  YZZ=              1.6885
  YYZ=            -18.4843  XYZ=             17.0870
 Hexadecapole moment (field-independent basis, Debye-Ang**3):
 XXXX=          -4968.7504 YYYY=          -9290.9182 ZZZZ=         -10930.4164 XXXY=           -529.6974
 XXXZ=             67.7784 YYYX=           -433.3770 YYYZ=           2475.7879 ZZZX=            -56.9174
 ZZZY=           2735.1003 XXYY=          -2367.0316 XXZZ=          -2618.4378 YYZZ=          -3439.4090
 XXYZ=            767.6667 YYXZ=            -27.5691 ZZXY=           -142.0200
 N-N= 5.146581904838D+03 E-N=-1.413293121495D+04  KE= 1.643203762842D+03
 No NMR shielding tensors so no spin-rotation constants.
 Leave Link  601 at Tue Mar 17 10:47:21 2026, MaxMem=   104857600 cpu:               0.5 elap:               0.5
 (Enter /sw/cluster/pub/apps//g16/l9999.exe)
 1\1\GINC-N07\SP\RB3LYP\6-31+G(d)\C43H34\UNKNOWN\17-Mar-2026\0\\#p B3LY
 P/6-31+G* nosymm density=current sp\\Single-Point F3 6-31+G* - Generat
 ed by extraQ₂\\0,1\C,0,0.62421153,-0.47631472,-0.36239302\C,0,1.4867
 9814,-2.02737386,1.77708652\H,0,2.61595462,-0.87694661,0.33305302\H,0,
 1.82195195,-2.28825372,-0.31388267\C,0,0.59905858,0.43512211,-2.988368
 37\H,0,3.31447571,-3.21310071,1.47744749\H,0,0.60519033,-1.58165983,-2
 .20333289\H,0,3.58603037,-1.67286088,2.32028413\H,0,2.84219547,-3.0371
 9375,3.17970127\H,0,2.08557201,-0.6941928,-1.95518593\C,0,0.68976843,0
 .94640019,0.20045944\C,0,1.47428258,1.69178,-2.98836837\C,0,0.91323389
 ,-1.1325698,2.87872804\C,0,0.68195495,2.85580897,-2.98836837\C,0,-0.19
 172194,-1.75342831,3.4980981\C,0,-0.56535979,1.34474653,0.70096509\C,0
 ,-1.51660093,0.24509518,0.50855702\C,0,-0.43470153,-3.04483265,2.84442
 239\C,0,-0.73018433,2.45671477,-2.96306802\C,0,0.52412476,-3.21728694,
 1.82773373\C,0,-0.80290523,1.04805644,-2.94289262\C,0,-0.84485379,-0.8
 2757085,-0.11004334\C,0,-1.53925177,-1.99052283,-0.43186145\C,0,-2.042
 44205,0.41568732,-2.99192646\C,0,0.54852972,-4.39157329,1.08049183\C,0
 ,-2.90175964,-2.08478518,-0.12208539\C,0,-0.40454622,-5.38689136,1.335
 71957\C,0,-3.2074162,1.19198377,-3.02887729\C,0,-1.3675215,-5.20682009
 ,2.33704072\C,0,-3.13289221,2.59060406,-3.02820301\C,0,-3.56426432,-1.
 01979209,0.50140747\C,0,-2.87541426,0.15373879,0.81936318\C,0,-1.89206
 402,3.23271174,-2.99997502\C,0,-1.38590011,-4.03602303,3.10102729\H,0,
 -2.1304245,-3.90480231,3.88275025\H,0,-1.83606458,4.31873575,-3.014625
 96\H,0,-3.3944354,0.9827258,1.29455793\H,0,-4.62196261,-1.1067235,0.73
 838585\H,0,-4.04608011,3.18014189,-3.05634209\H,0,-2.10139346,-5.98648
 642,2.52604555\H,0,-3.44535443,-2.99573365,-0.35954303\H,0,-0.39355098
 ,-6.30661251,0.7558263\H,0,-4.17760186,0.7025263,-3.05360014\H,0,-1.03
 863282,-2.83012755,-0.90695997\H,0,1.29563999,-4.54717914,0.30417875\H
 ,0,-2.11873888,-0.66781867,-2.98714333\C,0,-0.73727135,2.6046803,1.279
 17176\C,0,1.27504024,4.12030423,-3.03717412\C,0,-0.83509652,-1.1516434
 1,4.5831895\C,0,0.35957707,3.46675045,1.36013614\C,0,2.66895804,4.2132
 338,-3.09322878\C,0,-0.35930431,0.07434273,5.05577143\C,0,1.61117326,3
 .07048353,0.87193877\C,0,3.45821959,3.05599559,-3.1092054\C,0,0.750210
 83,0.68305343,4.45565589\C,0,2.8610945,1.78901781,-3.06054558\C,0,1.39
 392207,0.07895179,3.36852243\C,0,1.78030701,1.8069316,0.29218415\H,0,3
 .48575169,0.89769989,-3.08064693\H,0,2.24948002,0.56771111,2.91139613\
 H,0,2.7561688,1.51938196,-0.09028526\H,0,2.45656718,3.75104023,0.93406
 612\H,0,4.54081319,3.14107729,-3.16429383\H,0,1.11380898,1.6354548,4.8
 3270591\H,0,0.24133099,4.45141626,1.80610715\H,0,3.14384688,5.19055216
 ,-3.13193783\H,0,-0.84930459,0.5557228,5.89864278\H,0,-1.70551973,2.91
 110237,1.66777761\H,0,0.66661463,5.02165379,-3.03338439\H,0,-1.6875266
 4,-1.6298211,5.06016682\C,0,0.99330629,-0.60461747,-1.88843692\C,0,2.8
 9667036,-2.51891576,2.21691782\C,0,1.66474397,-1.42417764,0.34504379\C
 ,0,0.78279537,-0.28971863,-4.35351891\H,0,1.79961046,-0.69047903,-4.44
 707321\H,0,0.0763609,-1.12274954,-4.44689644\H,0,0.61016761,0.40181393
 ,-5.18449146\\Version=ES64L-G16RevA.03\HF=-1659.1379045\RMSD=3.560e-09
 \Dipole=0.13877,-0.105956,-0.0805845\Quadrupole=6.2683536,5.1400829,-1
 1.4084365,2.1214745,-5.6430961,7.3151824\PG=C01 [X(C43H34)]\\@


 GOD GAVE US TWO ENDS... ONE TO SIT ON...    
 AND THE OTHER TO THINK WITH...              
 YOUR SUCCESS DEPENDS UPON WHICH END YOU     
 USE THE MOST...                             
                                             
 IT'S A CASE OF HEADS YOU WIN TAILS YOU LOSE.
          SOURCE UNKNOWN(IT'S JUST AS WELL.) 
 Job cpu time:       0 days  0 hours 53 minutes 12.8 seconds.
 Elapsed time:       0 days  0 hours 53 minutes 16.8 seconds.
 File lengths (MBytes):  RWF=    408 Int=      0 D2E=      0 Chk=     46 Scr=      1
 Normal termination of Gaussian 16 at Tue Mar 17 10:47:22 2026.
