%chk=f3-6-31+Gstar_SP.chk
#p B3LYP/6-31+G* nosymm density=current sp

Single-Point F3 6-31+G* - Generated by extraQ₂

0 1
C         0.62421153      -0.47631472      -0.36239302
C         1.48679814      -2.02737386       1.77708652
H         2.61595462      -0.87694661       0.33305302
H         1.82195195      -2.28825372      -0.31388267
C         0.59905858       0.43512211      -2.98836837
H         3.31447571      -3.21310071       1.47744749
H         0.60519033      -1.58165983      -2.20333289
H         3.58603037      -1.67286088       2.32028413
H         2.84219547      -3.03719375       3.17970127
H         2.08557201      -0.69419280      -1.95518593
C         0.68976843       0.94640019       0.20045944
C         1.47428258       1.69178000      -2.98836837
C         0.91323389      -1.13256980       2.87872804
C         0.68195495       2.85580897      -2.98836837
C        -0.19172194      -1.75342831       3.49809810
C        -0.56535979       1.34474653       0.70096509
C        -1.51660093       0.24509518       0.50855702
C        -0.43470153      -3.04483265       2.84442239
C        -0.73018433       2.45671477      -2.96306802
C         0.52412476      -3.21728694       1.82773373
C        -0.80290523       1.04805644      -2.94289262
C        -0.84485379      -0.82757085      -0.11004334
C        -1.53925177      -1.99052283      -0.43186145
C        -2.04244205       0.41568732      -2.99192646
C         0.54852972      -4.39157329       1.08049183
C        -2.90175964      -2.08478518      -0.12208539
C        -0.40454622      -5.38689136       1.33571957
C        -3.20741620       1.19198377      -3.02887729
C        -1.36752150      -5.20682009       2.33704072
C        -3.13289221       2.59060406      -3.02820301
C        -3.56426432      -1.01979209       0.50140747
C        -2.87541426       0.15373879       0.81936318
C        -1.89206402       3.23271174      -2.99997502
C        -1.38590011      -4.03602303       3.10102729
H        -2.13042450      -3.90480231       3.88275025
H        -1.83606458       4.31873575      -3.01462596
H        -3.39443540       0.98272580       1.29455793
H        -4.62196261      -1.10672350       0.73838585
H        -4.04608011       3.18014189      -3.05634209
H        -2.10139346      -5.98648642       2.52604555
H        -3.44535443      -2.99573365      -0.35954303
H        -0.39355098      -6.30661251       0.75582630
H        -4.17760186       0.70252630      -3.05360014
H        -1.03863282      -2.83012755      -0.90695997
H         1.29563999      -4.54717914       0.30417875
H        -2.11873888      -0.66781867      -2.98714333
C        -0.73727135       2.60468030       1.27917176
C         1.27504024       4.12030423      -3.03717412
C        -0.83509652      -1.15164341       4.58318950
C         0.35957707       3.46675045       1.36013614
C         2.66895804       4.21323380      -3.09322878
C        -0.35930431       0.07434273       5.05577143
C         1.61117326       3.07048353       0.87193877
C         3.45821959       3.05599559      -3.10920540
C         0.75021083       0.68305343       4.45565589
C         2.86109450       1.78901781      -3.06054558
C         1.39392207       0.07895179       3.36852243
C         1.78030701       1.80693160       0.29218415
H         3.48575169       0.89769989      -3.08064693
H         2.24948002       0.56771111       2.91139613
H         2.75616880       1.51938196      -0.09028526
H         2.45656718       3.75104023       0.93406612
H         4.54081319       3.14107729      -3.16429383
H         1.11380898       1.63545480       4.83270591
H         0.24133099       4.45141626       1.80610715
H         3.14384688       5.19055216      -3.13193783
H        -0.84930459       0.55572280       5.89864278
H        -1.70551973       2.91110237       1.66777761
H         0.66661463       5.02165379      -3.03338439
H        -1.68752664      -1.62982110       5.06016682
C         0.99330629      -0.60461747      -1.88843692
C         2.89667036      -2.51891576       2.21691782
C         1.66474397      -1.42417764       0.34504379
C         0.78279537      -0.28971863      -4.35351891
H         1.79961046      -0.69047903      -4.44707321
H         0.07636090      -1.12274954      -4.44689644
H         0.61016761       0.40181393      -5.18449146



