#p b3lyp/6-31g nosymm density=current sp

Verify additional points: Sm atoms correspond to centroids, Am to +1Å, and Lr to -1Å

0 1
C -1.272868 -0.579684 0.000000
C -0.134413 -1.392174 0.000000
C 1.138460 -0.812492 0.000000
C 1.272868 0.579684 0.000000
C 0.134413 1.392174 0.000000
C -1.138460 0.812492 0.000000
H -2.262490 -1.030370 -0.000001
H -0.238922 -2.474555 0.000000
H 2.023577 -1.444184 0.000000
H 2.262490 1.030370 0.000000
H 0.238922 2.474555 0.000000
H -2.023577 1.444184 0.000000
Sm  -0.000000  0.000000  0.000000
Am  -0.000000  0.000000  1.000000
Lr  -0.000000  0.000000 -1.000000