53
Generated from .fchk
C 0.574700 -1.225597 -1.460846
C -0.574667 1.224585 -1.461718
H 0.798345 0.357471 -2.894395
H -0.798473 -0.359629 -2.893960
C -0.261759 -1.684638 -0.269054
C -1.909790 0.910569 -0.790156
C -1.828912 1.111975 0.600785
C 0.479384 -1.586570 0.924551
C 1.828809 -1.111198 0.601608
C -0.479429 1.587371 0.923428
C 0.261770 1.684403 -0.270228
C 1.909846 -0.911266 -0.789534
C 3.099807 -0.500942 -1.373707
C 1.559873 2.176645 -0.250395
C 4.211059 -0.261438 -0.556916
C 2.135464 2.528695 0.973319
C 1.410373 2.399931 2.162757
C 4.123489 -0.436379 0.827433
C 2.932249 -0.866333 1.416605
C 0.094566 1.935523 2.145952
H -0.471470 1.847683 3.069337
H 2.868652 -1.002547 2.492536
H 4.991833 -0.240515 1.450441
H 1.874738 2.669320 3.107441
H 5.147798 0.063217 -1.001480
H 3.158980 2.889893 1.001069
H 3.171570 -0.355319 -2.449110
H 2.137078 2.259977 -1.165715
C -0.094631 -1.933920 2.147297
C -2.932442 0.867977 1.415920
C -1.410342 -2.398599 2.164359
C -4.123615 0.437408 0.827067
C -2.135366 -2.528341 0.974985
C -4.211005 0.260919 -0.557095
C -3.099653 0.499534 -1.374023
C -1.559799 -2.177023 -0.248952
H -3.171341 0.352894 -2.449292
H -2.136939 -2.261080 -1.164249
H -3.158822 -2.889688 1.002970
H -5.147699 -0.064200 -1.001414
H -1.874718 -2.667352 3.109221
H -4.992019 0.242158 1.450186
H 0.471324 -1.845302 3.070656
H -2.868944 1.005252 2.491721
C 0.750215 -2.379092 -2.473175
H 1.209263 -3.246507 -1.989891
H 1.390922 -2.070639 -3.307333
H -0.218857 -2.684616 -2.883089
C -0.000000 -0.000833 -2.231874
C -0.750186 2.377266 -2.474941
H -1.390736 2.068108 -3.308960
H 0.218884 2.682622 -2.884990
H -1.209413 3.245012 -1.992419