 Entering Gaussian System, Link 0=g16
 Initial command:
 /sw/cluster/pub/apps//g16/l1.exe "/data/mmaximo/52020/Gau-982862.inp" -scrdir="/data/mmaximo/52020/"
 Entering Link 1 = /sw/cluster/pub/apps//g16/l1.exe PID=    982866.
  
 Copyright (c) 1988,1990,1992,1993,1995,1998,2003,2009,2016,
            Gaussian, Inc.  All Rights Reserved.
  
 This is part of the Gaussian(R) 16 program.  It is based on
 the Gaussian(R) 09 system (copyright 2009, Gaussian, Inc.),
 the Gaussian(R) 03 system (copyright 2003, Gaussian, Inc.),
 the Gaussian(R) 98 system (copyright 1998, Gaussian, Inc.),
 the Gaussian(R) 94 system (copyright 1995, Gaussian, Inc.),
 the Gaussian 92(TM) system (copyright 1992, Gaussian, Inc.),
 the Gaussian 90(TM) system (copyright 1990, Gaussian, Inc.),
 the Gaussian 88(TM) system (copyright 1988, Gaussian, Inc.),
 the Gaussian 86(TM) system (copyright 1986, Carnegie Mellon
 University), and the Gaussian 82(TM) system (copyright 1983,
 Carnegie Mellon University). Gaussian is a federally registered
 trademark of Gaussian, Inc.
  
 This software contains proprietary and confidential information,
 including trade secrets, belonging to Gaussian, Inc.
  
 This software is provided under written license and may be
 used, copied, transmitted, or stored only in accord with that
 written license.
  
 The following legend is applicable only to US Government
 contracts under FAR:
  
                    RESTRICTED RIGHTS LEGEND
  
 Use, reproduction and disclosure by the US Government is
 subject to restrictions as set forth in subparagraphs (a)
 and (c) of the Commercial Computer Software - Restricted
 Rights clause in FAR 52.227-19.
  
 Gaussian, Inc.
 340 Quinnipiac St., Bldg. 40, Wallingford CT 06492
  
  
 ---------------------------------------------------------------
 Warning -- This program may not be used in any manner that
 competes with the business of Gaussian, Inc. or will provide
 assistance to any competitor of Gaussian, Inc.  The licensee
 of this program is prohibited from giving any competitor of
 Gaussian, Inc. access to this program.  By using this program,
 the user acknowledges that Gaussian, Inc. is engaged in the
 business of creating and licensing software in the field of
 computational chemistry and represents and warrants to the
 licensee that it is not a competitor of Gaussian, Inc. and that
 it will not use this program in any manner prohibited above.
 ---------------------------------------------------------------
  

 Cite this work as:
 Gaussian 16, Revision A.03,
 M. J. Frisch, G. W. Trucks, H. B. Schlegel, G. E. Scuseria, 
 M. A. Robb, J. R. Cheeseman, G. Scalmani, V. Barone, 
 G. A. Petersson, H. Nakatsuji, X. Li, M. Caricato, A. V. Marenich, 
 J. Bloino, B. G. Janesko, R. Gomperts, B. Mennucci, H. P. Hratchian, 
 J. V. Ortiz, A. F. Izmaylov, J. L. Sonnenberg, D. Williams-Young, 
 F. Ding, F. Lipparini, F. Egidi, J. Goings, B. Peng, A. Petrone, 
 T. Henderson, D. Ranasinghe, V. G. Zakrzewski, J. Gao, N. Rega, 
 G. Zheng, W. Liang, M. Hada, M. Ehara, K. Toyota, R. Fukuda, 
 J. Hasegawa, M. Ishida, T. Nakajima, Y. Honda, O. Kitao, H. Nakai, 
 T. Vreven, K. Throssell, J. A. Montgomery, Jr., J. E. Peralta, 
 F. Ogliaro, M. J. Bearpark, J. J. Heyd, E. N. Brothers, K. N. Kudin, 
 V. N. Staroverov, T. A. Keith, R. Kobayashi, J. Normand, 
 K. Raghavachari, A. P. Rendell, J. C. Burant, S. S. Iyengar, 
 J. Tomasi, M. Cossi, J. M. Millam, M. Klene, C. Adamo, R. Cammi, 
 J. W. Ochterski, R. L. Martin, K. Morokuma, O. Farkas, 
 J. B. Foresman, and D. J. Fox, Gaussian, Inc., Wallingford CT, 2016.
 
 ******************************************
 Gaussian 16:  ES64L-G16RevA.03 25-Dec-2016
                21-Aug-2026 
 ******************************************
 %chk=f2_SP.chk
 ---------------------------------------------------------------------
 #p b3lyp/6-31g(d) nosymm density=current sp EmpiricalDispersion=GD3BJ
 ---------------------------------------------------------------------
 1/30=1,38=1,172=1/1;
 2/12=2,15=1,17=6,18=5,40=1/2;
 3/5=1,6=6,7=1,11=2,25=1,30=1,74=-5,124=41/1,2,3;
 4//1;
 5/5=2,38=5/2;
 6/7=2,8=2,9=2,10=2,22=-1,28=1/1;
 99/5=1,9=1/99;
 Leave Link    1 at Fri Aug 21 09:57:49 2026, MaxMem=           0 cpu:               0.0 elap:               0.0
 (Enter /sw/cluster/pub/apps//g16/l101.exe)
 ----------------------------------------------
 Generated by extraQ₂ - dispersion correction
 ----------------------------------------------
 Symbolic Z-matrix:
 Charge =  0 Multiplicity = 1
 C                     0.56054  -1.17823   1.50466 
 C                     0.27017  -1.60157  -1.15258 
 H                     1.65785  -2.51776   0.23471 
 H                    -0.01279  -2.98792   0.4627 
 C                    -0.67903  -0.28878   1.56027 
 C                    -1.22975  -1.36432  -1.3142 
 C                    -1.48989  -0.02214  -1.64988 
 C                    -0.31523   1.07158   1.53433 
 C                     1.14815   1.16576   1.50466 
 C                    -0.21002   0.68612  -1.75711 
 C                     0.8323   -0.22415  -1.49525 
 C                     1.67875  -0.13819   1.50466 
 C                     3.05159  -0.33966   1.5229 
 C                     2.15679   0.17981  -1.59674 
 C                     3.90211   0.77206   1.51293 
 C                     2.43976   1.51075  -1.91495 
 C                     1.40352   2.42286  -2.14154 
 C                     3.37519   2.06683   1.48812 
 C                     1.99373   2.27322   1.48759 
 C                     0.07064   2.01555  -2.07193 
 H                    -0.73293   2.72234  -2.26025 
 H                     1.58818   3.28091   1.46981 
 H                     4.04681   2.92079   1.47388 
 H                     1.63941   3.45654  -2.37923 
 H                     4.97898   0.62796   1.52389 
 H                     3.47237   1.84155  -1.97082 
 H                     3.4673   -1.3446    1.53399 
 H                     2.96684  -0.51574  -1.40192 
 C                    -1.29094   2.06799   1.55461 
 C                    -2.79879   0.42089  -1.8295 
 C                    -2.63344   1.69292   1.62044 
 C                    -3.84543  -0.49319  -1.6879 
 C                    -2.99354   0.34243   1.68058 
 C                    -3.58547  -1.83164  -1.37859 
 C                    -2.27061  -2.27381  -1.19141 
 C                    -2.01486  -0.65474   1.65711 
 H                    -2.07504  -3.31446  -0.94314 
 H                    -2.30455  -1.70037   1.68293 
 H                    -4.04198   0.06467   1.72992 
 H                    -4.40969  -2.53299  -1.28231 
 H                    -3.40641   2.4565    1.63052 
 H                    -4.87123  -0.16191  -1.82397 
 H                    -1.01229   3.11771   1.52031 
 H                    -3.00482   1.45979  -2.07126 
 C                     0.65321  -2.05459   2.77335 
 H                     0.66604  -1.4293    3.67087 
 H                     1.56704  -2.65979   2.76235 
 H                    -0.20417  -2.73373   2.83766 
 C                     0.63435  -2.12286   0.26892 
 C                     0.75318  -2.65183  -2.17715 
 H                     0.3136   -3.63328  -1.96503 
 H                     1.84366  -2.75261  -2.14279 
 H                     0.46568  -2.35855  -3.19107 
 
 ITRead=  0  0  0  0  0  0  0  0  0  0  0  0  0  0  0  0  0  0  0  0
 ITRead=  0  0  0  0  0  0  0  0  0  0  0  0  0  0  0  0  0  0  0  0
 ITRead=  0  0  0  0  0  0  0  0  0  0  0  0  0
 MicOpt= -1 -1 -1 -1 -1 -1 -1 -1 -1 -1 -1 -1 -1 -1 -1 -1 -1 -1 -1 -1
 MicOpt= -1 -1 -1 -1 -1 -1 -1 -1 -1 -1 -1 -1 -1 -1 -1 -1 -1 -1 -1 -1
 MicOpt= -1 -1 -1 -1 -1 -1 -1 -1 -1 -1 -1 -1 -1
 NAtoms=     53 NQM=       53 NQMF=       0 NMMI=      0 NMMIF=      0
                NMic=       0 NMicF=      0.
                    Isotopes and Nuclear Properties:
 (Nuclear quadrupole moments (NQMom) in fm**2, nuclear magnetic moments (NMagM)
  in nuclear magnetons)

  Atom         1           2           3           4           5           6           7           8           9          10
 IAtWgt=          12          12           1           1          12          12          12          12          12          12
 AtmWgt=  12.0000000  12.0000000   1.0078250   1.0078250  12.0000000  12.0000000  12.0000000  12.0000000  12.0000000  12.0000000
 NucSpn=           0           0           1           1           0           0           0           0           0           0
 AtZEff=  -0.0000000  -0.0000000  -0.0000000  -0.0000000  -0.0000000  -0.0000000  -0.0000000  -0.0000000  -0.0000000  -0.0000000
 NQMom=    0.0000000   0.0000000   0.0000000   0.0000000   0.0000000   0.0000000   0.0000000   0.0000000   0.0000000   0.0000000
 NMagM=    0.0000000   0.0000000   2.7928460   2.7928460   0.0000000   0.0000000   0.0000000   0.0000000   0.0000000   0.0000000
 AtZNuc=   6.0000000   6.0000000   1.0000000   1.0000000   6.0000000   6.0000000   6.0000000   6.0000000   6.0000000   6.0000000

  Atom        11          12          13          14          15          16          17          18          19          20
 IAtWgt=          12          12          12          12          12          12          12          12          12          12
 AtmWgt=  12.0000000  12.0000000  12.0000000  12.0000000  12.0000000  12.0000000  12.0000000  12.0000000  12.0000000  12.0000000
 NucSpn=           0           0           0           0           0           0           0           0           0           0
 AtZEff=  -0.0000000  -0.0000000  -0.0000000  -0.0000000  -0.0000000  -0.0000000  -0.0000000  -0.0000000  -0.0000000  -0.0000000
 NQMom=    0.0000000   0.0000000   0.0000000   0.0000000   0.0000000   0.0000000   0.0000000   0.0000000   0.0000000   0.0000000
 NMagM=    0.0000000   0.0000000   0.0000000   0.0000000   0.0000000   0.0000000   0.0000000   0.0000000   0.0000000   0.0000000
 AtZNuc=   6.0000000   6.0000000   6.0000000   6.0000000   6.0000000   6.0000000   6.0000000   6.0000000   6.0000000   6.0000000

  Atom        21          22          23          24          25          26          27          28          29          30
 IAtWgt=           1           1           1           1           1           1           1           1          12          12
 AtmWgt=   1.0078250   1.0078250   1.0078250   1.0078250   1.0078250   1.0078250   1.0078250   1.0078250  12.0000000  12.0000000
 NucSpn=           1           1           1           1           1           1           1           1           0           0
 AtZEff=  -0.0000000  -0.0000000  -0.0000000  -0.0000000  -0.0000000  -0.0000000  -0.0000000  -0.0000000  -0.0000000  -0.0000000
 NQMom=    0.0000000   0.0000000   0.0000000   0.0000000   0.0000000   0.0000000   0.0000000   0.0000000   0.0000000   0.0000000
 NMagM=    2.7928460   2.7928460   2.7928460   2.7928460   2.7928460   2.7928460   2.7928460   2.7928460   0.0000000   0.0000000
 AtZNuc=   1.0000000   1.0000000   1.0000000   1.0000000   1.0000000   1.0000000   1.0000000   1.0000000   6.0000000   6.0000000

  Atom        31          32          33          34          35          36          37          38          39          40
 IAtWgt=          12          12          12          12          12          12           1           1           1           1
 AtmWgt=  12.0000000  12.0000000  12.0000000  12.0000000  12.0000000  12.0000000   1.0078250   1.0078250   1.0078250   1.0078250
 NucSpn=           0           0           0           0           0           0           1           1           1           1
 AtZEff=  -0.0000000  -0.0000000  -0.0000000  -0.0000000  -0.0000000  -0.0000000  -0.0000000  -0.0000000  -0.0000000  -0.0000000
 NQMom=    0.0000000   0.0000000   0.0000000   0.0000000   0.0000000   0.0000000   0.0000000   0.0000000   0.0000000   0.0000000
 NMagM=    0.0000000   0.0000000   0.0000000   0.0000000   0.0000000   0.0000000   2.7928460   2.7928460   2.7928460   2.7928460
 AtZNuc=   6.0000000   6.0000000   6.0000000   6.0000000   6.0000000   6.0000000   1.0000000   1.0000000   1.0000000   1.0000000

  Atom        41          42          43          44          45          46          47          48          49          50
 IAtWgt=           1           1           1           1          12           1           1           1          12          12
 AtmWgt=   1.0078250   1.0078250   1.0078250   1.0078250  12.0000000   1.0078250   1.0078250   1.0078250  12.0000000  12.0000000
 NucSpn=           1           1           1           1           0           1           1           1           0           0
 AtZEff=  -0.0000000  -0.0000000  -0.0000000  -0.0000000  -0.0000000  -0.0000000  -0.0000000  -0.0000000  -0.0000000  -0.0000000
 NQMom=    0.0000000   0.0000000   0.0000000   0.0000000   0.0000000   0.0000000   0.0000000   0.0000000   0.0000000   0.0000000
 NMagM=    2.7928460   2.7928460   2.7928460   2.7928460   0.0000000   2.7928460   2.7928460   2.7928460   0.0000000   0.0000000
 AtZNuc=   1.0000000   1.0000000   1.0000000   1.0000000   6.0000000   1.0000000   1.0000000   1.0000000   6.0000000   6.0000000

  Atom        51          52          53
 IAtWgt=           1           1           1
 AtmWgt=   1.0078250   1.0078250   1.0078250
 NucSpn=           1           1           1
 AtZEff=  -0.0000000  -0.0000000  -0.0000000
 NQMom=    0.0000000   0.0000000   0.0000000
 NMagM=    2.7928460   2.7928460   2.7928460
 AtZNuc=   1.0000000   1.0000000   1.0000000
 Leave Link  101 at Fri Aug 21 09:57:49 2026, MaxMem=   104857600 cpu:               0.0 elap:               0.0
 (Enter /sw/cluster/pub/apps//g16/l202.exe)
 Symmetry turned off by external request.
 Stoichiometry    C29H24
 Framework group  C1[X(C29H24)]
 Deg. of freedom   153
 Full point group                 C1      NOp   1
                          Input orientation:                          
 ---------------------------------------------------------------------
 Center     Atomic      Atomic             Coordinates (Angstroms)
 Number     Number       Type             X           Y           Z
 ---------------------------------------------------------------------
      1          6           0        0.560542   -1.178235    1.504658
      2          6           0        0.270168   -1.601575   -1.152579
      3          1           0        1.657849   -2.517759    0.234707
      4          1           0       -0.012789   -2.987915    0.462703
      5          6           0       -0.679028   -0.288783    1.560269
      6          6           0       -1.229747   -1.364324   -1.314200
      7          6           0       -1.489888   -0.022136   -1.649877
      8          6           0       -0.315227    1.071577    1.534328
      9          6           0        1.148149    1.165760    1.504658
     10          6           0       -0.210016    0.686124   -1.757113
     11          6           0        0.832303   -0.224155   -1.495255
     12          6           0        1.678747   -0.138189    1.504658
     13          6           0        3.051594   -0.339658    1.522900
     14          6           0        2.156794    0.179813   -1.596744
     15          6           0        3.902112    0.772057    1.512935
     16          6           0        2.439763    1.510750   -1.914954
     17          6           0        1.403517    2.422864   -2.141543
     18          6           0        3.375195    2.066830    1.488123
     19          6           0        1.993731    2.273215    1.487587
     20          6           0        0.070644    2.015548   -2.071926
     21          1           0       -0.732934    2.722336   -2.260252
     22          1           0        1.588182    3.280906    1.469808
     23          1           0        4.046811    2.920792    1.473879
     24          1           0        1.639410    3.456543   -2.379232
     25          1           0        4.978976    0.627964    1.523891
     26          1           0        3.472366    1.841548   -1.970825
     27          1           0        3.467300   -1.344602    1.533989
     28          1           0        2.966835   -0.515743   -1.401923
     29          6           0       -1.290937    2.067986    1.554606
     30          6           0       -2.798791    0.420885   -1.829496
     31          6           0       -2.633437    1.692920    1.620440
     32          6           0       -3.845427   -0.493191   -1.687903
     33          6           0       -2.993539    0.342434    1.680583
     34          6           0       -3.585469   -1.831637   -1.378592
     35          6           0       -2.270607   -2.273807   -1.191414
     36          6           0       -2.014860   -0.654743    1.657115
     37          1           0       -2.075044   -3.314461   -0.943140
     38          1           0       -2.304554   -1.700370    1.682926
     39          1           0       -4.041981    0.064672    1.729916
     40          1           0       -4.409692   -2.532994   -1.282307
     41          1           0       -3.406411    2.456496    1.630517
     42          1           0       -4.871228   -0.161913   -1.823966
     43          1           0       -1.012291    3.117715    1.520308
     44          1           0       -3.004822    1.459792   -2.071255
     45          6           0        0.653211   -2.054593    2.773348
     46          1           0        0.666039   -1.429302    3.670869
     47          1           0        1.567040   -2.659791    2.762347
     48          1           0       -0.204175   -2.733731    2.837656
     49          6           0        0.634347   -2.122863    0.268922
     50          6           0        0.753183   -2.651834   -2.177153
     51          1           0        0.313604   -3.633284   -1.965027
     52          1           0        1.843661   -2.752614   -2.142794
     53          1           0        0.465681   -2.358546   -3.191068
 ---------------------------------------------------------------------
 Rotational constants (GHZ):           0.2844986           0.1889580           0.1780049
 Leave Link  202 at Fri Aug 21 09:57:49 2026, MaxMem=   104857600 cpu:               0.0 elap:               0.0
 (Enter /sw/cluster/pub/apps//g16/l301.exe)
 Standard basis: 6-31G(d) (6D, 7F)
 Ernie: Thresh=  0.10000D-02 Tol=  0.10000D-05 Strict=F.
   483 basis functions,   908 primitive gaussians,   483 cartesian basis functions
    99 alpha electrons       99 beta electrons
       nuclear repulsion energy      2818.7453834389 Hartrees.
 IExCor=  402 DFT=T Ex+Corr=B3LYP ExCW=0 ScaHFX=  0.200000
 ScaDFX=  0.800000  0.720000  1.000000  0.810000 ScalE2=  1.000000  1.000000
 IRadAn=      5 IRanWt=     -1 IRanGd=            0 ICorTp=0 IEmpDi=141
 NAtoms=   53 NActive=   53 NUniq=   53 SFac= 1.00D+00 NAtFMM=   60 NAOKFM=F Big=F
 Integral buffers will be    131072 words long.
 Raffenetti 2 integral format.
 Two-electron integral symmetry is turned off.
 R6Disp:  Grimme-D3(BJ) Dispersion energy=       -0.1572647313 Hartrees.
 Nuclear repulsion after empirical dispersion term =     2818.5881187077 Hartrees.
 Leave Link  301 at Fri Aug 21 09:57:49 2026, MaxMem=   104857600 cpu:               0.0 elap:               0.0
 (Enter /sw/cluster/pub/apps//g16/l302.exe)
 NPDir=0 NMtPBC=     1 NCelOv=     1 NCel=       1 NClECP=     1 NCelD=      1
         NCelK=      1 NCelE2=     1 NClLst=     1 CellRange=     0.0.
 One-electron integrals computed using PRISM.
 NBasis=   483 RedAO= T EigKep=  3.40D-04  NBF=   483
 NBsUse=   483 1.00D-06 EigRej= -1.00D+00 NBFU=   483
 Precomputing XC quadrature grid using
 IXCGrd= 4 IRadAn=           5 IRanWt=          -1 IRanGd=           0 AccXCQ= 0.00D+00.
 Generated NRdTot=       0 NPtTot=           0 NUsed=           0 NTot=          32
 NSgBfM=   480   480   480   480   480 MxSgAt=    53 MxSgA2=    53.
 Leave Link  302 at Fri Aug 21 09:57:51 2026, MaxMem=   104857600 cpu:               1.5 elap:               1.5
 (Enter /sw/cluster/pub/apps//g16/l303.exe)
 DipDrv:  MaxL=1.
 Leave Link  303 at Fri Aug 21 09:57:51 2026, MaxMem=   104857600 cpu:               0.0 elap:               0.0
 (Enter /sw/cluster/pub/apps//g16/l401.exe)
 ExpMin= 1.61D-01 ExpMax= 3.05D+03 ExpMxC= 4.57D+02 IAcc=3 IRadAn=         5 AccDes= 0.00D+00
 Harris functional with IExCor=  402 and IRadAn=       5 diagonalized for initial guess.
 HarFok:  IExCor=  402 AccDes= 0.00D+00 IRadAn=         5 IDoV= 1 UseB2=F ITyADJ=14
 ICtDFT=  3500011 ScaDFX=  1.000000  1.000000  1.000000  1.000000
 FoFCou: FMM=F IPFlag=           0 FMFlag=      100000 FMFlg1=           0
         NFxFlg=           0 DoJE=T BraDBF=F KetDBF=T FulRan=T
         wScrn=  0.000000 ICntrl=       500 IOpCl=  0 I1Cent=   200000004 NGrid=           0
         NMat0=    1 NMatS0=      1 NMatT0=    0 NMatD0=    1 NMtDS0=    0 NMtDT0=    0
 Symmetry not used in FoFCou.
 Harris En= -1119.75840973582    
 JPrj=0 DoOrth=F DoCkMO=F.
 Leave Link  401 at Fri Aug 21 09:58:03 2026, MaxMem=   104857600 cpu:              12.6 elap:              12.6
 (Enter /sw/cluster/pub/apps//g16/l502.exe)
 Two-electron integral symmetry not used.
 Closed shell SCF:
 Using DIIS extrapolation, IDIIS=  1040.
 NGot=   104857600 LenX=   104383894 LenY=   104150122
 Requested convergence on RMS density matrix=1.00D-08 within 128 cycles.
 Requested convergence on MAX density matrix=1.00D-06.
 Requested convergence on             energy=1.00D-06.
 No special actions if energy rises.
 Fock matrices will be formed incrementally for  20 cycles.
 Integral accuracy reduced to 1.0D-05 until final iterations.

 Cycle   1  Pass 0  IDiag  1:
 FoFJK:  IHMeth= 1 ICntrl=       0 DoSepK=F KAlg= 0 I1Cent=           0 FoldK=F
 IRaf= 830000000 NMat=       1 IRICut=       1 DoRegI=T DoRafI=F ISym2E= 0 IDoP0=0 IntGTp=1.
 FoFCou: FMM=F IPFlag=           0 FMFlag=      100000 FMFlg1=           0
         NFxFlg=           0 DoJE=F BraDBF=F KetDBF=F FulRan=T
         wScrn=  0.000000 ICntrl=         0 IOpCl=  0 I1Cent=           0 NGrid=           0
         NMat0=    1 NMatS0=      1 NMatT0=    0 NMatD0=    1 NMtDS0=    0 NMtDT0=    0
 Symmetry not used in FoFCou.
 E= -1119.08025791072    
 DIIS: error= 2.44D-02 at cycle   1 NSaved=   1.
 NSaved= 1 IEnMin= 1 EnMin= -1119.08025791072     IErMin= 1 ErrMin= 2.44D-02
 ErrMax= 2.44D-02  0.00D+00 EMaxC= 1.00D-01 BMatC= 5.80D-01 BMatP= 5.80D-01
 IDIUse=3 WtCom= 7.56D-01 WtEn= 2.44D-01
 Coeff-Com:  0.100D+01
 Coeff-En:   0.100D+01
 Coeff:      0.100D+01
 Gap=     0.179 Goal=   None    Shift=    0.000
 GapD=    0.179 DampG=1.000 DampE=0.500 DampFc=0.5000 IDamp=-1.
 Damping current iteration by 5.00D-01
 RMSDP=4.12D-03 MaxDP=1.32D-01              OVMax= 1.49D-01

 Cycle   2  Pass 0  IDiag  1:
 RMSU=  1.98D-03    CP:  9.63D-01
 E= -1119.38836953416     Delta-E=       -0.308111623446 Rises=F Damp=T
 DIIS: error= 5.57D-03 at cycle   2 NSaved=   2.
 NSaved= 2 IEnMin= 2 EnMin= -1119.38836953416     IErMin= 2 ErrMin= 5.57D-03
 ErrMax= 5.57D-03  0.00D+00 EMaxC= 1.00D-01 BMatC= 3.17D-02 BMatP= 5.80D-01
 IDIUse=3 WtCom= 9.44D-01 WtEn= 5.57D-02
 Coeff-Com: -0.110D-01 0.101D+01
 Coeff-En:   0.000D+00 0.100D+01
 Coeff:     -0.104D-01 0.101D+01
 Gap=     0.186 Goal=   None    Shift=    0.000
 RMSDP=1.46D-03 MaxDP=4.34D-02 DE=-3.08D-01 OVMax= 8.93D-02

 Cycle   3  Pass 0  IDiag  1:
 RMSU=  1.40D-03    CP:  9.36D-01  9.84D-01
 E= -1119.71214945511     Delta-E=       -0.323779920951 Rises=F Damp=F
 DIIS: error= 3.47D-03 at cycle   3 NSaved=   3.
 NSaved= 3 IEnMin= 3 EnMin= -1119.71214945511     IErMin= 3 ErrMin= 3.47D-03
 ErrMax= 3.47D-03  0.00D+00 EMaxC= 1.00D-01 BMatC= 1.07D-02 BMatP= 3.17D-02
 IDIUse=3 WtCom= 9.65D-01 WtEn= 3.47D-02
 Coeff-Com: -0.474D-01 0.345D+00 0.702D+00
 Coeff-En:   0.000D+00 0.000D+00 0.100D+01
 Coeff:     -0.457D-01 0.333D+00 0.713D+00
 Gap=     0.178 Goal=   None    Shift=    0.000
 RMSDP=6.13D-04 MaxDP=1.49D-02 DE=-3.24D-01 OVMax= 4.82D-02

 Cycle   4  Pass 0  IDiag  1:
 RMSU=  4.12D-04    CP:  9.39D-01  1.06D+00  6.96D-01
 E= -1119.71149957736     Delta-E=        0.000649877757 Rises=F Damp=F
 DIIS: error= 4.68D-03 at cycle   4 NSaved=   4.
 NSaved= 4 IEnMin= 3 EnMin= -1119.71214945511     IErMin= 3 ErrMin= 3.47D-03
 ErrMax= 4.68D-03  0.00D+00 EMaxC= 1.00D-01 BMatC= 1.14D-02 BMatP= 1.07D-02
 IDIUse=3 WtCom= 9.53D-01 WtEn= 4.68D-02
 Coeff-Com: -0.333D-01 0.151D+00 0.511D+00 0.371D+00
 Coeff-En:   0.000D+00 0.000D+00 0.512D+00 0.488D+00
 Coeff:     -0.318D-01 0.144D+00 0.511D+00 0.377D+00
 Gap=     0.179 Goal=   None    Shift=    0.000
 RMSDP=3.05D-04 MaxDP=1.11D-02 DE= 6.50D-04 OVMax= 3.10D-02

 Cycle   5  Pass 0  IDiag  1:
 RMSU=  1.20D-04    CP:  9.38D-01  1.05D+00  8.04D-01  4.32D-01
 E= -1119.72315585596     Delta-E=       -0.011656278600 Rises=F Damp=F
 DIIS: error= 8.88D-04 at cycle   5 NSaved=   5.
 NSaved= 5 IEnMin= 5 EnMin= -1119.72315585596     IErMin= 5 ErrMin= 8.88D-04
 ErrMax= 8.88D-04  0.00D+00 EMaxC= 1.00D-01 BMatC= 4.58D-04 BMatP= 1.07D-02
 IDIUse=3 WtCom= 9.91D-01 WtEn= 8.88D-03
 Coeff-Com: -0.101D-01 0.294D-01 0.175D+00 0.207D+00 0.599D+00
 Coeff-En:   0.000D+00 0.000D+00 0.000D+00 0.000D+00 0.100D+01
 Coeff:     -0.100D-01 0.291D-01 0.173D+00 0.205D+00 0.602D+00
 Gap=     0.179 Goal=   None    Shift=    0.000
 RMSDP=6.74D-05 MaxDP=2.13D-03 DE=-1.17D-02 OVMax= 5.99D-03

 Cycle   6  Pass 0  IDiag  1:
 RMSU=  3.93D-05    CP:  9.38D-01  1.05D+00  7.99D-01  5.02D-01  6.19D-01
 E= -1119.72356099861     Delta-E=       -0.000405142649 Rises=F Damp=F
 DIIS: error= 3.24D-04 at cycle   6 NSaved=   6.
 NSaved= 6 IEnMin= 6 EnMin= -1119.72356099861     IErMin= 6 ErrMin= 3.24D-04
 ErrMax= 3.24D-04  0.00D+00 EMaxC= 1.00D-01 BMatC= 7.20D-05 BMatP= 4.58D-04
 IDIUse=3 WtCom= 9.97D-01 WtEn= 3.24D-03
 Coeff-Com: -0.382D-02 0.754D-02 0.710D-01 0.988D-01 0.381D+00 0.446D+00
 Coeff-En:   0.000D+00 0.000D+00 0.000D+00 0.000D+00 0.133D+00 0.867D+00
 Coeff:     -0.381D-02 0.752D-02 0.708D-01 0.985D-01 0.380D+00 0.447D+00
 Gap=     0.179 Goal=   None    Shift=    0.000
 RMSDP=2.33D-05 MaxDP=9.58D-04 DE=-4.05D-04 OVMax= 2.23D-03

 Cycle   7  Pass 0  IDiag  1:
 RMSU=  8.88D-06    CP:  9.37D-01  1.05D+00  8.03D-01  4.96D-01  6.83D-01
                    CP:  5.17D-01
 E= -1119.72364205470     Delta-E=       -0.000081056090 Rises=F Damp=F
 DIIS: error= 4.43D-05 at cycle   7 NSaved=   7.
 NSaved= 7 IEnMin= 7 EnMin= -1119.72364205470     IErMin= 7 ErrMin= 4.43D-05
 ErrMax= 4.43D-05  0.00D+00 EMaxC= 1.00D-01 BMatC= 2.09D-06 BMatP= 7.20D-05
 IDIUse=1 WtCom= 1.00D+00 WtEn= 0.00D+00
 Coeff-Com: -0.128D-02 0.189D-02 0.251D-01 0.369D-01 0.156D+00 0.228D+00
 Coeff-Com:  0.553D+00
 Coeff:     -0.128D-02 0.189D-02 0.251D-01 0.369D-01 0.156D+00 0.228D+00
 Coeff:      0.553D+00
 Gap=     0.179 Goal=   None    Shift=    0.000
 RMSDP=4.51D-06 MaxDP=1.55D-04 DE=-8.11D-05 OVMax= 3.86D-04

 Initial convergence to 1.0D-05 achieved.  Increase integral accuracy.
 Cycle   8  Pass 1  IDiag  1:
 E= -1119.72363662122     Delta-E=        0.000005433480 Rises=F Damp=F
 DIIS: error= 9.42D-05 at cycle   1 NSaved=   1.
 NSaved= 1 IEnMin= 1 EnMin= -1119.72363662122     IErMin= 1 ErrMin= 9.42D-05
 ErrMax= 9.42D-05  0.00D+00 EMaxC= 1.00D-01 BMatC= 2.76D-06 BMatP= 2.76D-06
 IDIUse=1 WtCom= 1.00D+00 WtEn= 0.00D+00
 Coeff-Com:  0.100D+01
 Coeff:      0.100D+01
 Gap=     0.179 Goal=   None    Shift=    0.000
 RMSDP=4.51D-06 MaxDP=1.55D-04 DE= 5.43D-06 OVMax= 2.47D-04

 Cycle   9  Pass 1  IDiag  1:
 RMSU=  5.32D-05    CP:  1.00D+00
 E= -1119.72363836281     Delta-E=       -0.000001741595 Rises=F Damp=F
 DIIS: error= 1.65D-05 at cycle   2 NSaved=   2.
 NSaved= 2 IEnMin= 2 EnMin= -1119.72363836281     IErMin= 2 ErrMin= 1.65D-05
 ErrMax= 1.65D-05  0.00D+00 EMaxC= 1.00D-01 BMatC= 3.07D-07 BMatP= 2.76D-06
 IDIUse=1 WtCom= 1.00D+00 WtEn= 0.00D+00
 Coeff-Com:  0.140D+00 0.860D+00
 Coeff:      0.140D+00 0.860D+00
 Gap=     0.179 Goal=   None    Shift=    0.000
 RMSDP=3.24D-06 MaxDP=1.40D-04 DE=-1.74D-06 OVMax= 3.37D-04

 Cycle  10  Pass 1  IDiag  1:
 RMSU=  3.21D-06    CP:  1.00D+00  1.01D+00
 E= -1119.72363805645     Delta-E=        0.000000306363 Rises=F Damp=F
 DIIS: error= 2.52D-05 at cycle   3 NSaved=   3.
 NSaved= 3 IEnMin= 2 EnMin= -1119.72363836281     IErMin= 2 ErrMin= 1.65D-05
 ErrMax= 2.52D-05  0.00D+00 EMaxC= 1.00D-01 BMatC= 5.71D-07 BMatP= 3.07D-07
 IDIUse=1 WtCom= 1.00D+00 WtEn= 0.00D+00
 Coeff-Com:  0.155D-02 0.577D+00 0.421D+00
 Coeff:      0.155D-02 0.577D+00 0.421D+00
 Gap=     0.179 Goal=   None    Shift=    0.000
 RMSDP=2.04D-06 MaxDP=9.31D-05 DE= 3.06D-07 OVMax= 2.30D-04

 Cycle  11  Pass 1  IDiag  1:
 RMSU=  5.19D-07    CP:  1.00D+00  1.01D+00  3.88D-01
 E= -1119.72363867521     Delta-E=       -0.000000618762 Rises=F Damp=F
 DIIS: error= 6.13D-06 at cycle   4 NSaved=   4.
 NSaved= 4 IEnMin= 4 EnMin= -1119.72363867521     IErMin= 4 ErrMin= 6.13D-06
 ErrMax= 6.13D-06  0.00D+00 EMaxC= 1.00D-01 BMatC= 1.96D-08 BMatP= 3.07D-07
 IDIUse=1 WtCom= 1.00D+00 WtEn= 0.00D+00
 Coeff-Com: -0.282D-02 0.354D+00 0.275D+00 0.373D+00
 Coeff:     -0.282D-02 0.354D+00 0.275D+00 0.373D+00
 Gap=     0.179 Goal=   None    Shift=    0.000
 RMSDP=3.57D-07 MaxDP=1.27D-05 DE=-6.19D-07 OVMax= 4.02D-05

 Cycle  12  Pass 1  IDiag  1:
 RMSU=  1.42D-07    CP:  1.00D+00  1.01D+00  4.24D-01  4.08D-01
 E= -1119.72363869575     Delta-E=       -0.000000020540 Rises=F Damp=F
 DIIS: error= 1.15D-06 at cycle   5 NSaved=   5.
 NSaved= 5 IEnMin= 5 EnMin= -1119.72363869575     IErMin= 5 ErrMin= 1.15D-06
 ErrMax= 1.15D-06  0.00D+00 EMaxC= 1.00D-01 BMatC= 5.60D-10 BMatP= 1.96D-08
 IDIUse=1 WtCom= 1.00D+00 WtEn= 0.00D+00
 Coeff-Com: -0.180D-02 0.194D+00 0.152D+00 0.229D+00 0.426D+00
 Coeff:     -0.180D-02 0.194D+00 0.152D+00 0.229D+00 0.426D+00
 Gap=     0.179 Goal=   None    Shift=    0.000
 RMSDP=7.39D-08 MaxDP=2.95D-06 DE=-2.05D-08 OVMax= 7.78D-06

 Cycle  13  Pass 1  IDiag  1:
 RMSU=  5.15D-08    CP:  1.00D+00  1.01D+00  4.21D-01  4.41D-01  6.50D-01
 E= -1119.72363869633     Delta-E=       -0.000000000578 Rises=F Damp=F
 DIIS: error= 2.29D-07 at cycle   6 NSaved=   6.
 NSaved= 6 IEnMin= 6 EnMin= -1119.72363869633     IErMin= 6 ErrMin= 2.29D-07
 ErrMax= 2.29D-07  0.00D+00 EMaxC= 1.00D-01 BMatC= 3.78D-11 BMatP= 5.60D-10
 IDIUse=1 WtCom= 1.00D+00 WtEn= 0.00D+00
 Coeff-Com: -0.635D-03 0.624D-01 0.495D-01 0.784D-01 0.238D+00 0.572D+00
 Coeff:     -0.635D-03 0.624D-01 0.495D-01 0.784D-01 0.238D+00 0.572D+00
 Gap=     0.179 Goal=   None    Shift=    0.000
 RMSDP=1.96D-08 MaxDP=6.22D-07 DE=-5.78D-10 OVMax= 1.71D-06

 Cycle  14  Pass 1  IDiag  1:
 RMSU=  1.36D-08    CP:  1.00D+00  1.01D+00  4.22D-01  4.40D-01  7.08D-01
                    CP:  7.85D-01
 E= -1119.72363869637     Delta-E=       -0.000000000043 Rises=F Damp=F
 DIIS: error= 1.07D-07 at cycle   7 NSaved=   7.
 NSaved= 7 IEnMin= 7 EnMin= -1119.72363869637     IErMin= 7 ErrMin= 1.07D-07
 ErrMax= 1.07D-07  0.00D+00 EMaxC= 1.00D-01 BMatC= 6.04D-12 BMatP= 3.78D-11
 IDIUse=1 WtCom= 1.00D+00 WtEn= 0.00D+00
 Coeff-Com: -0.188D-03 0.168D-01 0.135D-01 0.228D-01 0.100D+00 0.350D+00
 Coeff-Com:  0.497D+00
 Coeff:     -0.188D-03 0.168D-01 0.135D-01 0.228D-01 0.100D+00 0.350D+00
 Coeff:      0.497D+00
 Gap=     0.179 Goal=   None    Shift=    0.000
 RMSDP=8.52D-09 MaxDP=2.80D-07 DE=-4.32D-11 OVMax= 7.45D-07

 SCF Done:  E(RB3LYP) =  -1119.72363870     A.U. after   14 cycles
            NFock= 14  Conv=0.85D-08     -V/T= 2.0098
 KE= 1.108892171434D+03 PE=-8.230060506264D+03 EE= 3.182856577426D+03
 Leave Link  502 at Fri Aug 21 10:03:08 2026, MaxMem=   104857600 cpu:             304.3 elap:             304.7
 (Enter /sw/cluster/pub/apps//g16/l601.exe)
 Copying SCF densities to generalized density rwf, IOpCl= 0 IROHF=0.

 **********************************************************************

            Population analysis using the SCF density.

 **********************************************************************

 Alpha  occ. eigenvalues --  -10.20269 -10.20268 -10.19048 -10.18347 -10.18347
 Alpha  occ. eigenvalues --  -10.18268 -10.18268 -10.18256 -10.18256 -10.18236
 Alpha  occ. eigenvalues --  -10.18236 -10.18184 -10.18184 -10.18126 -10.18124
 Alpha  occ. eigenvalues --  -10.18091 -10.18091 -10.18057 -10.18057 -10.17989
 Alpha  occ. eigenvalues --  -10.17989 -10.17947 -10.17946 -10.17916 -10.17916
 Alpha  occ. eigenvalues --  -10.17855 -10.17854 -10.17746 -10.17745  -0.88732
 Alpha  occ. eigenvalues --   -0.87413  -0.83611  -0.83189  -0.81538  -0.79345
 Alpha  occ. eigenvalues --   -0.76882  -0.76076  -0.73566  -0.73160  -0.73024
 Alpha  occ. eigenvalues --   -0.71624  -0.70467  -0.70348  -0.67894  -0.63807
 Alpha  occ. eigenvalues --   -0.63701  -0.61618  -0.61199  -0.57724  -0.57407
 Alpha  occ. eigenvalues --   -0.56767  -0.56553  -0.55950  -0.54385  -0.50557
 Alpha  occ. eigenvalues --   -0.50000  -0.49180  -0.48427  -0.46913  -0.45829
 Alpha  occ. eigenvalues --   -0.44835  -0.44645  -0.43963  -0.43720  -0.43298
 Alpha  occ. eigenvalues --   -0.43075  -0.42655  -0.42565  -0.41017  -0.40991
 Alpha  occ. eigenvalues --   -0.40868  -0.40658  -0.39393  -0.39318  -0.38151
 Alpha  occ. eigenvalues --   -0.37808  -0.37520  -0.37445  -0.37159  -0.36345
 Alpha  occ. eigenvalues --   -0.35297  -0.34076  -0.33867  -0.33567  -0.33251
 Alpha  occ. eigenvalues --   -0.33110  -0.32227  -0.31801  -0.31570  -0.30825
 Alpha  occ. eigenvalues --   -0.30468  -0.27660  -0.26599  -0.24844  -0.24836
 Alpha  occ. eigenvalues --   -0.23223  -0.22154  -0.20420  -0.20286
 Alpha virt. eigenvalues --   -0.02412  -0.01948  -0.00739   0.00241   0.01806
 Alpha virt. eigenvalues --    0.01812   0.05002   0.05178   0.07633   0.10162
 Alpha virt. eigenvalues --    0.10624   0.10659   0.11023   0.11709   0.12146
 Alpha virt. eigenvalues --    0.13595   0.14051   0.14315   0.14835   0.15098
 Alpha virt. eigenvalues --    0.15422   0.16375   0.16624   0.16718   0.17266
 Alpha virt. eigenvalues --    0.17418   0.18570   0.18715   0.18994   0.19209
 Alpha virt. eigenvalues --    0.20344   0.20880   0.21399   0.21966   0.22281
 Alpha virt. eigenvalues --    0.22659   0.23782   0.24254   0.24795   0.25606
 Alpha virt. eigenvalues --    0.25892   0.26278   0.27055   0.27336   0.27704
 Alpha virt. eigenvalues --    0.28452   0.29575   0.30146   0.30783   0.30903
 Alpha virt. eigenvalues --    0.32107   0.32911   0.33007   0.33525   0.37564
 Alpha virt. eigenvalues --    0.37716   0.38445   0.39695   0.40203   0.40507
 Alpha virt. eigenvalues --    0.41177   0.41535   0.42388   0.44351   0.47861
 Alpha virt. eigenvalues --    0.48513   0.49209   0.49600   0.50711   0.50818
 Alpha virt. eigenvalues --    0.51435   0.52023   0.53027   0.53061   0.54399
 Alpha virt. eigenvalues --    0.55106   0.55238   0.55537   0.55792   0.56003
 Alpha virt. eigenvalues --    0.56632   0.57073   0.57223   0.57603   0.57639
 Alpha virt. eigenvalues --    0.58005   0.58589   0.59177   0.59257   0.59856
 Alpha virt. eigenvalues --    0.60514   0.60850   0.61059   0.61324   0.61329
 Alpha virt. eigenvalues --    0.62314   0.63246   0.63669   0.63895   0.64850
 Alpha virt. eigenvalues --    0.64999   0.65390   0.66197   0.66241   0.66664
 Alpha virt. eigenvalues --    0.68287   0.69343   0.69945   0.71472   0.71990
 Alpha virt. eigenvalues --    0.72315   0.74311   0.74908   0.76525   0.76770
 Alpha virt. eigenvalues --    0.77879   0.77980   0.79086   0.79340   0.79361
 Alpha virt. eigenvalues --    0.79923   0.80050   0.80935   0.81545   0.82239
 Alpha virt. eigenvalues --    0.82612   0.82636   0.84130   0.84393   0.84472
 Alpha virt. eigenvalues --    0.84855   0.85331   0.85631   0.86183   0.86857
 Alpha virt. eigenvalues --    0.87049   0.87157   0.87733   0.88556   0.88918
 Alpha virt. eigenvalues --    0.89952   0.90868   0.91341   0.92099   0.92136
 Alpha virt. eigenvalues --    0.92534   0.93230   0.93816   0.93821   0.94472
 Alpha virt. eigenvalues --    0.95041   0.96448   0.96801   0.97122   0.97747
 Alpha virt. eigenvalues --    0.98730   0.99060   0.99567   0.99770   1.00600
 Alpha virt. eigenvalues --    1.01666   1.02724   1.03025   1.04094   1.04544
 Alpha virt. eigenvalues --    1.06017   1.06292   1.06591   1.06679   1.08998
 Alpha virt. eigenvalues --    1.10040   1.10881   1.13041   1.13257   1.14697
 Alpha virt. eigenvalues --    1.15567   1.16102   1.19414   1.21295   1.21645
 Alpha virt. eigenvalues --    1.23138   1.23371   1.24962   1.25282   1.25765
 Alpha virt. eigenvalues --    1.26093   1.26468   1.26788   1.28439   1.28750
 Alpha virt. eigenvalues --    1.30219   1.32538   1.33089   1.35264   1.35994
 Alpha virt. eigenvalues --    1.38169   1.39473   1.40604   1.42856   1.43296
 Alpha virt. eigenvalues --    1.43697   1.43997   1.44482   1.46171   1.46649
 Alpha virt. eigenvalues --    1.46943   1.47886   1.49259   1.49368   1.50073
 Alpha virt. eigenvalues --    1.50458   1.50812   1.51090   1.52191   1.52602
 Alpha virt. eigenvalues --    1.54200   1.54657   1.55556   1.55813   1.58360
 Alpha virt. eigenvalues --    1.59504   1.61823   1.62430   1.64694   1.68296
 Alpha virt. eigenvalues --    1.69410   1.71512   1.74123   1.76509   1.78129
 Alpha virt. eigenvalues --    1.78360   1.79517   1.79821   1.79885   1.80369
 Alpha virt. eigenvalues --    1.82802   1.83555   1.84606   1.85028   1.86448
 Alpha virt. eigenvalues --    1.86539   1.89047   1.89759   1.90046   1.90816
 Alpha virt. eigenvalues --    1.92277   1.92550   1.92957   1.94084   1.94509
 Alpha virt. eigenvalues --    1.94654   1.96027   1.96492   1.97788   1.98545
 Alpha virt. eigenvalues --    1.99054   1.99751   1.99905   2.01308   2.02590
 Alpha virt. eigenvalues --    2.03405   2.04715   2.04832   2.07031   2.07127
 Alpha virt. eigenvalues --    2.07683   2.09816   2.10646   2.11162   2.11319
 Alpha virt. eigenvalues --    2.12082   2.14553   2.16031   2.17379   2.19016
 Alpha virt. eigenvalues --    2.19276   2.20637   2.21373   2.21930   2.22175
 Alpha virt. eigenvalues --    2.22940   2.23537   2.23610   2.25349   2.26407
 Alpha virt. eigenvalues --    2.27043   2.27523   2.27831   2.28418   2.28490
 Alpha virt. eigenvalues --    2.30149   2.30399   2.31701   2.32148   2.32514
 Alpha virt. eigenvalues --    2.33944   2.33962   2.34252   2.35704   2.36777
 Alpha virt. eigenvalues --    2.37094   2.40782   2.43089   2.43616   2.44227
 Alpha virt. eigenvalues --    2.45133   2.47157   2.48280   2.49827   2.50095
 Alpha virt. eigenvalues --    2.54531   2.57372   2.58618   2.60944   2.62275
 Alpha virt. eigenvalues --    2.63046   2.63556   2.65431   2.65996   2.67296
 Alpha virt. eigenvalues --    2.67710   2.69442   2.70734   2.71448   2.71462
 Alpha virt. eigenvalues --    2.71955   2.71985   2.72860   2.73014   2.74953
 Alpha virt. eigenvalues --    2.75125   2.77959   2.79130   2.80515   2.81165
 Alpha virt. eigenvalues --    2.83986   2.84694   2.85318   2.86406   2.88198
 Alpha virt. eigenvalues --    2.88282   2.94538   2.96586   2.97770   3.02164
 Alpha virt. eigenvalues --    3.03504   3.08895   3.12028   3.15246   3.30124
 Alpha virt. eigenvalues --    3.31618   3.36834   3.37262   3.51893   3.52640
 Alpha virt. eigenvalues --    4.05581   4.07185   4.09012   4.13667   4.13934
 Alpha virt. eigenvalues --    4.14550   4.17592   4.18359   4.19399   4.23862
 Alpha virt. eigenvalues --    4.25011   4.27943   4.29417   4.30414   4.32773
 Alpha virt. eigenvalues --    4.35108   4.36154   4.42502   4.44079   4.46040
 Alpha virt. eigenvalues --    4.48001   4.48966   4.53420   4.67554   4.69117
 Alpha virt. eigenvalues --    4.82591   4.86576   4.86896   4.94652
          Condensed to atoms (all electrons):
 Mulliken charges:
               1
     1  C   -0.064739
     2  C   -0.064732
     3  H    0.133538
     4  H    0.133544
     5  C    0.090532
     6  C    0.102328
     7  C    0.096558
     8  C    0.086654
     9  C    0.096518
    10  C    0.086626
    11  C    0.090587
    12  C    0.102330
    13  C   -0.209598
    14  C   -0.184025
    15  C   -0.133406
    16  C   -0.122589
    17  C   -0.137995
    18  C   -0.136951
    19  C   -0.181414
    20  C   -0.193179
    21  H    0.124017
    22  H    0.125742
    23  H    0.122944
    24  H    0.121496
    25  H    0.122340
    26  H    0.122519
    27  H    0.119672
    28  H    0.121348
    29  C   -0.193171
    30  C   -0.181436
    31  C   -0.138004
    32  C   -0.136944
    33  C   -0.122602
    34  C   -0.133397
    35  C   -0.209629
    36  C   -0.183984
    37  H    0.119675
    38  H    0.121344
    39  H    0.122519
    40  H    0.122339
    41  H    0.121498
    42  H    0.122944
    43  H    0.124013
    44  H    0.125742
    45  C   -0.443102
    46  H    0.159284
    47  H    0.141552
    48  H    0.143592
    49  C   -0.254238
    50  C   -0.443098
    51  H    0.141555
    52  H    0.143601
    53  H    0.159281
 Sum of Mulliken charges =  -0.00000
 Mulliken charges with hydrogens summed into heavy atoms:
               1
     1  C   -0.064739
     2  C   -0.064732
     5  C    0.090532
     6  C    0.102328
     7  C    0.096558
     8  C    0.086654
     9  C    0.096518
    10  C    0.086626
    11  C    0.090587
    12  C    0.102330
    13  C   -0.089926
    14  C   -0.062677
    15  C   -0.011066
    16  C   -0.000070
    17  C   -0.016499
    18  C   -0.014007
    19  C   -0.055673
    20  C   -0.069161
    29  C   -0.069157
    30  C   -0.055695
    31  C   -0.016506
    32  C   -0.013999
    33  C   -0.000083
    34  C   -0.011058
    35  C   -0.089954
    36  C   -0.062640
    45  C    0.001326
    49  C    0.012844
    50  C    0.001339
 Electronic spatial extent (au):  <R**2>=           7604.9772
 Charge=             -0.0000 electrons
 Dipole moment (field-independent basis, Debye):
    X=              0.1449    Y=             -0.4849    Z=              0.0613  Tot=              0.5098
 Quadrupole moment (field-independent basis, Debye-Ang):
   XX=           -154.3961   YY=           -153.4334   ZZ=           -176.5102
   XY=             -0.4934   XZ=             -0.3529   YZ=             -3.0979
 Traceless Quadrupole moment (field-independent basis, Debye-Ang):
   XX=              7.0504   YY=              8.0132   ZZ=            -15.0636
   XY=             -0.4934   XZ=             -0.3529   YZ=             -3.0979
 Octapole moment (field-independent basis, Debye-Ang**2):
  XXX=             -4.1078  YYY=             15.9669  ZZZ=              0.2513  XYY=             -1.2894
  XXY=              4.4924  XXZ=             -2.2493  XZZ=             -0.5125  YZZ=             -0.6926
  YYZ=             -0.5095  XYZ=              2.7543
 Hexadecapole moment (field-independent basis, Debye-Ang**3):
 XXXX=          -4420.2667 YYYY=          -2606.9507 ZZZZ=          -3209.1945 XXXY=           -349.6156
 XXXZ=           -291.8712 YYYX=           -339.2324 YYYZ=           -135.4310 ZZZX=           -335.9644
 ZZZY=           -162.2616 XXYY=          -1169.4945 XXZZ=          -1349.5697 YYZZ=           -961.2486
 XXYZ=            -57.9780 YYXZ=           -105.7450 ZZXY=           -150.4311
 N-N= 2.818588118708D+03 E-N=-8.230060443645D+03  KE= 1.108892171434D+03
 No NMR shielding tensors so no spin-rotation constants.
 Leave Link  601 at Fri Aug 21 10:03:08 2026, MaxMem=   104857600 cpu:               0.2 elap:               0.2
 (Enter /sw/cluster/pub/apps//g16/l9999.exe)
 1\1\GINC-N05\SP\RB3LYP\6-31G(d)\C29H24\UNKNOWN\21-Aug-2026\0\\#p b3lyp
 /6-31g(d) nosymm density=current sp EmpiricalDispersion=GD3BJ\\Generat
 ed by extraQ₂ - dispersion correction\\0,1\C,0,0.56054188,-1.1782349
 9,1.50465751\C,0,0.27016843,-1.60157475,-1.15257861\H,0,1.65784925,-2.
 5177592,0.23470651\H,0,-0.01278863,-2.98791548,0.46270308\C,0,-0.67902
 767,-0.28878281,1.56026887\C,0,-1.22974684,-1.36432447,-1.31420002\C,0
 ,-1.48988761,-0.02213594,-1.64987728\C,0,-0.31522672,1.07157711,1.5343
 2804\C,0,1.14814877,1.16575971,1.50465751\C,0,-0.21001568,0.68612436,-
 1.75711266\C,0,0.83230294,-0.22415479,-1.4952547\C,0,1.67874687,-0.138
 18873,1.50465751\C,0,3.0515937,-0.33965793,1.52290041\C,0,2.156794,0.1
 7981337,-1.59674409\C,0,3.90211219,0.77205682,1.51293486\C,0,2.4397625
 4,1.51074965,-1.91495405\C,0,1.4035174,2.42286448,-2.14154273\C,0,3.37
 51946,2.06682986,1.48812274\C,0,1.99373104,2.27321537,1.48758704\C,0,0
 .07064371,2.01554829,-2.0719258\H,0,-0.73293363,2.72233616,-2.26025224
 \H,0,1.588182,3.28090591,1.46980775\H,0,4.0468105,2.92079249,1.4738789
 9\H,0,1.6394102,3.45654311,-2.37923209\H,0,4.97897581,0.62796423,1.523
 89094\H,0,3.47236604,1.84154796,-1.97082482\H,0,3.46730039,-1.34460201
 ,1.53398862\H,0,2.96683522,-0.51574286,-1.40192294\C,0,-1.2909371,2.06
 798621,1.5546062\C,0,-2.79879101,0.42088515,-1.8294956\C,0,-2.63343653
 ,1.69292038,1.62043952\C,0,-3.84542735,-0.4931907,-1.68790335\C,0,-2.9
 9353853,0.3424343,1.68058255\C,0,-3.58546877,-1.83163684,-1.37859234\C
 ,0,-2.2706069,-2.27380698,-1.1914144\C,0,-2.01486044,-0.65474269,1.657
 11453\H,0,-2.0750437,-3.31446085,-0.9431395\H,0,-2.30455439,-1.7003697
 5,1.68292559\H,0,-4.04198084,0.06467197,1.7299163\H,0,-4.40969234,-2.5
 3299411,-1.28230689\H,0,-3.40641058,2.45649553,1.63051716\H,0,-4.87122
 83,-0.16191337,-1.82396615\H,0,-1.01229076,3.1177147,1.52030802\H,0,-3
 .00482154,1.45979217,-2.07125544\C,0,0.65321124,-2.05459315,2.77334778
 \H,0,0.66603862,-1.42930232,3.67086888\H,0,1.56703969,-2.65979131,2.76
 234651\H,0,-0.20417474,-2.73373138,2.83765555\C,0,0.63434703,-2.122862
 92,0.26892211\C,0,0.75318345,-2.65183446,-2.17715281\H,0,0.31360435,-3
 .6332842,-1.96502718\H,0,1.84366132,-2.75261441,-2.14279377\H,0,0.4656
 8143,-2.35854618,-3.19106829\\Version=ES64L-G16RevA.03\HF=-1119.723638
 7\RMSD=8.517e-09\Dipole=0.057021,-0.1907838,0.0241012\Quadrupole=5.241
 8116,5.9576102,-11.1994218,-0.3668277,-0.2624016,-2.3032197\PG=C01 [X(
 C29H24)]\\@


 In the beginning there was nothing, which exploded.
 Job cpu time:       0 days  0 hours  5 minutes 18.6 seconds.
 Elapsed time:       0 days  0 hours  5 minutes 19.1 seconds.
 File lengths (MBytes):  RWF=    128 Int=      0 D2E=      0 Chk=     15 Scr=      1
 Normal termination of Gaussian 16 at Fri Aug 21 10:03:08 2026.
