%chk=f2_SP.chk
#p b3lyp/6-31g(d) nosymm density=current sp EmpiricalDispersion=GD3BJ

Generated by extraQ₂ - dispersion correction

0 1
C         0.56054188      -1.17823499       1.50465751
C         0.27016843      -1.60157475      -1.15257861
H         1.65784925      -2.51775920       0.23470651
H        -0.01278863      -2.98791548       0.46270308
C        -0.67902767      -0.28878281       1.56026887
C        -1.22974684      -1.36432447      -1.31420002
C        -1.48988761      -0.02213594      -1.64987728
C        -0.31522672       1.07157711       1.53432804
C         1.14814877       1.16575971       1.50465751
C        -0.21001568       0.68612436      -1.75711266
C         0.83230294      -0.22415479      -1.49525470
C         1.67874687      -0.13818873       1.50465751
C         3.05159370      -0.33965793       1.52290041
C         2.15679400       0.17981337      -1.59674409
C         3.90211219       0.77205682       1.51293486
C         2.43976254       1.51074965      -1.91495405
C         1.40351740       2.42286448      -2.14154273
C         3.37519460       2.06682986       1.48812274
C         1.99373104       2.27321537       1.48758704
C         0.07064371       2.01554829      -2.07192580
H        -0.73293363       2.72233616      -2.26025224
H         1.58818200       3.28090591       1.46980775
H         4.04681050       2.92079249       1.47387899
H         1.63941020       3.45654311      -2.37923209
H         4.97897581       0.62796423       1.52389094
H         3.47236604       1.84154796      -1.97082482
H         3.46730039      -1.34460201       1.53398862
H         2.96683522      -0.51574286      -1.40192294
C        -1.29093710       2.06798621       1.55460620
C        -2.79879101       0.42088515      -1.82949560
C        -2.63343653       1.69292038       1.62043952
C        -3.84542735      -0.49319070      -1.68790335
C        -2.99353853       0.34243430       1.68058255
C        -3.58546877      -1.83163684      -1.37859234
C        -2.27060690      -2.27380698      -1.19141440
C        -2.01486044      -0.65474269       1.65711453
H        -2.07504370      -3.31446085      -0.94313950
H        -2.30455439      -1.70036975       1.68292559
H        -4.04198084       0.06467197       1.72991630
H        -4.40969234      -2.53299411      -1.28230689
H        -3.40641058       2.45649553       1.63051716
H        -4.87122830      -0.16191337      -1.82396615
H        -1.01229076       3.11771470       1.52030802
H        -3.00482154       1.45979217      -2.07125544
C         0.65321124      -2.05459315       2.77334778
H         0.66603862      -1.42930232       3.67086888
H         1.56703969      -2.65979131       2.76234651
H        -0.20417474      -2.73373138       2.83765555
C         0.63434703      -2.12286292       0.26892211
C         0.75318345      -2.65183446      -2.17715281
H         0.31360435      -3.63328420      -1.96502718
H         1.84366132      -2.75261441      -2.14279377
H         0.46568143      -2.35854618      -3.19106829



