#p b3lyp/6-31g nosymm density=current sp

Verify additional points: Sm atoms correspond to centroids, Am to +1Å, and Lr to -1Å

0 1
C -0.894270 -0.607061 -0.291531
C -0.441768 -0.748577 -2.966981
H -2.287871 -0.354615 -1.907366
H -1.697988 -1.995321 -1.754008
C -2.004673 -0.912341 2.169382
H -1.870430 -1.775799 -4.269524
H -1.732604 -2.374791 0.596724
H -2.046320 -0.010047 -4.256386
H -0.698547 -0.761369 -5.135063
H -2.927436 -1.144765 0.246295
C -0.776187 0.901390 -0.085288
C -2.639129 0.459804 2.386821
C 0.373271 0.542810 -2.966981
C -1.755933 1.315651 3.071804
C 1.752652 0.258789 -2.966981
C 0.536277 1.249309 0.283436
C 1.348366 0.030293 0.330981
C 1.932684 -1.195715 -3.014080
C -0.525833 0.574038 3.366885
C 0.662276 -1.801926 -3.031217
C -0.660648 -0.737960 2.873062
C 0.531082 -1.067676 0.005325
C 1.050647 -2.354587 0.006953
C 0.341193 -1.673937 3.092160
C 0.541729 -3.181509 -3.119858
C 2.401137 -2.542825 0.310806
C 1.701582 -3.964272 -3.162018
C 1.505300 -1.281669 3.757865
C 2.963328 -3.363402 -3.120271
C 1.655025 0.032544 4.213586
C 3.216853 -1.449591 0.620652
C 2.694924 -0.155473 0.637803
C 0.636277 0.968069 4.029866
C 3.087943 -1.973857 -3.050406
H 4.070123 -1.510592 -3.019966
H 0.747362 1.984650 4.397240
H 3.326784 0.691039 0.891100
H 4.266297 -1.610195 0.852309
H 2.570330 0.324912 4.720918
H 3.855461 -3.983015 -3.147993
H 2.822046 -3.543486 0.290203
H 1.620864 -5.045788 -3.228178
H 2.305817 -1.999810 3.906840
H 0.427809 -3.207217 -0.244518
H -0.437112 -3.654996 -3.145486
H 0.243515 -2.689796 2.723964
C 0.874850 2.579109 0.526028
C -2.126209 2.626707 3.364184
C 2.690815 1.290628 -2.945262
C -0.109361 3.559392 0.392480
C -3.393607 3.071219 2.980331
C 2.238075 2.610409 -2.944682
C -1.410697 3.215352 0.012089
C -4.280024 2.213721 2.321724
C 0.868504 2.893182 -2.984476
C -3.904597 0.898433 2.023715
C -0.069812 1.858122 -3.004150
C -1.746979 1.881957 -0.234031
H -4.595823 0.238127 1.504889
H -1.130109 2.087828 -3.013611
H -2.762325 1.622439 -0.516637
H -2.170005 3.986272 -0.077614
H -5.266878 2.570473 2.039914
H 0.529394 3.924563 -2.983206
H 0.137694 4.600183 0.583551
H -3.695613 4.091462 3.200528
H 2.955233 3.426323 -2.919849
H 1.888139 2.849489 0.809103
H -1.440929 3.295459 3.877392
H 3.755093 1.071995 -2.929332
C -1.922381 -1.296042 0.661244
C -1.318856 -0.829093 -4.236556
C -1.378821 -0.945054 -1.737390
C -2.844720 -1.997675 2.879353
H -3.831055 -2.095095 2.411135
H -2.344208 -2.970807 2.825180
H -2.988384 -1.741815 3.933191
Sm   1.814924 -2.580113 -3.082975
Am   1.814979 -2.634733 -2.084468
Lr   1.814868 -2.525494 -4.081482
Sm   0.855823 -0.588924 -2.989248
Am   0.865611 -0.616481 -1.989676
Lr   0.846035 -0.561367 -3.988820
Sm   1.308918  1.575657 -2.968755
Am   1.290464  1.578481 -1.968930
Lr   1.327371  1.572832 -3.968581
Sm   1.873835 -1.256643  0.318753
Am   1.638776 -1.359369  1.285291
Lr   2.108894 -1.153918 -0.647784
Sm   0.149054  0.101251  0.048585
Am  -0.087589 -0.013485  1.013383
Lr   0.385697  0.215987 -0.916214
Sm  -0.438683  2.231085  0.149119
Am  -0.686919  2.119403  1.111359
Lr  -0.190446  2.342766 -0.813121