 Entering Gaussian System, Link 0=g16
 Initial command:
 /sw/cluster/pub/apps//g16/l1.exe "/data/mmaximo/52004/Gau-4139009.inp" -scrdir="/data/mmaximo/52004/"
 Entering Link 1 = /sw/cluster/pub/apps//g16/l1.exe PID=   4139018.
  
 Copyright (c) 1988,1990,1992,1993,1995,1998,2003,2009,2016,
            Gaussian, Inc.  All Rights Reserved.
  
 This is part of the Gaussian(R) 16 program.  It is based on
 the Gaussian(R) 09 system (copyright 2009, Gaussian, Inc.),
 the Gaussian(R) 03 system (copyright 2003, Gaussian, Inc.),
 the Gaussian(R) 98 system (copyright 1998, Gaussian, Inc.),
 the Gaussian(R) 94 system (copyright 1995, Gaussian, Inc.),
 the Gaussian 92(TM) system (copyright 1992, Gaussian, Inc.),
 the Gaussian 90(TM) system (copyright 1990, Gaussian, Inc.),
 the Gaussian 88(TM) system (copyright 1988, Gaussian, Inc.),
 the Gaussian 86(TM) system (copyright 1986, Carnegie Mellon
 University), and the Gaussian 82(TM) system (copyright 1983,
 Carnegie Mellon University). Gaussian is a federally registered
 trademark of Gaussian, Inc.
  
 This software contains proprietary and confidential information,
 including trade secrets, belonging to Gaussian, Inc.
  
 This software is provided under written license and may be
 used, copied, transmitted, or stored only in accord with that
 written license.
  
 The following legend is applicable only to US Government
 contracts under FAR:
  
                    RESTRICTED RIGHTS LEGEND
  
 Use, reproduction and disclosure by the US Government is
 subject to restrictions as set forth in subparagraphs (a)
 and (c) of the Commercial Computer Software - Restricted
 Rights clause in FAR 52.227-19.
  
 Gaussian, Inc.
 340 Quinnipiac St., Bldg. 40, Wallingford CT 06492
  
  
 ---------------------------------------------------------------
 Warning -- This program may not be used in any manner that
 competes with the business of Gaussian, Inc. or will provide
 assistance to any competitor of Gaussian, Inc.  The licensee
 of this program is prohibited from giving any competitor of
 Gaussian, Inc. access to this program.  By using this program,
 the user acknowledges that Gaussian, Inc. is engaged in the
 business of creating and licensing software in the field of
 computational chemistry and represents and warrants to the
 licensee that it is not a competitor of Gaussian, Inc. and that
 it will not use this program in any manner prohibited above.
 ---------------------------------------------------------------
  

 Cite this work as:
 Gaussian 16, Revision A.03,
 M. J. Frisch, G. W. Trucks, H. B. Schlegel, G. E. Scuseria, 
 M. A. Robb, J. R. Cheeseman, G. Scalmani, V. Barone, 
 G. A. Petersson, H. Nakatsuji, X. Li, M. Caricato, A. V. Marenich, 
 J. Bloino, B. G. Janesko, R. Gomperts, B. Mennucci, H. P. Hratchian, 
 J. V. Ortiz, A. F. Izmaylov, J. L. Sonnenberg, D. Williams-Young, 
 F. Ding, F. Lipparini, F. Egidi, J. Goings, B. Peng, A. Petrone, 
 T. Henderson, D. Ranasinghe, V. G. Zakrzewski, J. Gao, N. Rega, 
 G. Zheng, W. Liang, M. Hada, M. Ehara, K. Toyota, R. Fukuda, 
 J. Hasegawa, M. Ishida, T. Nakajima, Y. Honda, O. Kitao, H. Nakai, 
 T. Vreven, K. Throssell, J. A. Montgomery, Jr., J. E. Peralta, 
 F. Ogliaro, M. J. Bearpark, J. J. Heyd, E. N. Brothers, K. N. Kudin, 
 V. N. Staroverov, T. A. Keith, R. Kobayashi, J. Normand, 
 K. Raghavachari, A. P. Rendell, J. C. Burant, S. S. Iyengar, 
 J. Tomasi, M. Cossi, J. M. Millam, M. Klene, C. Adamo, R. Cammi, 
 J. W. Ochterski, R. L. Martin, K. Morokuma, O. Farkas, 
 J. B. Foresman, and D. J. Fox, Gaussian, Inc., Wallingford CT, 2016.
 
 ******************************************
 Gaussian 16:  ES64L-G16RevA.03 25-Dec-2016
                20-Aug-2026 
 ******************************************
 %chk=f1.chk
 ----------------------------------------------------
 #p opt freq b3lyp/6-31g(d) EmpiricalDispersion=GD3BJ
 ----------------------------------------------------
 1/18=20,19=15,26=3,38=1/1,3;
 2/9=110,12=2,17=6,18=5,40=1/2;
 3/5=1,6=6,7=1,11=2,25=1,30=1,71=1,74=-5,124=41/1,2,3;
 4//1;
 5/5=2,38=5/2;
 6/7=2,8=2,9=2,10=2,28=1/1;
 7//1,2,3,16;
 1/18=20,19=15,26=3/3(2);
 2/9=110/2;
 99//99;
 2/9=110/2;
 3/5=1,6=6,7=1,11=2,25=1,30=1,71=1,74=-5,124=41/1,2,3;
 4/5=5,16=3,69=1/1;
 5/5=2,38=5/2;
 7//1,2,3,16;
 1/18=20,19=15,26=3/3(-5);
 2/9=110/2;
 6/7=2,8=2,9=2,10=2,19=2,28=1/1;
 99/9=1/99;
 Leave Link    1 at Thu Aug 20 09:59:37 2026, MaxMem=           0 cpu:               0.0 elap:               0.0
 (Enter /sw/cluster/pub/apps//g16/l101.exe)
 ------------------------------
 OPT F1 - dispersion correction
 ------------------------------
 Symbolic Z-matrix:
 Charge =  0 Multiplicity = 1
 C                     0.00468  -0.00976   0.0399 
 C                    -0.04442  -1.53762   0.05212 
 C                     1.25515  -2.08255   0.03278 
 C                     2.22309  -0.978     0.00747 
 C                     1.51251   0.23896   0.01131 
 C                     2.19661   1.44928  -0.00993 
 C                     3.59641   1.44228  -0.03495 
 C                     4.30058   0.23374  -0.03862 
 C                     3.61916  -0.9853   -0.01755 
 H                     4.17143  -1.92176  -0.02068 
 H                     5.38719   0.24329  -0.05813 
 H                     4.13996   2.38324  -0.05169 
 H                     1.65842   2.39456  -0.00744 
 C                     1.44614  -3.46572   0.03935 
 C                     0.32743  -4.30154   0.06541 
 C                    -0.96297  -3.76206   0.08471 
 C                    -1.15407  -2.37513   0.07812 
 H                    -2.16185  -1.96617   0.09321 
 H                    -1.82418  -4.42468   0.10491 
 H                     0.46062  -5.38017   0.07078 
 H                     2.44711  -3.88965   0.02446 
 C                    -0.64101   0.58466   1.312 
 H                    -0.16733   0.18958   2.2163 
 H                    -0.54198   1.67634   1.32268 
 H                    -1.70967   0.34382   1.35207 
 C                    -0.68566   0.56537  -1.21755 
 H                    -1.75522   0.3249   -1.21604 
 H                    -0.5866    1.65668  -1.24882 
 H                    -0.24451   0.15575  -2.13179 
 
 ITRead=  0  0  0  0  0  0  0  0  0  0  0  0  0  0  0  0  0  0  0  0
 ITRead=  0  0  0  0  0  0  0  0  0
 MicOpt= -1 -1 -1 -1 -1 -1 -1 -1 -1 -1 -1 -1 -1 -1 -1 -1 -1 -1 -1 -1
 MicOpt= -1 -1 -1 -1 -1 -1 -1 -1 -1
 NAtoms=     29 NQM=       29 NQMF=       0 NMMI=      0 NMMIF=      0
                NMic=       0 NMicF=      0.
                    Isotopes and Nuclear Properties:
 (Nuclear quadrupole moments (NQMom) in fm**2, nuclear magnetic moments (NMagM)
  in nuclear magnetons)

  Atom         1           2           3           4           5           6           7           8           9          10
 IAtWgt=          12          12          12          12          12          12          12          12          12           1
 AtmWgt=  12.0000000  12.0000000  12.0000000  12.0000000  12.0000000  12.0000000  12.0000000  12.0000000  12.0000000   1.0078250
 NucSpn=           0           0           0           0           0           0           0           0           0           1
 AtZEff=  -0.0000000  -0.0000000  -0.0000000  -0.0000000  -0.0000000  -0.0000000  -0.0000000  -0.0000000  -0.0000000  -0.0000000
 NQMom=    0.0000000   0.0000000   0.0000000   0.0000000   0.0000000   0.0000000   0.0000000   0.0000000   0.0000000   0.0000000
 NMagM=    0.0000000   0.0000000   0.0000000   0.0000000   0.0000000   0.0000000   0.0000000   0.0000000   0.0000000   2.7928460
 AtZNuc=   6.0000000   6.0000000   6.0000000   6.0000000   6.0000000   6.0000000   6.0000000   6.0000000   6.0000000   1.0000000

  Atom        11          12          13          14          15          16          17          18          19          20
 IAtWgt=           1           1           1          12          12          12          12           1           1           1
 AtmWgt=   1.0078250   1.0078250   1.0078250  12.0000000  12.0000000  12.0000000  12.0000000   1.0078250   1.0078250   1.0078250
 NucSpn=           1           1           1           0           0           0           0           1           1           1
 AtZEff=  -0.0000000  -0.0000000  -0.0000000  -0.0000000  -0.0000000  -0.0000000  -0.0000000  -0.0000000  -0.0000000  -0.0000000
 NQMom=    0.0000000   0.0000000   0.0000000   0.0000000   0.0000000   0.0000000   0.0000000   0.0000000   0.0000000   0.0000000
 NMagM=    2.7928460   2.7928460   2.7928460   0.0000000   0.0000000   0.0000000   0.0000000   2.7928460   2.7928460   2.7928460
 AtZNuc=   1.0000000   1.0000000   1.0000000   6.0000000   6.0000000   6.0000000   6.0000000   1.0000000   1.0000000   1.0000000

  Atom        21          22          23          24          25          26          27          28          29
 IAtWgt=           1          12           1           1           1          12           1           1           1
 AtmWgt=   1.0078250  12.0000000   1.0078250   1.0078250   1.0078250  12.0000000   1.0078250   1.0078250   1.0078250
 NucSpn=           1           0           1           1           1           0           1           1           1
 AtZEff=  -0.0000000  -0.0000000  -0.0000000  -0.0000000  -0.0000000  -0.0000000  -0.0000000  -0.0000000  -0.0000000
 NQMom=    0.0000000   0.0000000   0.0000000   0.0000000   0.0000000   0.0000000   0.0000000   0.0000000   0.0000000
 NMagM=    2.7928460   0.0000000   2.7928460   2.7928460   2.7928460   0.0000000   2.7928460   2.7928460   2.7928460
 AtZNuc=   1.0000000   6.0000000   1.0000000   1.0000000   1.0000000   6.0000000   1.0000000   1.0000000   1.0000000
 Leave Link  101 at Thu Aug 20 09:59:37 2026, MaxMem=   104857600 cpu:               0.0 elap:               0.0
 (Enter /sw/cluster/pub/apps//g16/l103.exe)

 GradGradGradGradGradGradGradGradGradGradGradGradGradGradGradGradGradGrad
 Berny optimization.
 Initialization pass.
                           ----------------------------
                           !    Initial Parameters    !
                           ! (Angstroms and Degrees)  !
 --------------------------                            --------------------------
 ! Name  Definition              Value          Derivative Info.                !
 --------------------------------------------------------------------------------
 ! R1    R(1,2)                  1.5287         estimate D2E/DX2                !
 ! R2    R(1,5)                  1.5285         estimate D2E/DX2                !
 ! R3    R(1,22)                 1.5455         estimate D2E/DX2                !
 ! R4    R(1,26)                 1.5455         estimate D2E/DX2                !
 ! R5    R(2,3)                  1.4093         estimate D2E/DX2                !
 ! R6    R(2,17)                 1.3905         estimate D2E/DX2                !
 ! R7    R(3,4)                  1.4689         estimate D2E/DX2                !
 ! R8    R(3,14)                 1.3963         estimate D2E/DX2                !
 ! R9    R(4,5)                  1.4092         estimate D2E/DX2                !
 ! R10   R(4,9)                  1.3963         estimate D2E/DX2                !
 ! R11   R(5,6)                  1.3904         estimate D2E/DX2                !
 ! R12   R(6,7)                  1.4            estimate D2E/DX2                !
 ! R13   R(6,13)                 1.0878         estimate D2E/DX2                !
 ! R14   R(7,8)                  1.3987         estimate D2E/DX2                !
 ! R15   R(7,12)                 1.0868         estimate D2E/DX2                !
 ! R16   R(8,9)                  1.3967         estimate D2E/DX2                !
 ! R17   R(8,11)                 1.0868         estimate D2E/DX2                !
 ! R18   R(9,10)                 1.0872         estimate D2E/DX2                !
 ! R19   R(14,15)                1.3967         estimate D2E/DX2                !
 ! R20   R(14,21)                1.0871         estimate D2E/DX2                !
 ! R21   R(15,16)                1.3988         estimate D2E/DX2                !
 ! R22   R(15,20)                1.0868         estimate D2E/DX2                !
 ! R23   R(16,17)                1.4            estimate D2E/DX2                !
 ! R24   R(16,19)                1.0868         estimate D2E/DX2                !
 ! R25   R(17,18)                1.0877         estimate D2E/DX2                !
 ! R26   R(22,23)                1.0946         estimate D2E/DX2                !
 ! R27   R(22,24)                1.0962         estimate D2E/DX2                !
 ! R28   R(22,25)                1.0962         estimate D2E/DX2                !
 ! R29   R(26,27)                1.0963         estimate D2E/DX2                !
 ! R30   R(26,28)                1.0962         estimate D2E/DX2                !
 ! R31   R(26,29)                1.0946         estimate D2E/DX2                !
 ! A1    A(2,1,5)              101.2135         estimate D2E/DX2                !
 ! A2    A(2,1,22)             111.371          estimate D2E/DX2                !
 ! A3    A(2,1,26)             111.3517         estimate D2E/DX2                !
 ! A4    A(5,1,22)             111.4048         estimate D2E/DX2                !
 ! A5    A(5,1,26)             111.3999         estimate D2E/DX2                !
 ! A6    A(22,1,26)            109.8749         estimate D2E/DX2                !
 ! A7    A(1,2,3)              110.8991         estimate D2E/DX2                !
 ! A8    A(1,2,17)             128.8858         estimate D2E/DX2                !
 ! A9    A(3,2,17)             120.2151         estimate D2E/DX2                !
 ! A10   A(2,3,4)              108.4892         estimate D2E/DX2                !
 ! A11   A(2,3,14)             120.603          estimate D2E/DX2                !
 ! A12   A(4,3,14)             130.9078         estimate D2E/DX2                !
 ! A13   A(3,4,5)              108.4854         estimate D2E/DX2                !
 ! A14   A(3,4,9)              130.9374         estimate D2E/DX2                !
 ! A15   A(5,4,9)              120.5772         estimate D2E/DX2                !
 ! A16   A(1,5,4)              110.9129         estimate D2E/DX2                !
 ! A17   A(1,5,6)              128.8498         estimate D2E/DX2                !
 ! A18   A(4,5,6)              120.2373         estimate D2E/DX2                !
 ! A19   A(5,6,7)              119.1983         estimate D2E/DX2                !
 ! A20   A(5,6,13)             120.863          estimate D2E/DX2                !
 ! A21   A(7,6,13)             119.9387         estimate D2E/DX2                !
 ! A22   A(6,7,8)              120.5117         estimate D2E/DX2                !
 ! A23   A(6,7,12)             119.736          estimate D2E/DX2                !
 ! A24   A(8,7,12)             119.7522         estimate D2E/DX2                !
 ! A25   A(7,8,9)              120.5617         estimate D2E/DX2                !
 ! A26   A(7,8,11)             119.7218         estimate D2E/DX2                !
 ! A27   A(9,8,11)             119.7165         estimate D2E/DX2                !
 ! A28   A(4,9,8)              118.9138         estimate D2E/DX2                !
 ! A29   A(4,9,10)             120.8268         estimate D2E/DX2                !
 ! A30   A(8,9,10)             120.2594         estimate D2E/DX2                !
 ! A31   A(3,14,15)            118.9025         estimate D2E/DX2                !
 ! A32   A(3,14,21)            120.8075         estimate D2E/DX2                !
 ! A33   A(15,14,21)           120.29           estimate D2E/DX2                !
 ! A34   A(14,15,16)           120.5553         estimate D2E/DX2                !
 ! A35   A(14,15,20)           119.725          estimate D2E/DX2                !
 ! A36   A(16,15,20)           119.7197         estimate D2E/DX2                !
 ! A37   A(15,16,17)           120.5257         estimate D2E/DX2                !
 ! A38   A(15,16,19)           119.7451         estimate D2E/DX2                !
 ! A39   A(17,16,19)           119.7292         estimate D2E/DX2                !
 ! A40   A(2,17,16)            119.1984         estimate D2E/DX2                !
 ! A41   A(2,17,18)            120.8768         estimate D2E/DX2                !
 ! A42   A(16,17,18)           119.9248         estimate D2E/DX2                !
 ! A43   A(1,22,23)            111.1243         estimate D2E/DX2                !
 ! A44   A(1,22,24)            110.6894         estimate D2E/DX2                !
 ! A45   A(1,22,25)            110.6637         estimate D2E/DX2                !
 ! A46   A(23,22,24)           108.1974         estimate D2E/DX2                !
 ! A47   A(23,22,25)           108.2021         estimate D2E/DX2                !
 ! A48   A(24,22,25)           107.8485         estimate D2E/DX2                !
 ! A49   A(1,26,27)            110.6735         estimate D2E/DX2                !
 ! A50   A(1,26,28)            110.6897         estimate D2E/DX2                !
 ! A51   A(1,26,29)            111.1168         estimate D2E/DX2                !
 ! A52   A(27,26,28)           107.8525         estimate D2E/DX2                !
 ! A53   A(27,26,29)           108.1958         estimate D2E/DX2                !
 ! A54   A(28,26,29)           108.197          estimate D2E/DX2                !
 ! D1    D(5,1,2,3)             -0.015          estimate D2E/DX2                !
 ! D2    D(5,1,2,17)           179.9944         estimate D2E/DX2                !
 ! D3    D(22,1,2,3)          -118.5117         estimate D2E/DX2                !
 ! D4    D(22,1,2,17)           61.4978         estimate D2E/DX2                !
 ! D5    D(26,1,2,3)           118.4674         estimate D2E/DX2                !
 ! D6    D(26,1,2,17)          -61.5231         estimate D2E/DX2                !
 ! D7    D(2,1,5,4)              0.0126         estimate D2E/DX2                !
 ! D8    D(2,1,5,6)            179.9938         estimate D2E/DX2                !
 ! D9    D(22,1,5,4)           118.4848         estimate D2E/DX2                !
 ! D10   D(22,1,5,6)           -61.534          estimate D2E/DX2                !
 ! D11   D(26,1,5,4)          -118.435          estimate D2E/DX2                !
 ! D12   D(26,1,5,6)            61.5461         estimate D2E/DX2                !
 ! D13   D(2,1,22,23)           56.0788         estimate D2E/DX2                !
 ! D14   D(2,1,22,24)          176.3291         estimate D2E/DX2                !
 ! D15   D(2,1,22,25)          -64.1602         estimate D2E/DX2                !
 ! D16   D(5,1,22,23)          -56.1116         estimate D2E/DX2                !
 ! D17   D(5,1,22,24)           64.1387         estimate D2E/DX2                !
 ! D18   D(5,1,22,25)         -176.3506         estimate D2E/DX2                !
 ! D19   D(26,1,22,23)         179.9409         estimate D2E/DX2                !
 ! D20   D(26,1,22,24)         -59.8089         estimate D2E/DX2                !
 ! D21   D(26,1,22,25)          59.7019         estimate D2E/DX2                !
 ! D22   D(2,1,26,27)           64.2096         estimate D2E/DX2                !
 ! D23   D(2,1,26,28)         -176.268          estimate D2E/DX2                !
 ! D24   D(2,1,26,29)          -56.023          estimate D2E/DX2                !
 ! D25   D(5,1,26,27)          176.3859         estimate D2E/DX2                !
 ! D26   D(5,1,26,28)          -64.0917         estimate D2E/DX2                !
 ! D27   D(5,1,26,29)           56.1532         estimate D2E/DX2                !
 ! D28   D(22,1,26,27)         -59.6637         estimate D2E/DX2                !
 ! D29   D(22,1,26,28)          59.8587         estimate D2E/DX2                !
 ! D30   D(22,1,26,29)        -179.8964         estimate D2E/DX2                !
 ! D31   D(1,2,3,4)              0.0124         estimate D2E/DX2                !
 ! D32   D(1,2,3,14)          -179.9878         estimate D2E/DX2                !
 ! D33   D(17,2,3,4)          -179.9962         estimate D2E/DX2                !
 ! D34   D(17,2,3,14)            0.0036         estimate D2E/DX2                !
 ! D35   D(1,2,17,16)          179.9854         estimate D2E/DX2                !
 ! D36   D(1,2,17,18)           -0.0099         estimate D2E/DX2                !
 ! D37   D(3,2,17,16)           -0.0043         estimate D2E/DX2                !
 ! D38   D(3,2,17,18)         -179.9996         estimate D2E/DX2                !
 ! D39   D(2,3,4,5)             -0.0039         estimate D2E/DX2                !
 ! D40   D(2,3,4,9)           -179.9964         estimate D2E/DX2                !
 ! D41   D(14,3,4,5)           179.9964         estimate D2E/DX2                !
 ! D42   D(14,3,4,9)             0.0038         estimate D2E/DX2                !
 ! D43   D(2,3,14,15)            0.0011         estimate D2E/DX2                !
 ! D44   D(2,3,14,21)          179.9985         estimate D2E/DX2                !
 ! D45   D(4,3,14,15)         -179.9992         estimate D2E/DX2                !
 ! D46   D(4,3,14,21)           -0.0017         estimate D2E/DX2                !
 ! D47   D(3,4,5,1)             -0.0061         estimate D2E/DX2                !
 ! D48   D(3,4,5,6)           -179.9891         estimate D2E/DX2                !
 ! D49   D(9,4,5,1)            179.9873         estimate D2E/DX2                !
 ! D50   D(9,4,5,6)              0.0043         estimate D2E/DX2                !
 ! D51   D(3,4,9,8)            179.9962         estimate D2E/DX2                !
 ! D52   D(3,4,9,10)            -0.0042         estimate D2E/DX2                !
 ! D53   D(5,4,9,8)              0.0045         estimate D2E/DX2                !
 ! D54   D(5,4,9,10)          -179.996          estimate D2E/DX2                !
 ! D55   D(1,5,6,7)           -179.9871         estimate D2E/DX2                !
 ! D56   D(1,5,6,13)             0.0049         estimate D2E/DX2                !
 ! D57   D(4,5,6,7)             -0.0075         estimate D2E/DX2                !
 ! D58   D(4,5,6,13)           179.9845         estimate D2E/DX2                !
 ! D59   D(5,6,7,8)              0.002          estimate D2E/DX2                !
 ! D60   D(5,6,7,12)           179.9989         estimate D2E/DX2                !
 ! D61   D(13,6,7,8)          -179.9901         estimate D2E/DX2                !
 ! D62   D(13,6,7,12)            0.0068         estimate D2E/DX2                !
 ! D63   D(6,7,8,9)              0.0069         estimate D2E/DX2                !
 ! D64   D(6,7,8,11)          -179.9985         estimate D2E/DX2                !
 ! D65   D(12,7,8,9)          -179.9901         estimate D2E/DX2                !
 ! D66   D(12,7,8,11)            0.0046         estimate D2E/DX2                !
 ! D67   D(7,8,9,4)             -0.01           estimate D2E/DX2                !
 ! D68   D(7,8,9,10)           179.9904         estimate D2E/DX2                !
 ! D69   D(11,8,9,4)           179.9953         estimate D2E/DX2                !
 ! D70   D(11,8,9,10)           -0.0042         estimate D2E/DX2                !
 ! D71   D(3,14,15,16)          -0.005          estimate D2E/DX2                !
 ! D72   D(3,14,15,20)         179.998          estimate D2E/DX2                !
 ! D73   D(21,14,15,16)        179.9975         estimate D2E/DX2                !
 ! D74   D(21,14,15,20)          0.0005         estimate D2E/DX2                !
 ! D75   D(14,15,16,17)          0.0043         estimate D2E/DX2                !
 ! D76   D(14,15,16,19)       -179.9998         estimate D2E/DX2                !
 ! D77   D(20,15,16,17)       -179.9987         estimate D2E/DX2                !
 ! D78   D(20,15,16,19)         -0.0028         estimate D2E/DX2                !
 ! D79   D(15,16,17,2)           0.0004         estimate D2E/DX2                !
 ! D80   D(15,16,17,18)        179.9958         estimate D2E/DX2                !
 ! D81   D(19,16,17,2)        -179.9955         estimate D2E/DX2                !
 ! D82   D(19,16,17,18)         -0.0001         estimate D2E/DX2                !
 --------------------------------------------------------------------------------
 Trust Radius=3.00D-01 FncErr=1.00D-07 GrdErr=1.00D-06 EigMax=2.50D+02 EigMin=1.00D-04
 Number of steps in this run=    174 maximum allowed number of steps=    174.
 GradGradGradGradGradGradGradGradGradGradGradGradGradGradGradGradGradGrad

 Leave Link  103 at Thu Aug 20 09:59:37 2026, MaxMem=   104857600 cpu:               0.0 elap:               0.0
 (Enter /sw/cluster/pub/apps//g16/l202.exe)
                          Input orientation:                          
 ---------------------------------------------------------------------
 Center     Atomic      Atomic             Coordinates (Angstroms)
 Number     Number       Type             X           Y           Z
 ---------------------------------------------------------------------
      1          6           0        0.004675   -0.009757    0.039896
      2          6           0       -0.044423   -1.537621    0.052119
      3          6           0        1.255147   -2.082553    0.032779
      4          6           0        2.223085   -0.978003    0.007465
      5          6           0        1.512514    0.238959    0.011312
      6          6           0        2.196606    1.449284   -0.009929
      7          6           0        3.596408    1.442284   -0.034947
      8          6           0        4.300575    0.233743   -0.038624
      9          6           0        3.619162   -0.985297   -0.017553
     10          1           0        4.171435   -1.921761   -0.020677
     11          1           0        5.387194    0.243293   -0.058130
     12          1           0        4.139964    2.383239   -0.051688
     13          1           0        1.658417    2.394560   -0.007441
     14          6           0        1.446136   -3.465719    0.039353
     15          6           0        0.327427   -4.301536    0.065408
     16          6           0       -0.962970   -3.762060    0.084706
     17          6           0       -1.154071   -2.375132    0.078123
     18          1           0       -2.161849   -1.966173    0.093214
     19          1           0       -1.824180   -4.424676    0.104905
     20          1           0        0.460619   -5.380166    0.070783
     21          1           0        2.447112   -3.889652    0.024463
     22          6           0       -0.641007    0.584656    1.312001
     23          1           0       -0.167328    0.189582    2.216301
     24          1           0       -0.541982    1.676341    1.322677
     25          1           0       -1.709673    0.343820    1.352070
     26          6           0       -0.685656    0.565371   -1.217553
     27          1           0       -1.755220    0.324895   -1.216038
     28          1           0       -0.586603    1.656675   -1.248819
     29          1           0       -0.244505    0.155754   -2.131788
 ---------------------------------------------------------------------
                    Distance matrix (angstroms):
                    1          2          3          4          5
     1  C    0.000000
     2  C    1.528702   0.000000
     3  C    2.420788   1.409329   0.000000
     4  C    2.420722   2.335971   1.468869   0.000000
     5  C    1.528481   2.362616   2.335833   1.409228   0.000000
     6  C    2.633599   3.734657   3.655413   2.427494   1.390439
     7  C    3.874864   4.705642   4.232088   2.783093   2.406812
     8  C    4.303512   4.693077   3.826873   2.405497   2.788513
     9  C    3.744262   3.705640   2.606736   1.396320   2.436719
    10  H    4.584901   4.233949   2.921206   2.165072   3.426309
    11  H    5.389356   5.717191   4.742535   3.392264   3.875305
    12  H    4.778643   5.735243   5.317199   3.869867   3.391961
    13  H    2.918535   4.285471   4.495418   3.419540   2.160615
    14  C    3.744527   2.437107   1.396305   2.606415   3.705379
    15  C    4.303973   2.788848   2.405330   3.826584   4.692915
    16  C    3.875322   2.406848   2.782711   4.231771   4.705482
    17  C    2.634227   1.390475   2.427342   3.655427   3.734784
    18  H    2.919629   2.160750   3.419511   4.495718   4.286054
    19  H    4.779168   3.391962   3.869496   5.316898   5.735135
    20  H    5.389817   3.875638   3.392193   4.742292   5.717043
    21  H    4.584683   3.426450   2.164823   2.920304   4.233093
    22  C    1.545472   2.539148   3.513661   3.513793   2.539478
    23  H    2.192273   2.771646   3.457427   3.457786   2.772415
    24  H    2.187987   3.491623   4.361513   4.052273   2.829611
    25  H    2.187649   2.828913   4.051910   4.361395   3.491578
    26  C    1.545480   2.538862   3.513054   3.513324   2.539410
    27  H    2.187828   2.829137   4.051871   4.361355   3.491684
    28  H    2.188011   3.491407   4.360775   4.051435   2.829159
    29  H    2.192190   2.770740   3.456056   3.456994   2.772529
                    6          7          8          9         10
     6  C    0.000000
     7  C    1.400043   0.000000
     8  C    2.430031   1.398727   0.000000
     9  C    2.819736   2.427750   1.396720   0.000000
    10  H    3.906918   3.412867   2.159444   1.087189   0.000000
    11  H    3.411245   2.155233   1.086836   2.153373   2.483331
    12  H    2.156538   1.086798   2.155528   3.408729   4.305227
    13  H    1.087750   2.159490   3.413371   3.907436   4.994603
    14  C    4.972212   5.358888   4.673320   3.298147   3.132837
    15  C    6.047432   6.609673   6.030380   4.673312   4.521851
    16  C    6.095079   6.920075   6.609581   5.358806   5.455265
    17  C    5.085366   6.095285   6.047563   4.972379   5.345682
    18  H    5.538241   6.692647   6.827879   5.864680   6.334464
    19  H    7.119221   7.988964   7.696369   6.440054   6.498289
    20  H    7.047095   7.509339   6.802441   5.412862   5.073370
    21  H    5.344920   5.454718   4.521249   3.132211   2.616854
    22  C    3.247634   4.528298   5.134838   4.730910   5.587285
    23  H    3.482978   4.561040   5.004877   4.550599   5.318525
    24  H    3.054056   4.361674   5.233029   5.118169   6.080069
    25  H    4.282068   5.593294   6.170027   5.660292   6.450172
    26  C    3.247629   4.528091   5.134428   4.730331   5.586562
    27  H    4.282041   5.593162   6.169868   5.660119   6.449930
    28  H    3.053541   4.360852   5.231999   5.117078   6.078854
    29  H    3.483465   4.561197   5.004515   4.549715   5.317272
                   11         12         13         14         15
    11  H    0.000000
    12  H    2.476892   0.000000
    13  H    4.305148   2.481967   0.000000
    14  C    5.412782   6.440133   5.864309   0.000000
    15  C    6.802351   7.696452   6.827484   1.396703   0.000000
    16  C    7.509184   7.988945   6.692095   2.427688   1.398761
    17  C    7.047188   7.119393   5.537813   2.819922   2.430233
    18  H    7.867191   7.658409   5.798324   3.907569   3.413384
    19  H    8.591882   9.052251   7.657877   3.408645   2.155490
    20  H    7.477369   8.592033   7.866842   2.153448   1.086836
    21  H    5.072685   6.497746   6.333591   1.087149   2.159720
    22  C    6.191365   5.286987   3.209989   4.730892   5.134855
    23  H    6.002386   5.339351   3.624955   4.550120   5.004125
    24  H    6.254229   4.930436   2.669608   5.660416   6.170220
    25  H    7.236317   6.352009   4.171071   5.118100   5.233030
    26  C    6.190921   5.286823   3.210137   4.730120   5.134112
    27  H    7.236124   6.351825   4.170988   5.117953   5.232914
    28  H    6.253130   4.929650   2.669384   5.659535   6.169516
    29  H    6.001979   5.339670   3.625771   4.548317   5.002221
                   16         17         18         19         20
    16  C    0.000000
    17  C    1.400047   0.000000
    18  H    2.159304   1.087700   0.000000
    19  H    1.086808   2.156477   2.481611   0.000000
    20  H    2.155242   3.411379   4.305019   2.476779   0.000000
    21  H    3.413000   3.907067   4.994699   4.305422   2.483935
    22  C    4.528118   3.247466   3.210161   5.286812   6.191389
    23  H    4.559848   3.481842   3.623933   5.338027   6.001638
    24  H    5.593390   4.282289   4.171745   6.352118   7.236487
    25  H    4.361425   3.053577   2.669316   4.930222   6.254269
    26  C    4.527631   3.247268   3.210291   5.286369   6.190571
    27  H    4.361513   3.053912   2.669921   4.930322   6.254084
    28  H    5.593088   4.282320   4.172227   6.351928   7.235686
    29  H    4.558323   3.480862   3.623454   5.336526   5.999577
                   21         22         23         24         25
    21  H    0.000000
    22  C    5.586919   0.000000
    23  H    5.317857   1.094630   0.000000
    24  H    6.449831   1.096219   1.774650   0.000000
    25  H    6.079777   1.096200   1.774687   1.771998   0.000000
    26  C    5.586060   2.530022   3.493027   2.776268   2.775006
    27  H    6.079543   2.774874   3.784265   3.121446   2.568582
    28  H    6.448753   2.776686   3.786187   2.571958   3.122419
    29  H    5.315969   3.492972   4.348905   3.786028   3.784092
                   26         27         28         29
    26  C    0.000000
    27  H    1.096266   0.000000
    28  H    1.096236   1.772111   0.000000
    29  H    1.094635   1.774674   1.774663   0.000000
 Stoichiometry    C15H14
 Framework group  C1[X(C15H14)]
 Deg. of freedom    81
 Full point group                 C1      NOp   1
 Largest Abelian subgroup         C1      NOp   1
 Largest concise Abelian subgroup C1      NOp   1
                         Standard orientation:                         
 ---------------------------------------------------------------------
 Center     Atomic      Atomic             Coordinates (Angstroms)
 Number     Number       Type             X           Y           Z
 ---------------------------------------------------------------------
      1          6           0       -0.000255    1.416281   -0.000029
      2          6           0        1.181301    0.446305   -0.000200
      3          6           0        0.734475   -0.890315   -0.000099
      4          6           0       -0.734394   -0.890434   -0.000161
      5          6           0       -1.181315    0.446048   -0.000211
      6          6           0       -2.542631    0.729135   -0.000047
      7          6           0       -3.460138   -0.328363    0.000006
      8          6           0       -3.015327   -1.654477   -0.000062
      9          6           0       -1.649225   -1.945324   -0.000040
     10          1           0       -1.308930   -2.977884    0.000064
     11          1           0       -3.738826   -2.465502   -0.000045
     12          1           0       -4.526202   -0.117091    0.000151
     13          1           0       -2.898844    1.756906    0.000169
     14          6           0        1.648922   -1.945519    0.000031
     15          6           0        3.015053   -1.654892    0.000081
     16          6           0        3.459938   -0.328766   -0.000102
     17          6           0        2.542735    0.729001   -0.000247
     18          1           0        2.899480    1.756535   -0.000320
     19          1           0        4.526048   -0.117677   -0.000064
     20          1           0        3.738543   -2.465924    0.000215
     21          1           0        1.307924   -2.977805    0.000133
     22          6           0        0.000152    2.304579   -1.264707
     23          1           0        0.000770    1.695770   -2.174413
     24          1           0       -0.885888    2.949725   -1.285133
     25          1           0        0.886110    2.949841   -1.283912
     26          6           0        0.000374    2.303644    1.265315
     27          1           0        0.885987    2.949486    1.284669
     28          1           0       -0.886122    2.948156    1.286825
     29          1           0        0.001946    1.694038    2.174492
 ---------------------------------------------------------------------
 Rotational constants (GHZ):           1.0556965           0.5493218           0.3919087
 Leave Link  202 at Thu Aug 20 09:59:37 2026, MaxMem=   104857600 cpu:               0.0 elap:               0.0
 (Enter /sw/cluster/pub/apps//g16/l301.exe)
 Standard basis: 6-31G(d) (6D, 7F)
 Ernie: Thresh=  0.10000D-02 Tol=  0.10000D-05 Strict=F.
 There are   253 symmetry adapted cartesian basis functions of A   symmetry.
 There are   253 symmetry adapted basis functions of A   symmetry.
   253 basis functions,   476 primitive gaussians,   253 cartesian basis functions
    52 alpha electrons       52 beta electrons
       nuclear repulsion energy       926.0282672228 Hartrees.
 IExCor=  402 DFT=T Ex+Corr=B3LYP ExCW=0 ScaHFX=  0.200000
 ScaDFX=  0.800000  0.720000  1.000000  0.810000 ScalE2=  1.000000  1.000000
 IRadAn=      5 IRanWt=     -1 IRanGd=            0 ICorTp=0 IEmpDi=141
 NAtoms=   29 NActive=   29 NUniq=   29 SFac= 1.00D+00 NAtFMM=   60 NAOKFM=F Big=F
 Integral buffers will be    131072 words long.
 Raffenetti 2 integral format.
 Two-electron integral symmetry is turned on.
 R6Disp:  Grimme-D3(BJ) Dispersion energy=       -0.0647246054 Hartrees.
 Nuclear repulsion after empirical dispersion term =      925.9635426174 Hartrees.
 Leave Link  301 at Thu Aug 20 09:59:38 2026, MaxMem=   104857600 cpu:               0.0 elap:               0.0
 (Enter /sw/cluster/pub/apps//g16/l302.exe)
 NPDir=0 NMtPBC=     1 NCelOv=     1 NCel=       1 NClECP=     1 NCelD=      1
         NCelK=      1 NCelE2=     1 NClLst=     1 CellRange=     0.0.
 One-electron integrals computed using PRISM.
 One-electron integral symmetry used in STVInt
 NBasis=   253 RedAO= T EigKep=  3.62D-04  NBF=   253
 NBsUse=   253 1.00D-06 EigRej= -1.00D+00 NBFU=   253
 Precomputing XC quadrature grid using
 IXCGrd= 4 IRadAn=           5 IRanWt=          -1 IRanGd=           0 AccXCQ= 0.00D+00.
 Generated NRdTot=       0 NPtTot=           0 NUsed=           0 NTot=          32
 NSgBfM=   252   252   252   252   252 MxSgAt=    29 MxSgA2=    29.
 Leave Link  302 at Thu Aug 20 09:59:38 2026, MaxMem=   104857600 cpu:               0.3 elap:               0.3
 (Enter /sw/cluster/pub/apps//g16/l303.exe)
 DipDrv:  MaxL=1.
 Leave Link  303 at Thu Aug 20 09:59:38 2026, MaxMem=   104857600 cpu:               0.0 elap:               0.0
 (Enter /sw/cluster/pub/apps//g16/l401.exe)
 ExpMin= 1.61D-01 ExpMax= 3.05D+03 ExpMxC= 4.57D+02 IAcc=3 IRadAn=         5 AccDes= 0.00D+00
 Harris functional with IExCor=  402 and IRadAn=       5 diagonalized for initial guess.
 HarFok:  IExCor=  402 AccDes= 0.00D+00 IRadAn=         5 IDoV= 1 UseB2=F ITyADJ=14
 ICtDFT=  3500011 ScaDFX=  1.000000  1.000000  1.000000  1.000000
 FoFCou: FMM=F IPFlag=           0 FMFlag=      100000 FMFlg1=           0
         NFxFlg=           0 DoJE=T BraDBF=F KetDBF=T FulRan=T
         wScrn=  0.000000 ICntrl=       500 IOpCl=  0 I1Cent=   200000004 NGrid=           0
         NMat0=    1 NMatS0=      1 NMatT0=    0 NMatD0=    1 NMtDS0=    0 NMtDT0=    0
 Petite list used in FoFCou.
 Harris En= -580.153828358763    
 JPrj=0 DoOrth=F DoCkMO=F.
 Leave Link  401 at Thu Aug 20 09:59:41 2026, MaxMem=   104857600 cpu:               3.0 elap:               3.0
 (Enter /sw/cluster/pub/apps//g16/l502.exe)
 Integral symmetry usage will be decided dynamically.
 Closed shell SCF:
 Using DIIS extrapolation, IDIIS=  1040.
 NGot=   104857600 LenX=   104725134 LenY=   104660684
 Requested convergence on RMS density matrix=1.00D-08 within 128 cycles.
 Requested convergence on MAX density matrix=1.00D-06.
 Requested convergence on             energy=1.00D-06.
 No special actions if energy rises.
 Fock matrices will be formed incrementally for  20 cycles.
 Integral accuracy reduced to 1.0D-05 until final iterations.

 Cycle   1  Pass 0  IDiag  1:
 FoFJK:  IHMeth= 1 ICntrl=       0 DoSepK=F KAlg= 0 I1Cent=           0 FoldK=F
 IRaf= 900000000 NMat=       1 IRICut=       1 DoRegI=T DoRafI=F ISym2E= 0 IDoP0=0 IntGTp=1.
 FoFCou: FMM=F IPFlag=           0 FMFlag=      100000 FMFlg1=           0
         NFxFlg=           0 DoJE=F BraDBF=F KetDBF=F FulRan=T
         wScrn=  0.000000 ICntrl=         0 IOpCl=  0 I1Cent=           0 NGrid=           0
         NMat0=    1 NMatS0=      1 NMatT0=    0 NMatD0=    1 NMtDS0=    0 NMtDT0=    0
 Symmetry not used in FoFCou.
 E= -579.756091308688    
 DIIS: error= 4.83D-02 at cycle   1 NSaved=   1.
 NSaved= 1 IEnMin= 1 EnMin= -579.756091308688     IErMin= 1 ErrMin= 4.83D-02
 ErrMax= 4.83D-02  0.00D+00 EMaxC= 1.00D-01 BMatC= 3.23D-01 BMatP= 3.23D-01
 IDIUse=3 WtCom= 5.17D-01 WtEn= 4.83D-01
 Coeff-Com:  0.100D+01
 Coeff-En:   0.100D+01
 Coeff:      0.100D+01
 Gap=     0.184 Goal=   None    Shift=    0.000
 GapD=    0.184 DampG=1.000 DampE=0.500 DampFc=0.5000 IDamp=-1.
 Damping current iteration by 5.00D-01
 RMSDP=5.55D-03 MaxDP=1.32D-01              OVMax= 1.61D-01

 Cycle   2  Pass 0  IDiag  1:
 RMSU=  2.65D-03    CP:  9.62D-01
 E= -579.931032373199     Delta-E=       -0.174941064512 Rises=F Damp=T
 DIIS: error= 8.87D-03 at cycle   2 NSaved=   2.
 NSaved= 2 IEnMin= 2 EnMin= -579.931032373199     IErMin= 2 ErrMin= 8.87D-03
 ErrMax= 8.87D-03  0.00D+00 EMaxC= 1.00D-01 BMatC= 1.56D-02 BMatP= 3.23D-01
 IDIUse=3 WtCom= 9.11D-01 WtEn= 8.87D-02
 Coeff-Com: -0.128D-01 0.101D+01
 Coeff-En:   0.000D+00 0.100D+01
 Coeff:     -0.116D-01 0.101D+01
 Gap=     0.186 Goal=   None    Shift=    0.000
 RMSDP=1.65D-03 MaxDP=3.36D-02 DE=-1.75D-01 OVMax= 9.15D-02

 Cycle   3  Pass 0  IDiag  1:
 RMSU=  1.57D-03    CP:  9.39D-01  1.05D+00
 E= -580.112850303139     Delta-E=       -0.181817929940 Rises=F Damp=F
 DIIS: error= 3.53D-03 at cycle   3 NSaved=   3.
 NSaved= 3 IEnMin= 3 EnMin= -580.112850303139     IErMin= 3 ErrMin= 3.53D-03
 ErrMax= 3.53D-03  0.00D+00 EMaxC= 1.00D-01 BMatC= 3.01D-03 BMatP= 1.56D-02
 IDIUse=3 WtCom= 9.65D-01 WtEn= 3.53D-02
 Coeff-Com: -0.416D-01 0.267D+00 0.775D+00
 Coeff-En:   0.000D+00 0.000D+00 0.100D+01
 Coeff:     -0.401D-01 0.257D+00 0.783D+00
 Gap=     0.183 Goal=   None    Shift=    0.000
 RMSDP=4.67D-04 MaxDP=1.14D-02 DE=-1.82D-01 OVMax= 2.67D-02

 Cycle   4  Pass 0  IDiag  1:
 RMSU=  3.96D-04    CP:  9.39D-01  1.09D+00  8.58D-01
 E= -580.113859752043     Delta-E=       -0.001009448904 Rises=F Damp=F
 DIIS: error= 3.61D-03 at cycle   4 NSaved=   4.
 NSaved= 4 IEnMin= 4 EnMin= -580.113859752043     IErMin= 3 ErrMin= 3.53D-03
 ErrMax= 3.61D-03  0.00D+00 EMaxC= 1.00D-01 BMatC= 1.84D-03 BMatP= 3.01D-03
 IDIUse=3 WtCom= 9.64D-01 WtEn= 3.61D-02
 Coeff-Com: -0.234D-01 0.101D+00 0.479D+00 0.443D+00
 Coeff-En:   0.000D+00 0.000D+00 0.404D+00 0.596D+00
 Coeff:     -0.225D-01 0.976D-01 0.476D+00 0.448D+00
 Gap=     0.183 Goal=   None    Shift=    0.000
 RMSDP=2.67D-04 MaxDP=6.35D-03 DE=-1.01D-03 OVMax= 1.98D-02

 Cycle   5  Pass 0  IDiag  1:
 RMSU=  1.34D-04    CP:  9.40D-01  1.09D+00  8.74D-01  4.20D-01
 E= -580.115768429790     Delta-E=       -0.001908677748 Rises=F Damp=F
 DIIS: error= 1.08D-03 at cycle   5 NSaved=   5.
 NSaved= 5 IEnMin= 5 EnMin= -580.115768429790     IErMin= 5 ErrMin= 1.08D-03
 ErrMax= 1.08D-03  0.00D+00 EMaxC= 1.00D-01 BMatC= 1.61D-04 BMatP= 1.84D-03
 IDIUse=3 WtCom= 9.89D-01 WtEn= 1.08D-02
 Coeff-Com: -0.644D-02 0.164D-01 0.153D+00 0.262D+00 0.575D+00
 Coeff-En:   0.000D+00 0.000D+00 0.000D+00 0.672D-01 0.933D+00
 Coeff:     -0.637D-02 0.162D-01 0.151D+00 0.260D+00 0.579D+00
 Gap=     0.183 Goal=   None    Shift=    0.000
 RMSDP=6.80D-05 MaxDP=1.77D-03 DE=-1.91D-03 OVMax= 5.28D-03

 Cycle   6  Pass 0  IDiag  1:
 RMSU=  3.12D-05    CP:  9.39D-01  1.09D+00  8.78D-01  5.19D-01  6.65D-01
 E= -580.115939643419     Delta-E=       -0.000171213629 Rises=F Damp=F
 DIIS: error= 1.86D-04 at cycle   6 NSaved=   6.
 NSaved= 6 IEnMin= 6 EnMin= -580.115939643419     IErMin= 6 ErrMin= 1.86D-04
 ErrMax= 1.86D-04  0.00D+00 EMaxC= 1.00D-01 BMatC= 1.17D-05 BMatP= 1.61D-04
 IDIUse=3 WtCom= 9.98D-01 WtEn= 1.86D-03
 Coeff-Com: -0.254D-02 0.460D-02 0.640D-01 0.128D+00 0.334D+00 0.472D+00
 Coeff-En:   0.000D+00 0.000D+00 0.000D+00 0.000D+00 0.000D+00 0.100D+01
 Coeff:     -0.254D-02 0.460D-02 0.639D-01 0.128D+00 0.334D+00 0.473D+00
 Gap=     0.183 Goal=   None    Shift=    0.000
 RMSDP=1.67D-05 MaxDP=5.34D-04 DE=-1.71D-04 OVMax= 1.06D-03

 Cycle   7  Pass 0  IDiag  1:
 RMSU=  6.70D-06    CP:  9.39D-01  1.09D+00  8.81D-01  5.19D-01  6.83D-01
                    CP:  5.32D-01
 E= -580.115952012543     Delta-E=       -0.000012369123 Rises=F Damp=F
 DIIS: error= 3.12D-05 at cycle   7 NSaved=   7.
 NSaved= 7 IEnMin= 7 EnMin= -580.115952012543     IErMin= 7 ErrMin= 3.12D-05
 ErrMax= 3.12D-05  0.00D+00 EMaxC= 1.00D-01 BMatC= 2.62D-07 BMatP= 1.17D-05
 IDIUse=1 WtCom= 1.00D+00 WtEn= 0.00D+00
 Coeff-Com: -0.716D-03 0.997D-03 0.189D-01 0.410D-01 0.112D+00 0.204D+00
 Coeff-Com:  0.624D+00
 Coeff:     -0.716D-03 0.997D-03 0.189D-01 0.410D-01 0.112D+00 0.204D+00
 Coeff:      0.624D+00
 Gap=     0.183 Goal=   None    Shift=    0.000
 RMSDP=3.79D-06 MaxDP=8.31D-05 DE=-1.24D-05 OVMax= 1.70D-04

 Initial convergence to 1.0D-05 achieved.  Increase integral accuracy.
 Cycle   8  Pass 1  IDiag  1:
 E= -580.115966075937     Delta-E=       -0.000014063394 Rises=F Damp=F
 DIIS: error= 6.47D-05 at cycle   1 NSaved=   1.
 NSaved= 1 IEnMin= 1 EnMin= -580.115966075937     IErMin= 1 ErrMin= 6.47D-05
 ErrMax= 6.47D-05  0.00D+00 EMaxC= 1.00D-01 BMatC= 3.02D-07 BMatP= 3.02D-07
 IDIUse=1 WtCom= 1.00D+00 WtEn= 0.00D+00
 Coeff-Com:  0.100D+01
 Coeff:      0.100D+01
 Gap=     0.183 Goal=   None    Shift=    0.000
 RMSDP=3.79D-06 MaxDP=8.31D-05 DE=-1.41D-05 OVMax= 1.48D-04

 Cycle   9  Pass 1  IDiag  1:
 RMSU=  2.98D-05    CP:  1.00D+00
 E= -580.115966130817     Delta-E=       -0.000000054881 Rises=F Damp=F
 DIIS: error= 2.80D-05 at cycle   2 NSaved=   2.
 NSaved= 2 IEnMin= 2 EnMin= -580.115966130817     IErMin= 2 ErrMin= 2.80D-05
 ErrMax= 2.80D-05  0.00D+00 EMaxC= 1.00D-01 BMatC= 1.55D-07 BMatP= 3.02D-07
 IDIUse=1 WtCom= 1.00D+00 WtEn= 0.00D+00
 Coeff-Com:  0.383D+00 0.617D+00
 Coeff:      0.383D+00 0.617D+00
 Gap=     0.183 Goal=   None    Shift=    0.000
 RMSDP=3.50D-06 MaxDP=9.46D-05 DE=-5.49D-08 OVMax= 2.05D-04

 Cycle  10  Pass 1  IDiag  1:
 RMSU=  3.49D-06    CP:  1.00D+00  1.01D+00
 E= -580.115966170995     Delta-E=       -0.000000040178 Rises=F Damp=F
 DIIS: error= 3.00D-05 at cycle   3 NSaved=   3.
 NSaved= 3 IEnMin= 3 EnMin= -580.115966170995     IErMin= 2 ErrMin= 2.80D-05
 ErrMax= 3.00D-05  0.00D+00 EMaxC= 1.00D-01 BMatC= 1.11D-07 BMatP= 1.55D-07
 IDIUse=1 WtCom= 1.00D+00 WtEn= 0.00D+00
 Coeff-Com:  0.269D-01 0.453D+00 0.520D+00
 Coeff:      0.269D-01 0.453D+00 0.520D+00
 Gap=     0.183 Goal=   None    Shift=    0.000
 RMSDP=1.82D-06 MaxDP=4.62D-05 DE=-4.02D-08 OVMax= 1.19D-04

 Cycle  11  Pass 1  IDiag  1:
 RMSU=  5.87D-07    CP:  1.00D+00  1.01D+00  5.08D-01
 E= -580.115966285084     Delta-E=       -0.000000114089 Rises=F Damp=F
 DIIS: error= 7.37D-06 at cycle   4 NSaved=   4.
 NSaved= 4 IEnMin= 4 EnMin= -580.115966285084     IErMin= 4 ErrMin= 7.37D-06
 ErrMax= 7.37D-06  0.00D+00 EMaxC= 1.00D-01 BMatC= 7.56D-09 BMatP= 1.11D-07
 IDIUse=1 WtCom= 1.00D+00 WtEn= 0.00D+00
 Coeff-Com: -0.244D-02 0.258D+00 0.334D+00 0.410D+00
 Coeff:     -0.244D-02 0.258D+00 0.334D+00 0.410D+00
 Gap=     0.183 Goal=   None    Shift=    0.000
 RMSDP=3.86D-07 MaxDP=1.17D-05 DE=-1.14D-07 OVMax= 2.63D-05

 Cycle  12  Pass 1  IDiag  1:
 RMSU=  9.18D-08    CP:  1.00D+00  1.01D+00  5.47D-01  4.09D-01
 E= -580.115966293035     Delta-E=       -0.000000007951 Rises=F Damp=F
 DIIS: error= 4.88D-07 at cycle   5 NSaved=   5.
 NSaved= 5 IEnMin= 5 EnMin= -580.115966293035     IErMin= 5 ErrMin= 4.88D-07
 ErrMax= 4.88D-07  0.00D+00 EMaxC= 1.00D-01 BMatC= 7.02D-11 BMatP= 7.56D-09
 IDIUse=1 WtCom= 1.00D+00 WtEn= 0.00D+00
 Coeff-Com: -0.176D-02 0.136D+00 0.178D+00 0.227D+00 0.460D+00
 Coeff:     -0.176D-02 0.136D+00 0.178D+00 0.227D+00 0.460D+00
 Gap=     0.183 Goal=   None    Shift=    0.000
 RMSDP=4.12D-08 MaxDP=1.03D-06 DE=-7.95D-09 OVMax= 1.84D-06

 Cycle  13  Pass 1  IDiag  1:
 RMSU=  2.63D-08    CP:  1.00D+00  1.01D+00  5.46D-01  4.25D-01  6.74D-01
 E= -580.115966293110     Delta-E=       -0.000000000075 Rises=F Damp=F
 DIIS: error= 7.37D-08 at cycle   6 NSaved=   6.
 NSaved= 6 IEnMin= 6 EnMin= -580.115966293110     IErMin= 6 ErrMin= 7.37D-08
 ErrMax= 7.37D-08  0.00D+00 EMaxC= 1.00D-01 BMatC= 1.01D-12 BMatP= 7.02D-11
 IDIUse=1 WtCom= 1.00D+00 WtEn= 0.00D+00
 Coeff-Com: -0.401D-03 0.262D-01 0.352D-01 0.450D-01 0.147D+00 0.747D+00
 Coeff:     -0.401D-03 0.262D-01 0.352D-01 0.450D-01 0.147D+00 0.747D+00
 Gap=     0.183 Goal=   None    Shift=    0.000
 RMSDP=5.75D-09 MaxDP=1.57D-07 DE=-7.48D-11 OVMax= 2.68D-07

 SCF Done:  E(RB3LYP) =  -580.115966293     A.U. after   13 cycles
            NFock= 13  Conv=0.58D-08     -V/T= 2.0100
 KE= 5.743752489002D+02 PE=-3.194367029487D+03 EE= 1.113912271677D+03
 Leave Link  502 at Thu Aug 20 10:00:28 2026, MaxMem=   104857600 cpu:              47.0 elap:              47.1
 (Enter /sw/cluster/pub/apps//g16/l601.exe)
 Copying SCF densities to generalized density rwf, IOpCl= 0 IROHF=0.

 **********************************************************************

            Population analysis using the SCF density.

 **********************************************************************

 Orbital symmetries:
       Occupied  (A) (A) (A) (A) (A) (A) (A) (A) (A) (A) (A) (A)
                 (A) (A) (A) (A) (A) (A) (A) (A) (A) (A) (A) (A)
                 (A) (A) (A) (A) (A) (A) (A) (A) (A) (A) (A) (A)
                 (A) (A) (A) (A) (A) (A) (A) (A) (A) (A) (A) (A)
                 (A) (A) (A) (A)
       Virtual   (A) (A) (A) (A) (A) (A) (A) (A) (A) (A) (A) (A)
                 (A) (A) (A) (A) (A) (A) (A) (A) (A) (A) (A) (A)
                 (A) (A) (A) (A) (A) (A) (A) (A) (A) (A) (A) (A)
                 (A) (A) (A) (A) (A) (A) (A) (A) (A) (A) (A) (A)
                 (A) (A) (A) (A) (A) (A) (A) (A) (A) (A) (A) (A)
                 (A) (A) (A) (A) (A) (A) (A) (A) (A) (A) (A) (A)
                 (A) (A) (A) (A) (A) (A) (A) (A) (A) (A) (A) (A)
                 (A) (A) (A) (A) (A) (A) (A) (A) (A) (A) (A) (A)
                 (A) (A) (A) (A) (A) (A) (A) (A) (A) (A) (A) (A)
                 (A) (A) (A) (A) (A) (A) (A) (A) (A) (A) (A) (A)
                 (A) (A) (A) (A) (A) (A) (A) (A) (A) (A) (A) (A)
                 (A) (A) (A) (A) (A) (A) (A) (A) (A) (A) (A) (A)
                 (A) (A) (A) (A) (A) (A) (A) (A) (A) (A) (A) (A)
                 (A) (A) (A) (A) (A) (A) (A) (A) (A) (A) (A) (A)
                 (A) (A) (A) (A) (A) (A) (A) (A) (A) (A) (A) (A)
                 (A) (A) (A) (A) (A) (A) (A) (A) (A) (A) (A) (A)
                 (A) (A) (A) (A) (A) (A) (A) (A) (A)
 The electronic state is 1-A.
 Alpha  occ. eigenvalues --  -10.20499 -10.18855 -10.18825 -10.18703 -10.18703
 Alpha  occ. eigenvalues --  -10.18688 -10.18688 -10.18649 -10.18649 -10.18612
 Alpha  occ. eigenvalues --  -10.18612 -10.18558 -10.18556 -10.17854 -10.17853
 Alpha  occ. eigenvalues --   -0.88391  -0.83822  -0.80756  -0.76935  -0.73767
 Alpha  occ. eigenvalues --   -0.72780  -0.70872  -0.68529  -0.63962  -0.61706
 Alpha  occ. eigenvalues --   -0.57957  -0.57092  -0.55318  -0.50588  -0.49135
 Alpha  occ. eigenvalues --   -0.46805  -0.44789  -0.44382  -0.43310  -0.42766
 Alpha  occ. eigenvalues --   -0.42551  -0.41367  -0.41222  -0.38984  -0.37933
 Alpha  occ. eigenvalues --   -0.37856  -0.37056  -0.34649  -0.34334  -0.34060
 Alpha  occ. eigenvalues --   -0.33676  -0.31588  -0.31500  -0.27710  -0.24429
 Alpha  occ. eigenvalues --   -0.24040  -0.21062
 Alpha virt. eigenvalues --   -0.02730  -0.00530   0.01246   0.04568   0.08506
 Alpha virt. eigenvalues --    0.10387   0.10509   0.13062   0.13385   0.13994
 Alpha virt. eigenvalues --    0.14922   0.16475   0.16549   0.16774   0.17884
 Alpha virt. eigenvalues --    0.18588   0.19350   0.20442   0.21533   0.21590
 Alpha virt. eigenvalues --    0.22916   0.24272   0.25973   0.26670   0.27613
 Alpha virt. eigenvalues --    0.27707   0.30211   0.31740   0.32480   0.37093
 Alpha virt. eigenvalues --    0.38488   0.39866   0.40636   0.47627   0.49868
 Alpha virt. eigenvalues --    0.49953   0.51394   0.51553   0.52424   0.55201
 Alpha virt. eigenvalues --    0.55557   0.55927   0.56021   0.56300   0.56663
 Alpha virt. eigenvalues --    0.58479   0.58481   0.58764   0.60495   0.60580
 Alpha virt. eigenvalues --    0.61859   0.62011   0.62883   0.63143   0.63714
 Alpha virt. eigenvalues --    0.64712   0.65950   0.66469   0.68480   0.68959
 Alpha virt. eigenvalues --    0.69590   0.75195   0.75921   0.77155   0.78475
 Alpha virt. eigenvalues --    0.79330   0.80509   0.81754   0.82764   0.83677
 Alpha virt. eigenvalues --    0.84277   0.84620   0.85032   0.86362   0.88243
 Alpha virt. eigenvalues --    0.90732   0.90827   0.91042   0.91721   0.92552
 Alpha virt. eigenvalues --    0.92560   0.95897   0.96208   0.96596   0.97191
 Alpha virt. eigenvalues --    0.98576   0.99209   0.99475   1.00920   1.03941
 Alpha virt. eigenvalues --    1.07235   1.07541   1.10931   1.11000   1.15039
 Alpha virt. eigenvalues --    1.15062   1.19072   1.22292   1.24192   1.24442
 Alpha virt. eigenvalues --    1.28011   1.28413   1.33808   1.34120   1.39383
 Alpha virt. eigenvalues --    1.41584   1.41796   1.45367   1.45424   1.46196
 Alpha virt. eigenvalues --    1.46675   1.49735   1.50287   1.50375   1.53165
 Alpha virt. eigenvalues --    1.56168   1.56940   1.60790   1.65179   1.67892
 Alpha virt. eigenvalues --    1.68601   1.73829   1.79395   1.79609   1.80687
 Alpha virt. eigenvalues --    1.80949   1.84826   1.86323   1.90199   1.90526
 Alpha virt. eigenvalues --    1.91162   1.92334   1.93048   1.95089   1.96359
 Alpha virt. eigenvalues --    2.00106   2.02052   2.04156   2.04310   2.05061
 Alpha virt. eigenvalues --    2.07363   2.08675   2.11059   2.13166   2.14832
 Alpha virt. eigenvalues --    2.19595   2.19626   2.19882   2.21954   2.23814
 Alpha virt. eigenvalues --    2.24816   2.24981   2.26959   2.26980   2.28865
 Alpha virt. eigenvalues --    2.30480   2.32177   2.32623   2.33406   2.37192
 Alpha virt. eigenvalues --    2.43457   2.43548   2.45832   2.49681   2.55655
 Alpha virt. eigenvalues --    2.60890   2.61545   2.64676   2.65277   2.68397
 Alpha virt. eigenvalues --    2.69042   2.70473   2.70534   2.73712   2.75666
 Alpha virt. eigenvalues --    2.76814   2.82542   2.83561   2.85728   2.94168
 Alpha virt. eigenvalues --    2.95617   3.00824   3.09910   3.29036   3.35248
 Alpha virt. eigenvalues --    3.50882   4.08478   4.09900   4.10194   4.15019
 Alpha virt. eigenvalues --    4.15631   4.18899   4.23556   4.29272   4.31290
 Alpha virt. eigenvalues --    4.35885   4.42591   4.44218   4.60564   4.80786
 Alpha virt. eigenvalues --    4.82973
          Condensed to atoms (all electrons):
               1          2          3          4          5          6
     1  C    5.177663   0.316131  -0.071731  -0.071711   0.316139  -0.083660
     2  C    0.316131   4.923667   0.494824   0.006582  -0.078794   0.006823
     3  C   -0.071731   0.494824   4.918194   0.270323   0.006612   0.013847
     4  C   -0.071711   0.006582   0.270323   4.917993   0.494824  -0.030884
     5  C    0.316139  -0.078794   0.006612   0.494824   4.923439   0.479756
     6  C   -0.083660   0.006823   0.013847  -0.030884   0.479756   5.078968
     7  C    0.006420  -0.000313   0.000259  -0.041024  -0.007265   0.498521
     8  C   -0.000449  -0.000281   0.007727   0.003806  -0.039563  -0.021190
     9  C    0.015137   0.010096  -0.092896   0.474705  -0.081526  -0.061293
    10  H   -0.000223  -0.000033  -0.008838  -0.032511   0.005340   0.000496
    11  H    0.000012   0.000002  -0.000186   0.002065   0.001163   0.004257
    12  H   -0.000150   0.000003   0.000005   0.000988   0.002762  -0.039483
    13  H   -0.007414   0.000226  -0.000269   0.004744  -0.040717   0.353335
    14  C    0.015123  -0.081599   0.474792  -0.092805   0.010100  -0.000316
    15  C   -0.000448  -0.039552   0.003810   0.007730  -0.000282   0.000003
    16  C    0.006411  -0.007305  -0.041007   0.000262  -0.000313   0.000001
    17  C   -0.083615   0.479728  -0.030884   0.013839   0.006822  -0.000220
    18  H   -0.007402  -0.040722   0.004743  -0.000269   0.000225   0.000003
    19  H   -0.000150   0.002766   0.000986   0.000005   0.000003  -0.000000
    20  H    0.000012   0.001163   0.002062  -0.000186   0.000002  -0.000000
    21  H   -0.000223   0.005342  -0.032504  -0.008856  -0.000032   0.000004
    22  C    0.351360  -0.044235   0.000089   0.000096  -0.044189  -0.002173
    23  H   -0.029628  -0.002125   0.000991   0.000994  -0.002117   0.000272
    24  H   -0.026733   0.004809   0.000090  -0.000334  -0.008694   0.003200
    25  H   -0.026730  -0.008702  -0.000334   0.000090   0.004808  -0.000048
    26  C    0.351381  -0.044269   0.000072   0.000092  -0.044196  -0.002179
    27  H   -0.026723  -0.008694  -0.000333   0.000090   0.004808  -0.000048
    28  H   -0.026738   0.004811   0.000091  -0.000334  -0.008701   0.003204
    29  H   -0.029640  -0.002126   0.000994   0.000998  -0.002115   0.000270
               7          8          9         10         11         12
     1  C    0.006420  -0.000449   0.015137  -0.000223   0.000012  -0.000150
     2  C   -0.000313  -0.000281   0.010096  -0.000033   0.000002   0.000003
     3  C    0.000259   0.007727  -0.092896  -0.008838  -0.000186   0.000005
     4  C   -0.041024   0.003806   0.474705  -0.032511   0.002065   0.000988
     5  C   -0.007265  -0.039563  -0.081526   0.005340   0.001163   0.002762
     6  C    0.498521  -0.021190  -0.061293   0.000496   0.004257  -0.039483
     7  C    4.888337   0.539737  -0.027168   0.004288  -0.040303   0.357361
     8  C    0.539737   4.880353   0.493431  -0.047838   0.357034  -0.041085
     9  C   -0.027168   0.493431   5.158747   0.347517  -0.038412   0.004456
    10  H    0.004288  -0.047838   0.347517   0.603170  -0.004749  -0.000179
    11  H   -0.040303   0.357034  -0.038412  -0.004749   0.597473  -0.005214
    12  H    0.357361  -0.041085   0.004456  -0.000179  -0.005214   0.599185
    13  H   -0.046581   0.004446   0.000619   0.000021  -0.000181  -0.004897
    14  C    0.000026   0.000100  -0.013577   0.002838  -0.000000  -0.000000
    15  C   -0.000000   0.000000   0.000100  -0.000015  -0.000000   0.000000
    16  C    0.000000  -0.000000   0.000026   0.000000  -0.000000   0.000000
    17  C    0.000001   0.000003  -0.000315   0.000004  -0.000000  -0.000000
    18  H   -0.000000  -0.000000   0.000001   0.000000   0.000000  -0.000000
    19  H    0.000000   0.000000  -0.000000  -0.000000  -0.000000  -0.000000
    20  H   -0.000000  -0.000000  -0.000000   0.000001   0.000000  -0.000000
    21  H    0.000000  -0.000015   0.002844   0.002704   0.000001  -0.000000
    22  C   -0.000013   0.000023  -0.000222   0.000003   0.000000   0.000001
    23  H   -0.000023  -0.000010  -0.000041   0.000001  -0.000000   0.000000
    24  H    0.000010   0.000000  -0.000002   0.000000  -0.000000   0.000002
    25  H    0.000002  -0.000000   0.000006  -0.000000  -0.000000  -0.000000
    26  C   -0.000013   0.000023  -0.000222   0.000003   0.000000   0.000001
    27  H    0.000002  -0.000000   0.000006  -0.000000  -0.000000  -0.000000
    28  H    0.000010   0.000000  -0.000002   0.000000  -0.000000   0.000002
    29  H   -0.000023  -0.000010  -0.000041   0.000001  -0.000000   0.000000
              13         14         15         16         17         18
     1  C   -0.007414   0.015123  -0.000448   0.006411  -0.083615  -0.007402
     2  C    0.000226  -0.081599  -0.039552  -0.007305   0.479728  -0.040722
     3  C   -0.000269   0.474792   0.003810  -0.041007  -0.030884   0.004743
     4  C    0.004744  -0.092805   0.007730   0.000262   0.013839  -0.000269
     5  C   -0.040717   0.010100  -0.000282  -0.000313   0.006822   0.000225
     6  C    0.353335  -0.000316   0.000003   0.000001  -0.000220   0.000003
     7  C   -0.046581   0.000026  -0.000000   0.000000   0.000001  -0.000000
     8  C    0.004446   0.000100   0.000000  -0.000000   0.000003  -0.000000
     9  C    0.000619  -0.013577   0.000100   0.000026  -0.000315   0.000001
    10  H    0.000021   0.002838  -0.000015   0.000000   0.000004   0.000000
    11  H   -0.000181  -0.000000  -0.000000  -0.000000  -0.000000   0.000000
    12  H   -0.004897  -0.000000   0.000000   0.000000  -0.000000  -0.000000
    13  H    0.607955   0.000001  -0.000000  -0.000000   0.000003   0.000000
    14  C    0.000001   5.158510   0.493386  -0.027214  -0.061240   0.000620
    15  C   -0.000000   0.493386   4.880450   0.539746  -0.021176   0.004448
    16  C   -0.000000  -0.027214   0.539746   4.888264   0.498584  -0.046583
    17  C    0.000003  -0.061240  -0.021176   0.498584   5.078924   0.353340
    18  H    0.000000   0.000620   0.004448  -0.046583   0.353340   0.607960
    19  H   -0.000000   0.004459  -0.041092   0.357372  -0.039493  -0.004902
    20  H    0.000000  -0.038410   0.357021  -0.040293   0.004256  -0.000181
    21  H    0.000000   0.347520  -0.047830   0.004286   0.000495   0.000021
    22  C    0.000854  -0.000222   0.000023  -0.000013  -0.002166   0.000852
    23  H    0.000044  -0.000041  -0.000010  -0.000023   0.000275   0.000045
    24  H    0.001755   0.000006  -0.000000   0.000002  -0.000048  -0.000078
    25  H   -0.000078  -0.000002   0.000000   0.000010   0.003201   0.001754
    26  C    0.000852  -0.000222   0.000023  -0.000013  -0.002167   0.000851
    27  H   -0.000078  -0.000002   0.000000   0.000010   0.003198   0.001750
    28  H    0.001757   0.000006  -0.000000   0.000002  -0.000048  -0.000078
    29  H    0.000044  -0.000041  -0.000010  -0.000023   0.000276   0.000045
              19         20         21         22         23         24
     1  C   -0.000150   0.000012  -0.000223   0.351360  -0.029628  -0.026733
     2  C    0.002766   0.001163   0.005342  -0.044235  -0.002125   0.004809
     3  C    0.000986   0.002062  -0.032504   0.000089   0.000991   0.000090
     4  C    0.000005  -0.000186  -0.008856   0.000096   0.000994  -0.000334
     5  C    0.000003   0.000002  -0.000032  -0.044189  -0.002117  -0.008694
     6  C   -0.000000  -0.000000   0.000004  -0.002173   0.000272   0.003200
     7  C    0.000000  -0.000000   0.000000  -0.000013  -0.000023   0.000010
     8  C    0.000000  -0.000000  -0.000015   0.000023  -0.000010   0.000000
     9  C   -0.000000  -0.000000   0.002844  -0.000222  -0.000041  -0.000002
    10  H   -0.000000   0.000001   0.002704   0.000003   0.000001   0.000000
    11  H   -0.000000   0.000000   0.000001   0.000000  -0.000000  -0.000000
    12  H   -0.000000  -0.000000  -0.000000   0.000001   0.000000   0.000002
    13  H   -0.000000   0.000000   0.000000   0.000854   0.000044   0.001755
    14  C    0.004459  -0.038410   0.347520  -0.000222  -0.000041   0.000006
    15  C   -0.041092   0.357021  -0.047830   0.000023  -0.000010  -0.000000
    16  C    0.357372  -0.040293   0.004286  -0.000013  -0.000023   0.000002
    17  C   -0.039493   0.004256   0.000495  -0.002166   0.000275  -0.000048
    18  H   -0.004902  -0.000181   0.000021   0.000852   0.000045  -0.000078
    19  H    0.599206  -0.005216  -0.000179   0.000001   0.000000  -0.000000
    20  H   -0.005216   0.597465  -0.004742   0.000000  -0.000000  -0.000000
    21  H   -0.000179  -0.004742   0.603140   0.000003   0.000001  -0.000000
    22  C    0.000001   0.000000   0.000003   5.144717   0.369280   0.362513
    23  H    0.000000  -0.000000   0.000001   0.369280   0.556402  -0.028593
    24  H   -0.000000  -0.000000  -0.000000   0.362513  -0.028593   0.580666
    25  H    0.000002  -0.000000   0.000000   0.362513  -0.028585  -0.031232
    26  C    0.000001   0.000000   0.000003  -0.060312   0.005480  -0.003723
    27  H    0.000002  -0.000000   0.000000  -0.003753  -0.000059  -0.000198
    28  H   -0.000000  -0.000000  -0.000000  -0.003717  -0.000061   0.003123
    29  H    0.000000  -0.000000   0.000001   0.005481  -0.000179  -0.000060
              25         26         27         28         29
     1  C   -0.026730   0.351381  -0.026723  -0.026738  -0.029640
     2  C   -0.008702  -0.044269  -0.008694   0.004811  -0.002126
     3  C   -0.000334   0.000072  -0.000333   0.000091   0.000994
     4  C    0.000090   0.000092   0.000090  -0.000334   0.000998
     5  C    0.004808  -0.044196   0.004808  -0.008701  -0.002115
     6  C   -0.000048  -0.002179  -0.000048   0.003204   0.000270
     7  C    0.000002  -0.000013   0.000002   0.000010  -0.000023
     8  C   -0.000000   0.000023  -0.000000   0.000000  -0.000010
     9  C    0.000006  -0.000222   0.000006  -0.000002  -0.000041
    10  H   -0.000000   0.000003  -0.000000   0.000000   0.000001
    11  H   -0.000000   0.000000  -0.000000  -0.000000  -0.000000
    12  H   -0.000000   0.000001  -0.000000   0.000002   0.000000
    13  H   -0.000078   0.000852  -0.000078   0.001757   0.000044
    14  C   -0.000002  -0.000222  -0.000002   0.000006  -0.000041
    15  C    0.000000   0.000023   0.000000  -0.000000  -0.000010
    16  C    0.000010  -0.000013   0.000010   0.000002  -0.000023
    17  C    0.003201  -0.002167   0.003198  -0.000048   0.000276
    18  H    0.001754   0.000851   0.001750  -0.000078   0.000045
    19  H    0.000002   0.000001   0.000002  -0.000000   0.000000
    20  H   -0.000000   0.000000  -0.000000  -0.000000  -0.000000
    21  H    0.000000   0.000003   0.000000  -0.000000   0.000001
    22  C    0.362513  -0.060312  -0.003753  -0.003717   0.005481
    23  H   -0.028585   0.005480  -0.000059  -0.000061  -0.000179
    24  H   -0.031232  -0.003723  -0.000198   0.003123  -0.000060
    25  H    0.580673  -0.003747   0.003144  -0.000199  -0.000060
    26  C   -0.003747   5.144766   0.362509   0.362498   0.369272
    27  H    0.003144   0.362509   0.580688  -0.031226  -0.028593
    28  H   -0.000199   0.362498  -0.031226   0.580668  -0.028586
    29  H   -0.000060   0.369272  -0.028593  -0.028586   0.556414
 Mulliken charges:
               1
     1  C   -0.062424
     2  C    0.101775
     3  C    0.078473
     4  C    0.078690
     5  C    0.101701
     6  C   -0.201467
     7  C   -0.132251
     8  C   -0.136241
     9  C   -0.191976
    10  H    0.127998
    11  H    0.127038
    12  H    0.126243
    13  H    0.123561
    14  C   -0.191795
    15  C   -0.136324
    16  C   -0.132191
    17  C   -0.201577
    18  H    0.123557
    19  H    0.126230
    20  H    0.127045
    21  H    0.128017
    22  C   -0.436793
    23  H    0.157711
    24  H    0.143520
    25  H    0.143514
    26  C   -0.436764
    27  H    0.143501
    28  H    0.143517
    29  H    0.157713
 Sum of Mulliken charges =  -0.00000
 Mulliken charges with hydrogens summed into heavy atoms:
               1
     1  C   -0.062424
     2  C    0.101775
     3  C    0.078473
     4  C    0.078690
     5  C    0.101701
     6  C   -0.077906
     7  C   -0.006008
     8  C   -0.009204
     9  C   -0.063978
    14  C   -0.063778
    15  C   -0.009279
    16  C   -0.005961
    17  C   -0.078020
    22  C    0.007951
    26  C    0.007967
 Electronic spatial extent (au):  <R**2>=           2916.1441
 Charge=             -0.0000 electrons
 Dipole moment (field-independent basis, Debye):
    X=              0.0000    Y=              0.4268    Z=              0.0005  Tot=              0.4268
 Quadrupole moment (field-independent basis, Debye-Ang):
   XX=            -80.6974   YY=            -79.7547   ZZ=            -92.2894
   XY=              0.0009   XZ=             -0.0002   YZ=             -0.0004
 Traceless Quadrupole moment (field-independent basis, Debye-Ang):
   XX=              3.5498   YY=              4.4925   ZZ=             -8.0422
   XY=              0.0009   XZ=             -0.0002   YZ=             -0.0004
 Octapole moment (field-independent basis, Debye-Ang**2):
  XXX=             -0.0040  YYY=            -10.5936  ZZZ=             -0.0000  XYY=             -0.0013
  XXY=             -1.8196  XXZ=              0.0052  XZZ=              0.0007  YZZ=              4.4291
  YYZ=              0.0031  XYZ=             -0.0024
 Hexadecapole moment (field-independent basis, Debye-Ang**3):
 XXXX=          -2241.5121 YYYY=          -1254.8614 ZZZZ=           -266.4396 XXXY=             -0.0011
 XXXZ=             -0.0101 YYYX=              0.0125 YYYZ=             -0.0012 ZZZX=              0.0040
 ZZZY=             -0.0053 XXYY=           -577.0695 XXZZ=           -497.8782 YYZZ=           -279.7241
 XXYZ=             -0.0014 YYXZ=              0.0004 ZZXY=             -0.0040
 N-N= 9.259635426174D+02 E-N=-3.194367028003D+03  KE= 5.743752489002D+02
 No NMR shielding tensors so no spin-rotation constants.
 Leave Link  601 at Thu Aug 20 10:00:28 2026, MaxMem=   104857600 cpu:               0.1 elap:               0.1
 (Enter /sw/cluster/pub/apps//g16/l701.exe)
 ... and contract with generalized density number  0.
 Compute integral first derivatives.
 R6Disp: Adding Grimme-D3(BJ) dispersion energy 1st derivatives to the gradient.
 Leave Link  701 at Thu Aug 20 10:00:28 2026, MaxMem=   104857600 cpu:               0.1 elap:               0.1
 (Enter /sw/cluster/pub/apps//g16/l702.exe)
 L702 exits ... SP integral derivatives will be done elsewhere.
 Leave Link  702 at Thu Aug 20 10:00:29 2026, MaxMem=   104857600 cpu:               0.0 elap:               0.0
 (Enter /sw/cluster/pub/apps//g16/l703.exe)
 Integral derivatives from FoFJK, PRISM(SPDF).
 Compute integral first derivatives, UseDBF=F ICtDFT=           0.
 Calling FoFJK, ICntrl=      2127 FMM=F ISym2X=0 I1Cent= 0 IOpClX= 0 NMat=1 NMatS=1 NMatT=0.
 FoFJK:  IHMeth= 1 ICntrl=    2127 DoSepK=F KAlg= 0 I1Cent=           0 FoldK=F
 IRaf=         0 NMat=       1 IRICut=       1 DoRegI=T DoRafI=F ISym2E= 0 IDoP0=0 IntGTp=1.
 FoFCou: FMM=F IPFlag=           0 FMFlag=      100000 FMFlg1=         800
         NFxFlg=           0 DoJE=F BraDBF=F KetDBF=F FulRan=T
         wScrn=  0.000000 ICntrl=      2127 IOpCl=  0 I1Cent=           0 NGrid=           0
         NMat0=    1 NMatS0=      1 NMatT0=    0 NMatD0=    1 NMtDS0=    0 NMtDT0=    0
 Symmetry not used in FoFCou.
 Leave Link  703 at Thu Aug 20 10:00:44 2026, MaxMem=   104857600 cpu:              15.4 elap:              15.4
 (Enter /sw/cluster/pub/apps//g16/l716.exe)
 Dipole        = 1.01145870D-05 1.67930685D-01 2.15386116D-04
 ***** Axes restored to original set *****
 -------------------------------------------------------------------
 Center     Atomic                   Forces (Hartrees/Bohr)
 Number     Number              X              Y              Z
 -------------------------------------------------------------------
      1        6          -0.000315683    0.000044234    0.000012486
      2        6          -0.001142994   -0.000354851    0.000033835
      3        6           0.000181294   -0.000211034    0.000005519
      4        6           0.000264619   -0.000103562   -0.000009346
      5        6           0.000120273    0.001321912   -0.000034060
      6        6          -0.000719026   -0.000447057    0.000012288
      7        6          -0.000138540   -0.000147739    0.000007087
      8        6          -0.000283060   -0.000018817   -0.000001336
      9        6          -0.000457749   -0.000202296    0.000018876
     10        1          -0.000364338    0.000127354    0.000008017
     11        1          -0.000284194   -0.000011335    0.000003075
     12        1          -0.000160342   -0.000244262    0.000007386
     13        1          -0.000130311   -0.000449720    0.000011930
     14        6           0.000071273    0.000540328   -0.000008543
     15        6          -0.000037759    0.000285696    0.000004632
     16        6           0.000137456    0.000117834   -0.000007258
     17        6           0.000385536    0.000795627   -0.000017610
     18        1           0.000404582    0.000220924   -0.000007743
     19        1           0.000223401    0.000195373   -0.000003429
     20        1          -0.000023430    0.000283662   -0.000001701
     21        1          -0.000171124    0.000295137    0.000001266
     22        6           0.000433488   -0.000360583   -0.000600096
     23        1           0.000230392   -0.000211672   -0.000541746
     24        1           0.000249345   -0.000252738   -0.000332294
     25        1           0.000269004   -0.000217010   -0.000303389
     26        6           0.000435308   -0.000338337    0.000565770
     27        1           0.000321512   -0.000205123    0.000313091
     28        1           0.000250164   -0.000258328    0.000328587
     29        1           0.000250901   -0.000193617    0.000534704
 -------------------------------------------------------------------
 Cartesian Forces:  Max     0.001321912 RMS     0.000335321
 Leave Link  716 at Thu Aug 20 10:00:44 2026, MaxMem=   104857600 cpu:               0.0 elap:               0.0
 (Enter /sw/cluster/pub/apps//g16/l103.exe)

 GradGradGradGradGradGradGradGradGradGradGradGradGradGradGradGradGradGrad
 Berny optimization.
 FormGI is forming the generalized inverse of G from B-inverse, IUseBI=4.
 Internal  Forces:  Max     0.002357802 RMS     0.000462584
 Search for a local minimum.
 Step number   1 out of a maximum of  174
 All quantities printed in internal units (Hartrees-Bohrs-Radians)
 RMS Force = .46258D-03 SwitMx=.10000D-02 MixMth= 2
 Mixed Optimization -- En-DIIS/RFO-DIIS
 Second derivative matrix not updated -- first step.
 ITU=  0
     Eigenvalues ---    0.00230   0.00230   0.00755   0.01247   0.01447
     Eigenvalues ---    0.01649   0.01717   0.01880   0.02096   0.02097
     Eigenvalues ---    0.02113   0.02113   0.02118   0.02119   0.02135
     Eigenvalues ---    0.02135   0.02145   0.02146   0.02160   0.02161
     Eigenvalues ---    0.04412   0.05430   0.05430   0.05498   0.05499
     Eigenvalues ---    0.05969   0.08008   0.11622   0.16000   0.16000
     Eigenvalues ---    0.16000   0.16000   0.16000   0.16000   0.16000
     Eigenvalues ---    0.16000   0.16000   0.16000   0.16000   0.16000
     Eigenvalues ---    0.16000   0.16000   0.18959   0.22000   0.22000
     Eigenvalues ---    0.22600   0.22628   0.24494   0.24596   0.25000
     Eigenvalues ---    0.28039   0.28040   0.28507   0.29046   0.34098
     Eigenvalues ---    0.34102   0.34104   0.34106   0.34282   0.34283
     Eigenvalues ---    0.34531   0.35074   0.35080   0.35140   0.35144
     Eigenvalues ---    0.35181   0.35181   0.35184   0.35185   0.37944
     Eigenvalues ---    0.40615   0.42113   0.42123   0.44326   0.44713
     Eigenvalues ---    0.45815   0.45816   0.46110   0.46111   0.46877
     Eigenvalues ---    0.46883
 RFO step:  Lambda=-1.26577549D-04 EMin= 2.30000000D-03
 Linear search not attempted -- first point.
 Iteration  1 RMS(Cart)=  0.00570758 RMS(Int)=  0.00000576
 Iteration  2 RMS(Cart)=  0.00000859 RMS(Int)=  0.00000160
 Iteration  3 RMS(Cart)=  0.00000000 RMS(Int)=  0.00000160
 ITry= 1 IFail=0 DXMaxC= 2.07D-02 DCOld= 1.00D+10 DXMaxT= 3.00D-01 DXLimC= 3.00D+00 Rises=F
 Variable       Old X    -DE/DX   Delta X   Delta X   Delta X     New X
                                 (Linear)    (Quad)   (Total)
    R1        2.88883  -0.00162   0.00000  -0.00583  -0.00583   2.88300
    R2        2.88841  -0.00157   0.00000  -0.00563  -0.00563   2.88278
    R3        2.92052  -0.00236   0.00000  -0.00841  -0.00841   2.91211
    R4        2.92053  -0.00235   0.00000  -0.00838  -0.00838   2.91216
    R5        2.66325  -0.00056   0.00000  -0.00133  -0.00133   2.66191
    R6        2.62762  -0.00173   0.00000  -0.00377  -0.00377   2.62384
    R7        2.77576  -0.00073   0.00000  -0.00168  -0.00168   2.77408
    R8        2.63863  -0.00126   0.00000  -0.00276  -0.00276   2.63588
    R9        2.66305  -0.00049   0.00000  -0.00115  -0.00115   2.66190
   R10        2.63866  -0.00128   0.00000  -0.00279  -0.00279   2.63588
   R11        2.62755  -0.00170   0.00000  -0.00370  -0.00370   2.62385
   R12        2.64570  -0.00041   0.00000  -0.00087  -0.00087   2.64483
   R13        2.05555  -0.00033   0.00000  -0.00093  -0.00093   2.05462
   R14        2.64321  -0.00010   0.00000  -0.00009  -0.00009   2.64312
   R15        2.05375  -0.00029   0.00000  -0.00083  -0.00083   2.05292
   R16        2.63942  -0.00029   0.00000  -0.00052  -0.00053   2.63889
   R17        2.05382  -0.00028   0.00000  -0.00081  -0.00081   2.05301
   R18        2.05449  -0.00029   0.00000  -0.00084  -0.00084   2.05365
   R19        2.63939  -0.00028   0.00000  -0.00050  -0.00050   2.63889
   R20        2.05441  -0.00027   0.00000  -0.00078  -0.00078   2.05364
   R21        2.64327  -0.00014   0.00000  -0.00017  -0.00017   2.64311
   R22        2.05382  -0.00028   0.00000  -0.00081  -0.00081   2.05301
   R23        2.64571  -0.00041   0.00000  -0.00088  -0.00088   2.64483
   R24        2.05377  -0.00030   0.00000  -0.00084  -0.00084   2.05293
   R25        2.05546  -0.00029   0.00000  -0.00083  -0.00083   2.05462
   R26        2.06855  -0.00027   0.00000  -0.00079  -0.00079   2.06776
   R27        2.07155  -0.00023   0.00000  -0.00068  -0.00068   2.07087
   R28        2.07152  -0.00023   0.00000  -0.00066  -0.00066   2.07086
   R29        2.07164  -0.00027   0.00000  -0.00079  -0.00079   2.07086
   R30        2.07159  -0.00024   0.00000  -0.00072  -0.00072   2.07087
   R31        2.06856  -0.00027   0.00000  -0.00080  -0.00080   2.06776
    A1        1.76651   0.00063   0.00000   0.00339   0.00339   1.76990
    A2        1.94379  -0.00032   0.00000  -0.00147  -0.00147   1.94232
    A3        1.94345  -0.00031   0.00000  -0.00128  -0.00128   1.94218
    A4        1.94438  -0.00034   0.00000  -0.00196  -0.00196   1.94242
    A5        1.94430  -0.00035   0.00000  -0.00200  -0.00200   1.94229
    A6        1.91768   0.00064   0.00000   0.00312   0.00312   1.92079
    A7        1.93555  -0.00024   0.00000  -0.00159  -0.00158   1.93397
    A8        2.24948  -0.00046   0.00000  -0.00120  -0.00120   2.24828
    A9        2.09815   0.00070   0.00000   0.00279   0.00279   2.10094
   A10        1.89349  -0.00005   0.00000  -0.00005  -0.00005   1.89344
   A11        2.10492   0.00001   0.00000  -0.00026  -0.00026   2.10466
   A12        2.28477   0.00004   0.00000   0.00031   0.00031   2.28508
   A13        1.89343  -0.00005   0.00000  -0.00001  -0.00002   1.89341
   A14        2.28529  -0.00004   0.00000  -0.00001  -0.00001   2.28528
   A15        2.10447   0.00008   0.00000   0.00003   0.00003   2.10450
   A16        1.93580  -0.00029   0.00000  -0.00174  -0.00174   1.93406
   A17        2.24885  -0.00036   0.00000  -0.00082  -0.00082   2.24803
   A18        2.09854   0.00065   0.00000   0.00256   0.00256   2.10110
   A19        2.08040  -0.00041   0.00000  -0.00204  -0.00204   2.07837
   A20        2.10946  -0.00014   0.00000  -0.00114  -0.00114   2.10832
   A21        2.09333   0.00055   0.00000   0.00318   0.00317   2.09650
   A22        2.10333  -0.00004   0.00000   0.00013   0.00013   2.10345
   A23        2.08979   0.00000   0.00000  -0.00017  -0.00017   2.08962
   A24        2.09007   0.00004   0.00000   0.00004   0.00004   2.09011
   A25        2.10420   0.00009   0.00000   0.00085   0.00085   2.10505
   A26        2.08954  -0.00003   0.00000  -0.00037  -0.00037   2.08917
   A27        2.08945  -0.00005   0.00000  -0.00048  -0.00048   2.08896
   A28        2.07544  -0.00037   0.00000  -0.00153  -0.00153   2.07390
   A29        2.10883  -0.00007   0.00000  -0.00083  -0.00083   2.10799
   A30        2.09892   0.00044   0.00000   0.00237   0.00237   2.10129
   A31        2.07524  -0.00033   0.00000  -0.00138  -0.00138   2.07386
   A32        2.10849  -0.00004   0.00000  -0.00062  -0.00062   2.10786
   A33        2.09946   0.00038   0.00000   0.00201   0.00201   2.10146
   A34        2.10409   0.00009   0.00000   0.00089   0.00089   2.10497
   A35        2.08960  -0.00006   0.00000  -0.00052  -0.00052   2.08908
   A36        2.08950  -0.00003   0.00000  -0.00037  -0.00037   2.08913
   A37        2.10357  -0.00007   0.00000  -0.00002  -0.00002   2.10355
   A38        2.08995   0.00006   0.00000   0.00013   0.00013   2.09008
   A39        2.08967   0.00002   0.00000  -0.00011  -0.00011   2.08956
   A40        2.08040  -0.00040   0.00000  -0.00201  -0.00201   2.07840
   A41        2.10970  -0.00017   0.00000  -0.00129  -0.00129   2.10841
   A42        2.09308   0.00057   0.00000   0.00329   0.00329   2.09638
   A43        1.93948  -0.00066   0.00000  -0.00458  -0.00458   1.93490
   A44        1.93189  -0.00037   0.00000  -0.00212  -0.00212   1.92977
   A45        1.93145  -0.00032   0.00000  -0.00176  -0.00177   1.92968
   A46        1.88840   0.00049   0.00000   0.00259   0.00258   1.89098
   A47        1.88848   0.00047   0.00000   0.00256   0.00255   1.89104
   A48        1.88231   0.00046   0.00000   0.00375   0.00375   1.88606
   A49        1.93162  -0.00035   0.00000  -0.00195  -0.00195   1.92967
   A50        1.93190  -0.00037   0.00000  -0.00209  -0.00210   1.92980
   A51        1.93935  -0.00065   0.00000  -0.00446  -0.00446   1.93489
   A52        1.88238   0.00046   0.00000   0.00368   0.00368   1.88607
   A53        1.88837   0.00048   0.00000   0.00264   0.00264   1.89101
   A54        1.88839   0.00049   0.00000   0.00260   0.00260   1.89099
    D1       -0.00026   0.00000   0.00000   0.00023   0.00023  -0.00003
    D2        3.14150   0.00000   0.00000   0.00010   0.00010  -3.14159
    D3       -2.06842   0.00019   0.00000   0.00128   0.00128  -2.06714
    D4        1.07334   0.00018   0.00000   0.00115   0.00115   1.07449
    D5        2.06765  -0.00019   0.00000  -0.00077  -0.00077   2.06687
    D6       -1.07378  -0.00019   0.00000  -0.00090  -0.00090  -1.07468
    D7        0.00022  -0.00000   0.00000  -0.00020  -0.00020   0.00002
    D8        3.14148   0.00001   0.00000   0.00014   0.00014  -3.14156
    D9        2.06795  -0.00017   0.00000  -0.00089  -0.00089   2.06706
   D10       -1.07397  -0.00017   0.00000  -0.00055  -0.00055  -1.07452
   D11       -2.06708   0.00016   0.00000   0.00028   0.00028  -2.06680
   D12        1.07418   0.00016   0.00000   0.00062   0.00062   1.07480
   D13        0.97876   0.00019   0.00000   0.00186   0.00186   0.98062
   D14        3.07752   0.00012   0.00000   0.00068   0.00068   3.07820
   D15       -1.11981   0.00024   0.00000   0.00284   0.00284  -1.11696
   D16       -0.97933  -0.00020   0.00000  -0.00028  -0.00029  -0.97962
   D17        1.11943  -0.00026   0.00000  -0.00147  -0.00147   1.11796
   D18       -3.07790  -0.00014   0.00000   0.00070   0.00069  -3.07720
   D19        3.14056   0.00003   0.00000   0.00142   0.00142  -3.14120
   D20       -1.04386  -0.00004   0.00000   0.00024   0.00024  -1.04362
   D21        1.04199   0.00008   0.00000   0.00241   0.00241   1.04440
   D22        1.12067  -0.00025   0.00000  -0.00381  -0.00381   1.11686
   D23       -3.07646  -0.00014   0.00000  -0.00182  -0.00183  -3.07828
   D24       -0.97779  -0.00019   0.00000  -0.00289  -0.00289  -0.98068
   D25        3.07851   0.00014   0.00000  -0.00158  -0.00157   3.07694
   D26       -1.11861   0.00025   0.00000   0.00041   0.00041  -1.11820
   D27        0.98006   0.00019   0.00000  -0.00066  -0.00066   0.97940
   D28       -1.04133  -0.00007   0.00000  -0.00326  -0.00326  -1.04459
   D29        1.04473   0.00004   0.00000  -0.00127  -0.00128   1.04345
   D30       -3.13978  -0.00002   0.00000  -0.00234  -0.00234   3.14106
   D31        0.00022  -0.00000   0.00000  -0.00018  -0.00018   0.00003
   D32       -3.14138  -0.00000   0.00000  -0.00016  -0.00016  -3.14154
   D33       -3.14153  -0.00000   0.00000  -0.00007  -0.00007   3.14159
   D34        0.00006  -0.00000   0.00000  -0.00005  -0.00005   0.00002
   D35        3.14134   0.00000   0.00000   0.00021   0.00021   3.14155
   D36       -0.00017   0.00000   0.00000   0.00009   0.00009  -0.00009
   D37       -0.00008   0.00000   0.00000   0.00007   0.00007  -0.00001
   D38       -3.14159  -0.00000   0.00000  -0.00005  -0.00005   3.14155
   D39       -0.00007   0.00000   0.00000   0.00005   0.00005  -0.00002
   D40       -3.14153  -0.00000   0.00000  -0.00006  -0.00006  -3.14159
   D41        3.14153   0.00000   0.00000   0.00002   0.00002   3.14155
   D42        0.00007  -0.00000   0.00000  -0.00009  -0.00009  -0.00002
   D43        0.00002  -0.00000   0.00000  -0.00004  -0.00004  -0.00002
   D44        3.14157   0.00000   0.00000   0.00002   0.00002   3.14158
   D45       -3.14158  -0.00000   0.00000  -0.00001  -0.00001  -3.14159
   D46       -0.00003   0.00000   0.00000   0.00005   0.00005   0.00002
   D47       -0.00011  -0.00000   0.00000   0.00011   0.00011  -0.00000
   D48       -3.14140  -0.00001   0.00000  -0.00020  -0.00020   3.14158
   D49        3.14137   0.00000   0.00000   0.00020   0.00020   3.14157
   D50        0.00008  -0.00000   0.00000  -0.00010  -0.00010  -0.00003
   D51        3.14153   0.00000   0.00000   0.00004   0.00004   3.14157
   D52       -0.00007   0.00000   0.00000   0.00007   0.00007  -0.00000
   D53        0.00008  -0.00000   0.00000  -0.00008  -0.00008   0.00000
   D54       -3.14152  -0.00000   0.00000  -0.00005  -0.00005  -3.14157
   D55       -3.14137  -0.00000   0.00000  -0.00022  -0.00022  -3.14159
   D56        0.00009   0.00000   0.00000  -0.00007  -0.00007   0.00002
   D57       -0.00013   0.00000   0.00000   0.00015   0.00015   0.00002
   D58        3.14132   0.00001   0.00000   0.00030   0.00030  -3.14156
   D59        0.00003  -0.00000   0.00000  -0.00002  -0.00002   0.00002
   D60        3.14157   0.00000   0.00000   0.00004   0.00004  -3.14157
   D61       -3.14142  -0.00000   0.00000  -0.00017  -0.00017  -3.14159
   D62        0.00012  -0.00000   0.00000  -0.00011  -0.00011   0.00001
   D63        0.00012  -0.00000   0.00000  -0.00017  -0.00017  -0.00005
   D64       -3.14157  -0.00000   0.00000  -0.00001  -0.00001  -3.14158
   D65       -3.14142  -0.00000   0.00000  -0.00022  -0.00022   3.14154
   D66        0.00008  -0.00000   0.00000  -0.00007  -0.00007   0.00001
   D67       -0.00017   0.00000   0.00000   0.00021   0.00021   0.00004
   D68        3.14143   0.00000   0.00000   0.00018   0.00019  -3.14157
   D69        3.14151   0.00000   0.00000   0.00006   0.00006   3.14157
   D70       -0.00007   0.00000   0.00000   0.00003   0.00003  -0.00004
   D71       -0.00009   0.00000   0.00000   0.00010   0.00010   0.00002
   D72        3.14156   0.00000   0.00000   0.00005   0.00005  -3.14158
   D73        3.14155   0.00000   0.00000   0.00005   0.00005  -3.14159
   D74        0.00001  -0.00000   0.00000  -0.00001  -0.00001  -0.00000
   D75        0.00008  -0.00000   0.00000  -0.00008  -0.00008  -0.00001
   D76       -3.14159   0.00000   0.00000   0.00001   0.00001  -3.14157
   D77       -3.14157  -0.00000   0.00000  -0.00003  -0.00003   3.14159
   D78       -0.00005   0.00000   0.00000   0.00007   0.00007   0.00002
   D79        0.00001  -0.00000   0.00000  -0.00001  -0.00001   0.00000
   D80        3.14152   0.00000   0.00000   0.00011   0.00011  -3.14155
   D81       -3.14151  -0.00000   0.00000  -0.00010  -0.00010   3.14157
   D82       -0.00000   0.00000   0.00000   0.00002   0.00002   0.00002
         Item               Value     Threshold  Converged?
 Maximum Force            0.002358     0.000450     NO 
 RMS     Force            0.000463     0.000300     NO 
 Maximum Displacement     0.020704     0.001800     NO 
 RMS     Displacement     0.005707     0.001200     NO 
 Predicted change in Energy=-6.332887D-05
 Lowest energy point so far.  Saving SCF results.
 GradGradGradGradGradGradGradGradGradGradGradGradGradGradGradGradGradGrad

 Leave Link  103 at Thu Aug 20 10:00:45 2026, MaxMem=   104857600 cpu:               0.0 elap:               0.0
 (Enter /sw/cluster/pub/apps//g16/l202.exe)
                          Input orientation:                          
 ---------------------------------------------------------------------
 Center     Atomic      Atomic             Coordinates (Angstroms)
 Number     Number       Type             X           Y           Z
 ---------------------------------------------------------------------
      1          6           0        0.006719   -0.011926    0.039719
      2          6           0       -0.044643   -1.536631    0.051920
      3          6           0        1.254297   -2.081244    0.032756
      4          6           0        2.221550   -0.977280    0.007358
      5          6           0        1.511156    0.239080    0.011042
      6          6           0        2.191063    1.449519   -0.010007
      7          6           0        3.590409    1.443402   -0.034924
      8          6           0        4.295468    0.235434   -0.038619
      9          6           0        3.616156   -0.984459   -0.017477
     10          1           0        4.167499   -1.920956   -0.020409
     11          1           0        5.381649    0.246205   -0.058061
     12          1           0        4.132996    2.384413   -0.051517
     13          1           0        1.649531    2.392316   -0.007285
     14          6           0        1.444782   -3.463006    0.039520
     15          6           0        0.324945   -4.296866    0.065652
     16          6           0       -0.964986   -3.756496    0.084694
     17          6           0       -1.154997   -2.369887    0.077874
     18          1           0       -2.160710   -1.957029    0.092819
     19          1           0       -1.826406   -4.418106    0.104962
     20          1           0        0.456913   -5.375215    0.071240
     21          1           0        2.445552   -3.886377    0.024774
     22          6           0       -0.635201    0.579646    1.309655
     23          1           0       -0.156739    0.181767    2.209691
     24          1           0       -0.534728    1.670846    1.319302
     25          1           0       -1.702931    0.336365    1.350326
     26          6           0       -0.680001    0.560748   -1.215385
     27          1           0       -1.748398    0.316998   -1.214603
     28          1           0       -0.580385    1.651670   -1.244867
     29          1           0       -0.233549    0.149416   -2.125764
 ---------------------------------------------------------------------
                    Distance matrix (angstroms):
                    1          2          3          4          5
     1  C    0.000000
     2  C    1.525619   0.000000
     3  C    2.416315   1.408623   0.000000
     4  C    2.416284   2.334628   1.467977   0.000000
     5  C    1.525502   2.361214   2.334598   1.408618   0.000000
     6  C    2.628622   3.730859   3.653169   2.427053   1.388481
     7  C    3.868641   4.701250   4.229081   2.781235   2.403289
     8  C    4.296591   4.688814   3.823717   2.402900   2.784757
     9  C    3.738599   3.702859   2.604580   1.394846   2.434930
    10  H    4.578220   4.230258   2.918093   2.162872   3.423873
    11  H    5.382013   5.712727   4.739230   3.389310   3.871117
    12  H    4.772517   5.730441   5.313765   3.867567   3.388275
    13  H    2.912288   4.279060   4.491164   3.417835   2.157756
    14  C    3.738713   2.435049   1.394847   2.604465   3.702790
    15  C    4.296819   2.784903   2.402865   3.823632   4.688805
    16  C    3.868855   2.403311   2.781076   4.228952   4.701205
    17  C    2.628882   1.388479   2.426942   3.653135   3.730891
    18  H    2.912730   2.157810   3.417794   4.491259   4.279274
    19  H    4.772738   3.388272   3.867411   5.313638   5.730403
    20  H    5.382243   3.871260   3.389329   4.739183   5.712737
    21  H    4.578155   3.423904   2.162789   2.917761   4.229974
    22  C    1.541024   2.531656   3.504427   3.504428   2.531646
    23  H    2.184723   2.760694   3.442570   3.442371   2.760293
    24  H    2.182250   3.483439   4.351320   4.041142   2.819067
    25  H    2.182178   2.818491   4.040547   4.350951   3.483318
    26  C    1.541047   2.531549   3.504210   3.504230   2.531553
    27  H    2.182190   2.818298   4.040254   4.350727   3.483241
    28  H    2.182294   3.483381   4.351210   4.041075   2.819089
    29  H    2.184737   2.760570   3.442200   3.441970   2.760068
                    6          7          8          9         10
     6  C    0.000000
     7  C    1.399582   0.000000
     8  C    2.429680   1.398681   0.000000
     9  C    2.820495   2.428060   1.396442   0.000000
    10  H    3.907238   3.413524   2.160260   1.086745   0.000000
    11  H    3.410296   2.154613   1.086409   2.152475   2.484384
    12  H    2.155656   1.086359   2.155151   3.408457   4.305619
    13  H    1.087258   2.160604   3.413811   3.907726   4.994462
    14  C    4.969134   5.355567   4.670222   3.295651   3.129649
    15  C    6.042273   6.604851   6.026415   4.670228   4.518582
    16  C    6.088695   6.914107   6.604778   5.355510   5.451849
    17  C    5.078553   6.088742   6.042254   4.969145   5.342299
    18  H    5.527483   6.682412   6.819561   5.859201   6.329325
    19  H    7.112123   7.982401   7.691124   6.436335   6.494488
    20  H    7.042079   7.504906   6.798967   5.409938   5.070381
    21  H    5.342075   5.451680   4.518355   3.129414   2.613432
    22  C    3.238202   4.517715   5.123263   4.720353   5.575662
    23  H    3.470797   4.546553   4.987978   4.533773   5.300361
    24  H    3.040721   4.347691   5.218731   5.105630   6.066861
    25  H    4.272331   5.582464   6.157934   5.648730   6.437109
    26  C    3.238187   4.517629   5.123075   4.720128   5.575400
    27  H    4.272354   5.582409   6.157752   5.648481   6.436799
    28  H    3.040833   4.347743   5.218688   5.105548   6.066742
    29  H    3.470653   4.546281   4.987541   4.533296   5.299829
                   11         12         13         14         15
    11  H    0.000000
    12  H    2.476108   0.000000
    13  H    4.305471   2.483871   0.000000
    14  C    5.409870   6.436388   5.859088   0.000000
    15  C    6.798902   7.691195   6.819458   1.396439   0.000000
    16  C    7.504783   7.982401   6.682219   2.427995   1.398672
    17  C    7.042028   7.112171   5.527315   2.820501   2.429737
    18  H    7.859020   7.647201   5.783145   3.907733   3.413803
    19  H    8.587109   9.045066   7.646998   3.408396   2.155123
    20  H    7.474631   8.587228   7.858947   2.152541   1.086408
    21  H    5.070085   6.494312   6.329034   1.086739   2.160358
    22  C    6.179346   5.276900   3.200016   4.720445   5.123455
    23  H    5.985031   5.326024   3.614432   4.534190   4.988695
    24  H    6.239411   4.916906   2.655436   5.649136   6.158268
    25  H    7.223778   6.341743   4.160414   5.105049   5.218189
    26  C    6.179154   5.276863   3.200135   4.720178   5.123220
    27  H    7.223585   6.341748   4.160587   5.104670   5.217811
    28  H    6.239367   4.917007   2.655690   5.648970   6.158098
    29  H    5.984581   5.325826   3.614490   4.533745   4.988351
                   16         17         18         19         20
    16  C    0.000000
    17  C    1.399583   0.000000
    18  H    2.160533   1.087260   0.000000
    19  H    1.086362   2.155626   2.483708   0.000000
    20  H    2.154583   3.410321   4.305393   2.476033   0.000000
    21  H    3.413536   3.907238   4.994463   4.305669   2.484649
    22  C    4.517899   3.238397   3.200404   5.277099   6.179543
    23  H    4.547394   3.471613   3.615452   5.326960   5.985782
    24  H    5.582599   4.272400   4.160475   6.341797   7.224125
    25  H    4.347171   3.040258   2.655286   4.916418   6.238840
    26  C    4.517744   3.238327   3.200484   5.276982   6.179290
    27  H    4.346868   3.040062   2.655289   4.916152   6.238436
    28  H    5.582464   4.272323   4.160474   6.341671   7.223935
    29  H    4.547227   3.471595   3.615684   5.326874   5.985408
                   21         22         23         24         25
    21  H    0.000000
    22  C    5.575600   0.000000
    23  H    5.300526   1.094211   0.000000
    24  H    6.437437   1.095859   1.775675   0.000000
    25  H    6.066181   1.095850   1.775702   1.773838   0.000000
    26  C    5.575303   2.525508   3.485480   2.770930   2.771210
    27  H    6.065776   2.771294   3.778552   3.118745   2.565406
    28  H    6.437255   2.770889   3.778103   2.564647   3.118520
    29  H    5.300002   3.485473   4.336255   3.778086   3.778523
                   26         27         28         29
    26  C    0.000000
    27  H    1.095849   0.000000
    28  H    1.095858   1.773843   0.000000
    29  H    1.094214   1.775687   1.775680   0.000000
 Stoichiometry    C15H14
 Framework group  C1[X(C15H14)]
 Deg. of freedom    81
 Full point group                 C1      NOp   1
 RotChk:  IX=0 Diff= 1.64D-04
 Largest Abelian subgroup         C1      NOp   1
 Largest concise Abelian subgroup C1      NOp   1
                         Standard orientation:                         
 ---------------------------------------------------------------------
 Center     Atomic      Atomic             Coordinates (Angstroms)
 Number     Number       Type             X           Y           Z
 ---------------------------------------------------------------------
      1          6           0       -0.000146    1.412277   -0.000023
      2          6           0        1.180611    0.446188   -0.000054
      3          6           0        0.734078   -0.889785   -0.000034
      4          6           0       -0.733900   -0.889903   -0.000033
      5          6           0       -1.180604    0.446009   -0.000027
      6          6           0       -2.539269    0.732203   -0.000037
      7          6           0       -3.457047   -0.324449   -0.000029
      8          6           0       -3.013140   -1.650819    0.000010
      9          6           0       -1.647754   -1.943689   -0.000014
     10          1           0       -1.306729   -2.975540   -0.000001
     11          1           0       -3.737198   -2.460771    0.000003
     12          1           0       -4.522530   -0.112503   -0.000057
     13          1           0       -2.891501    1.760825   -0.000061
     14          6           0        1.647896   -1.943603    0.000005
     15          6           0        3.013275   -1.650719   -0.000003
     16          6           0        3.457060   -0.324319   -0.000030
     17          6           0        2.539284    0.732337   -0.000057
     18          1           0        2.891644    1.760916   -0.000116
     19          1           0        4.522535   -0.112316   -0.000054
     20          1           0        3.737434   -2.460582    0.000016
     21          1           0        1.306703   -2.975393    0.000029
     22          6           0       -0.000163    2.295762   -1.262644
     23          1           0       -0.000585    1.681405   -2.168106
     24          1           0       -0.886865    2.939412   -1.282133
     25          1           0        0.886972    2.938790   -1.282475
     26          6           0       -0.000118    2.295420    1.262864
     27          1           0        0.887119    2.938299    1.282930
     28          1           0       -0.886723    2.939197    1.282514
     29          1           0       -0.000653    1.680797    2.168149
 ---------------------------------------------------------------------
 Rotational constants (GHZ):           1.0604341           0.5503679           0.3929596
 Leave Link  202 at Thu Aug 20 10:00:45 2026, MaxMem=   104857600 cpu:               0.0 elap:               0.0
 (Enter /sw/cluster/pub/apps//g16/l301.exe)
 Standard basis: 6-31G(d) (6D, 7F)
 Ernie: Thresh=  0.10000D-02 Tol=  0.10000D-05 Strict=F.
 There are   253 symmetry adapted cartesian basis functions of A   symmetry.
 There are   253 symmetry adapted basis functions of A   symmetry.
   253 basis functions,   476 primitive gaussians,   253 cartesian basis functions
    52 alpha electrons       52 beta electrons
       nuclear repulsion energy       927.2127109925 Hartrees.
 IExCor=  402 DFT=T Ex+Corr=B3LYP ExCW=0 ScaHFX=  0.200000
 ScaDFX=  0.800000  0.720000  1.000000  0.810000 ScalE2=  1.000000  1.000000
 IRadAn=      5 IRanWt=     -1 IRanGd=            0 ICorTp=0 IEmpDi=141
 NAtoms=   29 NActive=   29 NUniq=   29 SFac= 1.00D+00 NAtFMM=   60 NAOKFM=F Big=F
 Integral buffers will be    131072 words long.
 Raffenetti 2 integral format.
 Two-electron integral symmetry is turned on.
 R6Disp:  Grimme-D3(BJ) Dispersion energy=       -0.0648489098 Hartrees.
 Nuclear repulsion after empirical dispersion term =      927.1478620827 Hartrees.
 Leave Link  301 at Thu Aug 20 10:00:45 2026, MaxMem=   104857600 cpu:               0.0 elap:               0.0
 (Enter /sw/cluster/pub/apps//g16/l302.exe)
 NPDir=0 NMtPBC=     1 NCelOv=     1 NCel=       1 NClECP=     1 NCelD=      1
         NCelK=      1 NCelE2=     1 NClLst=     1 CellRange=     0.0.
 One-electron integrals computed using PRISM.
 One-electron integral symmetry used in STVInt
 NBasis=   253 RedAO= T EigKep=  3.60D-04  NBF=   253
 NBsUse=   253 1.00D-06 EigRej= -1.00D+00 NBFU=   253
 Precomputing XC quadrature grid using
 IXCGrd= 4 IRadAn=           5 IRanWt=          -1 IRanGd=           0 AccXCQ= 0.00D+00.
 Generated NRdTot=       0 NPtTot=           0 NUsed=           0 NTot=          32
 NSgBfM=   252   252   252   252   252 MxSgAt=    29 MxSgA2=    29.
 Leave Link  302 at Thu Aug 20 10:00:45 2026, MaxMem=   104857600 cpu:               0.3 elap:               0.3
 (Enter /sw/cluster/pub/apps//g16/l303.exe)
 DipDrv:  MaxL=1.
 Leave Link  303 at Thu Aug 20 10:00:45 2026, MaxMem=   104857600 cpu:               0.0 elap:               0.0
 (Enter /sw/cluster/pub/apps//g16/l401.exe)
 Initial guess from the checkpoint file:  "f1.chk"
 B after Tr=     0.000000    0.000000    0.000000
         Rot=    1.000000    0.000030    0.000006   -0.000043 Ang=   0.01 deg.
 Guess basis will be translated and rotated to current coordinates.
 JPrj=2 DoOrth=T DoCkMO=T.
 Generating alternative initial guess.
 ExpMin= 1.61D-01 ExpMax= 3.05D+03 ExpMxC= 4.57D+02 IAcc=2 IRadAn=         4 AccDes= 0.00D+00
 Harris functional with IExCor=  402 and IRadAn=       4 diagonalized for initial guess.
 HarFok:  IExCor=  402 AccDes= 0.00D+00 IRadAn=         4 IDoV= 1 UseB2=F ITyADJ=14
 ICtDFT=  3500011 ScaDFX=  1.000000  1.000000  1.000000  1.000000
 FoFCou: FMM=F IPFlag=           0 FMFlag=      100000 FMFlg1=           0
         NFxFlg=           0 DoJE=T BraDBF=F KetDBF=T FulRan=T
         wScrn=  0.000000 ICntrl=       500 IOpCl=  0 I1Cent=   200000004 NGrid=           0
         NMat0=    1 NMatS0=      1 NMatT0=    0 NMatD0=    1 NMtDS0=    0 NMtDT0=    0
 Petite list used in FoFCou.
 Harris En= -580.155669252570    
 Leave Link  401 at Thu Aug 20 10:00:47 2026, MaxMem=   104857600 cpu:               1.2 elap:               1.3
 (Enter /sw/cluster/pub/apps//g16/l502.exe)
 Integral symmetry usage will be decided dynamically.
 Closed shell SCF:
 Using DIIS extrapolation, IDIIS=  1040.
 NGot=   104857600 LenX=   104725134 LenY=   104660684
 Requested convergence on RMS density matrix=1.00D-08 within 128 cycles.
 Requested convergence on MAX density matrix=1.00D-06.
 Requested convergence on             energy=1.00D-06.
 No special actions if energy rises.
 Fock matrices will be formed incrementally for  20 cycles.
 Integral accuracy reduced to 1.0D-05 until final iterations.

 Cycle   1  Pass 0  IDiag  1:
 FoFJK:  IHMeth= 1 ICntrl=       0 DoSepK=F KAlg= 0 I1Cent=           0 FoldK=F
 IRaf= 900000000 NMat=       1 IRICut=       1 DoRegI=T DoRafI=F ISym2E= 0 IDoP0=0 IntGTp=1.
 FoFCou: FMM=F IPFlag=           0 FMFlag=      100000 FMFlg1=           0
         NFxFlg=           0 DoJE=F BraDBF=F KetDBF=F FulRan=T
         wScrn=  0.000000 ICntrl=         0 IOpCl=  0 I1Cent=           0 NGrid=           0
         NMat0=    1 NMatS0=      1 NMatT0=    0 NMatD0=    1 NMtDS0=    0 NMtDT0=    0
 Symmetry not used in FoFCou.
 E= -580.115983284264    
 DIIS: error= 2.46D-04 at cycle   1 NSaved=   1.
 NSaved= 1 IEnMin= 1 EnMin= -580.115983284264     IErMin= 1 ErrMin= 2.46D-04
 ErrMax= 2.46D-04  0.00D+00 EMaxC= 1.00D-01 BMatC= 1.82D-05 BMatP= 1.82D-05
 IDIUse=3 WtCom= 9.98D-01 WtEn= 2.46D-03
 Coeff-Com:  0.100D+01
 Coeff-En:   0.100D+01
 Coeff:      0.100D+01
 Gap=     1.983 Goal=   None    Shift=    0.000
 RMSDP=6.33D-05 MaxDP=1.12D-03              OVMax= 1.16D-03

 Cycle   2  Pass 0  IDiag  1:
 RMSU=  6.22D-05    CP:  1.00D+00
 E= -580.116005457697     Delta-E=       -0.000022173433 Rises=F Damp=F
 DIIS: error= 1.17D-04 at cycle   2 NSaved=   2.
 NSaved= 2 IEnMin= 2 EnMin= -580.116005457697     IErMin= 2 ErrMin= 1.17D-04
 ErrMax= 1.17D-04  0.00D+00 EMaxC= 1.00D-01 BMatC= 2.58D-06 BMatP= 1.82D-05
 IDIUse=3 WtCom= 9.99D-01 WtEn= 1.17D-03
 Coeff-Com:  0.178D+00 0.822D+00
 Coeff-En:   0.000D+00 0.100D+01
 Coeff:      0.178D+00 0.822D+00
 Gap=     0.183 Goal=   None    Shift=    0.000
 RMSDP=1.64D-05 MaxDP=6.44D-04 DE=-2.22D-05 OVMax= 7.99D-04

 Cycle   3  Pass 0  IDiag  1:
 RMSU=  1.64D-05    CP:  1.00D+00  9.92D-01
 E= -580.116005033160     Delta-E=        0.000000424537 Rises=F Damp=F
 DIIS: error= 1.30D-04 at cycle   3 NSaved=   3.
 NSaved= 3 IEnMin= 2 EnMin= -580.116005457697     IErMin= 2 ErrMin= 1.17D-04
 ErrMax= 1.30D-04  0.00D+00 EMaxC= 1.00D-01 BMatC= 2.83D-06 BMatP= 2.58D-06
 IDIUse=3 WtCom= 9.99D-01 WtEn= 1.30D-03
 Coeff-Com: -0.351D-02 0.512D+00 0.491D+00
 Coeff-En:   0.000D+00 0.532D+00 0.468D+00
 Coeff:     -0.350D-02 0.512D+00 0.491D+00
 Gap=     0.183 Goal=   None    Shift=    0.000
 RMSDP=1.05D-05 MaxDP=3.32D-04 DE= 4.25D-07 OVMax= 6.97D-04

 Cycle   4  Pass 0  IDiag  1:
 RMSU=  4.31D-06    CP:  1.00D+00  9.96D-01  4.18D-01
 E= -580.116007997848     Delta-E=       -0.000002964688 Rises=F Damp=F
 DIIS: error= 4.55D-05 at cycle   4 NSaved=   4.
 NSaved= 4 IEnMin= 4 EnMin= -580.116007997848     IErMin= 4 ErrMin= 4.55D-05
 ErrMax= 4.55D-05  0.00D+00 EMaxC= 1.00D-01 BMatC= 2.85D-07 BMatP= 2.58D-06
 IDIUse=1 WtCom= 1.00D+00 WtEn= 0.00D+00
 Coeff-Com: -0.137D-01 0.264D+00 0.317D+00 0.433D+00
 Coeff:     -0.137D-01 0.264D+00 0.317D+00 0.433D+00
 Gap=     0.183 Goal=   None    Shift=    0.000
 RMSDP=2.66D-06 MaxDP=8.07D-05 DE=-2.96D-06 OVMax= 2.30D-04

 Initial convergence to 1.0D-05 achieved.  Increase integral accuracy.
 Cycle   5  Pass 1  IDiag  1:
 E= -580.116021571148     Delta-E=       -0.000013573300 Rises=F Damp=F
 DIIS: error= 6.54D-05 at cycle   1 NSaved=   1.
 NSaved= 1 IEnMin= 1 EnMin= -580.116021571148     IErMin= 1 ErrMin= 6.54D-05
 ErrMax= 6.54D-05  0.00D+00 EMaxC= 1.00D-01 BMatC= 2.45D-07 BMatP= 2.45D-07
 IDIUse=1 WtCom= 1.00D+00 WtEn= 0.00D+00
 Coeff-Com:  0.100D+01
 Coeff:      0.100D+01
 Gap=     0.183 Goal=   None    Shift=    0.000
 RMSDP=2.66D-06 MaxDP=8.07D-05 DE=-1.36D-05 OVMax= 7.98D-05

 Cycle   6  Pass 1  IDiag  1:
 RMSU=  2.98D-05    CP:  1.00D+00
 E= -580.116021707349     Delta-E=       -0.000000136201 Rises=F Damp=F
 DIIS: error= 1.15D-05 at cycle   2 NSaved=   2.
 NSaved= 2 IEnMin= 2 EnMin= -580.116021707349     IErMin= 2 ErrMin= 1.15D-05
 ErrMax= 1.15D-05  0.00D+00 EMaxC= 1.00D-01 BMatC= 2.89D-08 BMatP= 2.45D-07
 IDIUse=1 WtCom= 1.00D+00 WtEn= 0.00D+00
 Coeff-Com:  0.143D+00 0.857D+00
 Coeff:      0.143D+00 0.857D+00
 Gap=     0.183 Goal=   None    Shift=    0.000
 RMSDP=1.97D-06 MaxDP=4.65D-05 DE=-1.36D-07 OVMax= 1.39D-04

 Cycle   7  Pass 1  IDiag  1:
 RMSU=  1.96D-06    CP:  1.00D+00  1.00D+00
 E= -580.116021666107     Delta-E=        0.000000041242 Rises=F Damp=F
 DIIS: error= 2.02D-05 at cycle   3 NSaved=   3.
 NSaved= 3 IEnMin= 2 EnMin= -580.116021707349     IErMin= 2 ErrMin= 1.15D-05
 ErrMax= 2.02D-05  0.00D+00 EMaxC= 1.00D-01 BMatC= 6.69D-08 BMatP= 2.89D-08
 IDIUse=1 WtCom= 1.00D+00 WtEn= 0.00D+00
 Coeff-Com:  0.101D-02 0.604D+00 0.395D+00
 Coeff:      0.101D-02 0.604D+00 0.395D+00
 Gap=     0.183 Goal=   None    Shift=    0.000
 RMSDP=1.31D-06 MaxDP=3.13D-05 DE= 4.12D-08 OVMax= 9.50D-05

 Cycle   8  Pass 1  IDiag  1:
 RMSU=  3.07D-07    CP:  1.00D+00  1.01D+00  3.61D-01
 E= -580.116021735364     Delta-E=       -0.000000069257 Rises=F Damp=F
 DIIS: error= 2.49D-06 at cycle   4 NSaved=   4.
 NSaved= 4 IEnMin= 4 EnMin= -580.116021735364     IErMin= 4 ErrMin= 2.49D-06
 ErrMax= 2.49D-06  0.00D+00 EMaxC= 1.00D-01 BMatC= 1.57D-09 BMatP= 2.89D-08
 IDIUse=1 WtCom= 1.00D+00 WtEn= 0.00D+00
 Coeff-Com: -0.304D-02 0.364D+00 0.253D+00 0.386D+00
 Coeff:     -0.304D-02 0.364D+00 0.253D+00 0.386D+00
 Gap=     0.183 Goal=   None    Shift=    0.000
 RMSDP=2.00D-07 MaxDP=6.74D-06 DE=-6.93D-08 OVMax= 1.25D-05

 Cycle   9  Pass 1  IDiag  1:
 RMSU=  6.77D-08    CP:  1.00D+00  1.01D+00  3.91D-01  4.17D-01
 E= -580.116021737088     Delta-E=       -0.000000001724 Rises=F Damp=F
 DIIS: error= 2.18D-07 at cycle   5 NSaved=   5.
 NSaved= 5 IEnMin= 5 EnMin= -580.116021737088     IErMin= 5 ErrMin= 2.18D-07
 ErrMax= 2.18D-07  0.00D+00 EMaxC= 1.00D-01 BMatC= 9.56D-12 BMatP= 1.57D-09
 IDIUse=1 WtCom= 1.00D+00 WtEn= 0.00D+00
 Coeff-Com: -0.129D-02 0.135D+00 0.932D-01 0.161D+00 0.612D+00
 Coeff:     -0.129D-02 0.135D+00 0.932D-01 0.161D+00 0.612D+00
 Gap=     0.183 Goal=   None    Shift=    0.000
 RMSDP=1.82D-08 MaxDP=5.02D-07 DE=-1.72D-09 OVMax= 1.20D-06

 Cycle  10  Pass 1  IDiag  1:
 RMSU=  1.60D-08    CP:  1.00D+00  1.01D+00  3.90D-01  4.30D-01  8.87D-01
 E= -580.116021737092     Delta-E=       -0.000000000004 Rises=F Damp=F
 DIIS: error= 7.53D-08 at cycle   6 NSaved=   6.
 NSaved= 6 IEnMin= 6 EnMin= -580.116021737092     IErMin= 6 ErrMin= 7.53D-08
 ErrMax= 7.53D-08  0.00D+00 EMaxC= 1.00D-01 BMatC= 1.96D-12 BMatP= 9.56D-12
 IDIUse=1 WtCom= 1.00D+00 WtEn= 0.00D+00
 Coeff-Com: -0.413D-03 0.389D-01 0.266D-01 0.530D-01 0.342D+00 0.540D+00
 Coeff:     -0.413D-03 0.389D-01 0.266D-01 0.530D-01 0.342D+00 0.540D+00
 Gap=     0.183 Goal=   None    Shift=    0.000
 RMSDP=8.08D-09 MaxDP=2.32D-07 DE=-4.09D-12 OVMax= 6.29D-07

 SCF Done:  E(RB3LYP) =  -580.116021737     A.U. after   10 cycles
            NFock= 10  Conv=0.81D-08     -V/T= 2.0099
 KE= 5.744374927551D+02 PE=-3.196783117253D+03 EE= 1.115081740678D+03
 Leave Link  502 at Thu Aug 20 10:01:27 2026, MaxMem=   104857600 cpu:              40.7 elap:              40.8
 (Enter /sw/cluster/pub/apps//g16/l701.exe)
 ... and contract with generalized density number  0.
 Compute integral first derivatives.
 R6Disp: Adding Grimme-D3(BJ) dispersion energy 1st derivatives to the gradient.
 Leave Link  701 at Thu Aug 20 10:01:28 2026, MaxMem=   104857600 cpu:               0.1 elap:               0.1
 (Enter /sw/cluster/pub/apps//g16/l702.exe)
 L702 exits ... SP integral derivatives will be done elsewhere.
 Leave Link  702 at Thu Aug 20 10:01:28 2026, MaxMem=   104857600 cpu:               0.0 elap:               0.0
 (Enter /sw/cluster/pub/apps//g16/l703.exe)
 Integral derivatives from FoFJK, PRISM(SPDF).
 Compute integral first derivatives, UseDBF=F ICtDFT=           0.
 Calling FoFJK, ICntrl=      2127 FMM=F ISym2X=0 I1Cent= 0 IOpClX= 0 NMat=1 NMatS=1 NMatT=0.
 FoFJK:  IHMeth= 1 ICntrl=    2127 DoSepK=F KAlg= 0 I1Cent=           0 FoldK=F
 IRaf=         0 NMat=       1 IRICut=       1 DoRegI=T DoRafI=F ISym2E= 0 IDoP0=0 IntGTp=1.
 FoFCou: FMM=F IPFlag=           0 FMFlag=      100000 FMFlg1=         800
         NFxFlg=           0 DoJE=F BraDBF=F KetDBF=F FulRan=T
         wScrn=  0.000000 ICntrl=      2127 IOpCl=  0 I1Cent=           0 NGrid=           0
         NMat0=    1 NMatS0=      1 NMatT0=    0 NMatD0=    1 NMtDS0=    0 NMtDT0=    0
 Symmetry not used in FoFCou.
 Leave Link  703 at Thu Aug 20 10:01:45 2026, MaxMem=   104857600 cpu:              15.5 elap:              15.6
 (Enter /sw/cluster/pub/apps//g16/l716.exe)
 Dipole        = 5.24011424D-05 1.65046857D-01-7.21363788D-06
 ***** Axes restored to original set *****
 -------------------------------------------------------------------
 Center     Atomic                   Forces (Hartrees/Bohr)
 Number     Number              X              Y              Z
 -------------------------------------------------------------------
      1        6          -0.000123662    0.000043547   -0.000015432
      2        6          -0.000151302   -0.000040305    0.000008303
      3        6           0.000270623   -0.000021430   -0.000006006
      4        6           0.000056427   -0.000227435   -0.000001568
      5        6           0.000026255    0.000196650    0.000007578
      6        6          -0.000138056    0.000042639    0.000002763
      7        6           0.000234905   -0.000055796   -0.000005227
      8        6           0.000021360    0.000176819    0.000003395
      9        6           0.000061140   -0.000097515   -0.000003205
     10        1           0.000008995   -0.000006333    0.000000270
     11        1           0.000027015    0.000046116   -0.000001875
     12        1           0.000068838   -0.000014739   -0.000002038
     13        1          -0.000033670   -0.000024426    0.000000570
     14        6           0.000091081   -0.000033495    0.000000072
     15        6          -0.000168974   -0.000038923    0.000002081
     16        6           0.000072851   -0.000232853    0.000002240
     17        6          -0.000076747    0.000141964    0.000002732
     18        1           0.000022826    0.000045327   -0.000002518
     19        1           0.000023982   -0.000064969   -0.000000529
     20        1          -0.000035236   -0.000031653    0.000000751
     21        1           0.000004496   -0.000022668    0.000000150
     22        6          -0.000044654    0.000047343    0.000261931
     23        1          -0.000031171    0.000020717    0.000035513
     24        1          -0.000050507   -0.000016100    0.000083857
     25        1           0.000005541    0.000059868    0.000088446
     26        6          -0.000059330    0.000042391   -0.000260989
     27        1           0.000000849    0.000060525   -0.000088431
     28        1          -0.000051650   -0.000016743   -0.000080504
     29        1          -0.000032225    0.000021475   -0.000032329
 -------------------------------------------------------------------
 Cartesian Forces:  Max     0.000270623 RMS     0.000087943
 Leave Link  716 at Thu Aug 20 10:01:45 2026, MaxMem=   104857600 cpu:               0.0 elap:               0.0
 (Enter /sw/cluster/pub/apps//g16/l103.exe)

 GradGradGradGradGradGradGradGradGradGradGradGradGradGradGradGradGradGrad
 Berny optimization.
 Using GEDIIS/GDIIS optimizer.
 FormGI is forming the generalized inverse of G from B-inverse, IUseBI=4.
 Internal  Forces:  Max     0.000480357 RMS     0.000087876
 Search for a local minimum.
 Step number   2 out of a maximum of  174
 All quantities printed in internal units (Hartrees-Bohrs-Radians)
 RMS Force = .87876D-04 SwitMx=.10000D-02 MixMth= 2
 Mixed Optimization -- En-DIIS/RFO-DIIS
 Swapping is turned off.
 Update second derivatives using D2CorX and points    1    2
 DE= -5.54D-05 DEPred=-6.33D-05 R= 8.75D-01
 TightC=F SS=  1.41D+00  RLast= 2.36D-02 DXNew= 5.0454D-01 7.0908D-02
 Trust test= 8.75D-01 RLast= 2.36D-02 DXMaxT set to 3.00D-01
 ITU=  1  0
     Eigenvalues ---    0.00230   0.00230   0.00754   0.01249   0.01449
     Eigenvalues ---    0.01648   0.01717   0.01880   0.02096   0.02097
     Eigenvalues ---    0.02113   0.02113   0.02118   0.02119   0.02135
     Eigenvalues ---    0.02135   0.02145   0.02146   0.02160   0.02161
     Eigenvalues ---    0.04408   0.05470   0.05470   0.05503   0.05518
     Eigenvalues ---    0.05968   0.08021   0.11655   0.15670   0.16000
     Eigenvalues ---    0.16000   0.16000   0.16000   0.16000   0.16000
     Eigenvalues ---    0.16000   0.16000   0.16000   0.16000   0.16000
     Eigenvalues ---    0.16000   0.16452   0.18619   0.21993   0.22000
     Eigenvalues ---    0.22601   0.22612   0.24478   0.24533   0.24998
     Eigenvalues ---    0.28039   0.28390   0.29039   0.30627   0.34053
     Eigenvalues ---    0.34100   0.34103   0.34105   0.34275   0.34283
     Eigenvalues ---    0.34866   0.35055   0.35078   0.35139   0.35145
     Eigenvalues ---    0.35181   0.35183   0.35185   0.35223   0.37934
     Eigenvalues ---    0.41119   0.42116   0.42166   0.44322   0.44680
     Eigenvalues ---    0.45667   0.45816   0.46110   0.46329   0.46882
     Eigenvalues ---    0.48236
 En-DIIS/RFO-DIIS/Sim-DIIS IScMMF=       -3 using points:     2    1
 RFO step:  Lambda=-4.14595415D-06.
 NNeg= 0 NGDIIS= 2 SimSw=  2.50D-03 Rises=F DC= -5.54D-05 SmlDif=  1.00D-05
 NRisDI= 0 DoIntr=F SqrtH=F CThrHd= 10.0 CDAdj=  3.0
 RMS Error=  0.4208497124D-03 NUsed= 2 OKEnD=T EnDIS=F
 InvSVX:  RCond= 6.28D-04 Info=           0 Equed=N FErr=  1.05D-15 BErr=  6.89D-17
 DidBck=F Rises=F RFO-DIIS coefs:    0.88793    0.11207
 Iteration  1 RMS(Cart)=  0.00084275 RMS(Int)=  0.00000041
 Iteration  2 RMS(Cart)=  0.00000047 RMS(Int)=  0.00000018
 ITry= 1 IFail=0 DXMaxC= 4.98D-03 DCOld= 1.00D+10 DXMaxT= 3.00D-01 DXLimC= 3.00D+00 Rises=F
 Variable       Old X    -DE/DX   Delta X   Delta X   Delta X     New X
                                 (Linear)    (Quad)   (Total)
    R1        2.88300   0.00022   0.00065  -0.00000   0.00065   2.88365
    R2        2.88278   0.00026   0.00063   0.00017   0.00080   2.88359
    R3        2.91211   0.00048   0.00094   0.00042   0.00136   2.91348
    R4        2.91216   0.00048   0.00094   0.00043   0.00136   2.91352
    R5        2.66191   0.00031   0.00015   0.00046   0.00061   2.66252
    R6        2.62384   0.00007   0.00042  -0.00035   0.00008   2.62392
    R7        2.77408   0.00010   0.00019  -0.00010   0.00009   2.77417
    R8        2.63588   0.00016   0.00031  -0.00004   0.00027   2.63615
    R9        2.66190   0.00031   0.00013   0.00048   0.00061   2.66251
   R10        2.63588   0.00016   0.00031  -0.00004   0.00027   2.63615
   R11        2.62385   0.00007   0.00041  -0.00033   0.00008   2.62393
   R12        2.64483   0.00026   0.00010   0.00038   0.00048   2.64530
   R13        2.05462  -0.00000   0.00010  -0.00013  -0.00003   2.05459
   R14        2.64312  -0.00009   0.00001  -0.00022  -0.00021   2.64291
   R15        2.05292   0.00002   0.00009  -0.00005   0.00004   2.05296
   R16        2.63889   0.00017   0.00006   0.00023   0.00029   2.63919
   R17        2.05301   0.00003   0.00009  -0.00004   0.00005   2.05307
   R18        2.05365   0.00001   0.00009  -0.00008   0.00001   2.05366
   R19        2.63889   0.00017   0.00006   0.00024   0.00030   2.63918
   R20        2.05364   0.00001   0.00009  -0.00007   0.00002   2.05366
   R21        2.64311  -0.00009   0.00002  -0.00022  -0.00020   2.64291
   R22        2.05301   0.00003   0.00009  -0.00004   0.00005   2.05307
   R23        2.64483   0.00026   0.00010   0.00038   0.00047   2.64530
   R24        2.05293   0.00002   0.00009  -0.00006   0.00004   2.05296
   R25        2.05462  -0.00000   0.00009  -0.00012  -0.00003   2.05460
   R26        2.06776   0.00001   0.00009  -0.00008   0.00001   2.06776
   R27        2.07087  -0.00002   0.00008  -0.00014  -0.00006   2.07081
   R28        2.07086  -0.00002   0.00007  -0.00013  -0.00005   2.07080
   R29        2.07086  -0.00001   0.00009  -0.00014  -0.00005   2.07080
   R30        2.07087  -0.00002   0.00008  -0.00014  -0.00006   2.07081
   R31        2.06776   0.00001   0.00009  -0.00009  -0.00000   2.06776
    A1        1.76990  -0.00003  -0.00038  -0.00007  -0.00045   1.76945
    A2        1.94232  -0.00003   0.00016  -0.00046  -0.00030   1.94203
    A3        1.94218  -0.00003   0.00014  -0.00037  -0.00022   1.94195
    A4        1.94242  -0.00003   0.00022  -0.00056  -0.00034   1.94208
    A5        1.94229  -0.00003   0.00022  -0.00050  -0.00027   1.94202
    A6        1.92079   0.00013  -0.00035   0.00175   0.00140   1.92219
    A7        1.93397   0.00002   0.00018   0.00010   0.00028   1.93425
    A8        2.24828  -0.00000   0.00013  -0.00037  -0.00023   2.24805
    A9        2.10094  -0.00002  -0.00031   0.00027  -0.00005   2.10089
   A10        1.89344   0.00000   0.00001  -0.00004  -0.00003   1.89341
   A11        2.10466  -0.00007   0.00003  -0.00019  -0.00016   2.10450
   A12        2.28508   0.00007  -0.00003   0.00022   0.00019   2.28527
   A13        1.89341   0.00000   0.00000  -0.00004  -0.00003   1.89338
   A14        2.28528   0.00004   0.00000   0.00009   0.00009   2.28537
   A15        2.10450  -0.00004  -0.00000  -0.00005  -0.00005   2.10444
   A16        1.93406   0.00001   0.00019   0.00004   0.00024   1.93429
   A17        2.24803   0.00004   0.00009  -0.00018  -0.00009   2.24795
   A18        2.10110  -0.00005  -0.00029   0.00014  -0.00015   2.10095
   A19        2.07837   0.00002   0.00023  -0.00013   0.00010   2.07847
   A20        2.10832  -0.00005   0.00013  -0.00045  -0.00033   2.10799
   A21        2.09650   0.00003  -0.00036   0.00058   0.00022   2.09672
   A22        2.10345   0.00002  -0.00001   0.00003   0.00002   2.10347
   A23        2.08962   0.00006   0.00002   0.00035   0.00037   2.08999
   A24        2.09011  -0.00008  -0.00000  -0.00038  -0.00039   2.08973
   A25        2.10505   0.00003  -0.00010   0.00014   0.00005   2.10510
   A26        2.08917  -0.00006   0.00004  -0.00033  -0.00028   2.08889
   A27        2.08896   0.00003   0.00005   0.00018   0.00024   2.08920
   A28        2.07390   0.00002   0.00017  -0.00013   0.00004   2.07394
   A29        2.10799  -0.00000   0.00009  -0.00012  -0.00002   2.10797
   A30        2.10129  -0.00001  -0.00027   0.00025  -0.00001   2.10127
   A31        2.07386   0.00002   0.00015  -0.00009   0.00007   2.07392
   A32        2.10786   0.00001   0.00007  -0.00002   0.00005   2.10792
   A33        2.10146  -0.00003  -0.00022   0.00011  -0.00012   2.10135
   A34        2.10497   0.00004  -0.00010   0.00019   0.00010   2.10507
   A35        2.08908   0.00002   0.00006   0.00011   0.00017   2.08925
   A36        2.08913  -0.00006   0.00004  -0.00031  -0.00027   2.08887
   A37        2.10355   0.00001   0.00000  -0.00004  -0.00004   2.10351
   A38        2.09008  -0.00007  -0.00001  -0.00034  -0.00035   2.08972
   A39        2.08956   0.00007   0.00001   0.00038   0.00039   2.08996
   A40        2.07840   0.00002   0.00023  -0.00014   0.00008   2.07848
   A41        2.10841  -0.00006   0.00014  -0.00052  -0.00037   2.10804
   A42        2.09638   0.00004  -0.00037   0.00066   0.00029   2.09667
   A43        1.93490   0.00002   0.00051  -0.00051   0.00001   1.93491
   A44        1.92977   0.00011   0.00024   0.00033   0.00057   1.93034
   A45        1.92968   0.00012   0.00020   0.00046   0.00066   1.93034
   A46        1.89098  -0.00007  -0.00029  -0.00011  -0.00040   1.89058
   A47        1.89104  -0.00008  -0.00029  -0.00015  -0.00044   1.89060
   A48        1.88606  -0.00011  -0.00042  -0.00003  -0.00045   1.88560
   A49        1.92967   0.00012   0.00022   0.00045   0.00067   1.93033
   A50        1.92980   0.00010   0.00024   0.00031   0.00055   1.93035
   A51        1.93489   0.00002   0.00050  -0.00049   0.00001   1.93490
   A52        1.88607  -0.00011  -0.00041  -0.00004  -0.00046   1.88561
   A53        1.89101  -0.00008  -0.00030  -0.00012  -0.00042   1.89059
   A54        1.89099  -0.00007  -0.00029  -0.00011  -0.00040   1.89059
    D1       -0.00003  -0.00000  -0.00003  -0.00000  -0.00003  -0.00006
    D2       -3.14159  -0.00000  -0.00001  -0.00002  -0.00003   3.14157
    D3       -2.06714   0.00007  -0.00014   0.00089   0.00074  -2.06640
    D4        1.07449   0.00007  -0.00013   0.00087   0.00074   1.07522
    D5        2.06687  -0.00006   0.00009  -0.00078  -0.00069   2.06618
    D6       -1.07468  -0.00006   0.00010  -0.00080  -0.00070  -1.07538
    D7        0.00002   0.00000   0.00002   0.00002   0.00005   0.00006
    D8       -3.14156   0.00000  -0.00002   0.00002   0.00001  -3.14156
    D9        2.06706  -0.00007   0.00010  -0.00079  -0.00069   2.06637
   D10       -1.07452  -0.00007   0.00006  -0.00080  -0.00074  -1.07526
   D11       -2.06680   0.00006  -0.00003   0.00070   0.00067  -2.06613
   D12        1.07480   0.00006  -0.00007   0.00070   0.00063   1.07544
   D13        0.98062  -0.00004  -0.00021  -0.00092  -0.00113   0.97949
   D14        3.07820  -0.00005  -0.00008  -0.00118  -0.00125   3.07695
   D15       -1.11696  -0.00003  -0.00032  -0.00070  -0.00102  -1.11799
   D16       -0.97962   0.00004   0.00003  -0.00025  -0.00022  -0.97984
   D17        1.11796   0.00003   0.00016  -0.00050  -0.00034   1.11763
   D18       -3.07720   0.00004  -0.00008  -0.00003  -0.00011  -3.07731
   D19       -3.14120  -0.00000  -0.00016  -0.00047  -0.00063   3.14136
   D20       -1.04362  -0.00001  -0.00003  -0.00072  -0.00075  -1.04436
   D21        1.04440   0.00001  -0.00027  -0.00025  -0.00052   1.04388
   D22        1.11686   0.00003   0.00043   0.00074   0.00116   1.11802
   D23       -3.07828   0.00004   0.00020   0.00117   0.00138  -3.07691
   D24       -0.98068   0.00004   0.00032   0.00091   0.00124  -0.97944
   D25        3.07694  -0.00004   0.00018   0.00015   0.00033   3.07727
   D26       -1.11820  -0.00003  -0.00005   0.00059   0.00054  -1.11766
   D27        0.97940  -0.00003   0.00007   0.00033   0.00040   0.97980
   D28       -1.04459  -0.00000   0.00037   0.00033   0.00070  -1.04389
   D29        1.04345   0.00001   0.00014   0.00077   0.00091   1.04437
   D30        3.14106  -0.00000   0.00026   0.00051   0.00077  -3.14135
   D31        0.00003   0.00000   0.00002  -0.00002   0.00001   0.00004
   D32       -3.14154   0.00000   0.00002  -0.00003  -0.00001  -3.14155
   D33        3.14159   0.00000   0.00001   0.00000   0.00001  -3.14159
   D34        0.00002   0.00000   0.00001  -0.00001  -0.00001   0.00001
   D35        3.14155  -0.00000  -0.00002   0.00003   0.00001   3.14155
   D36       -0.00009   0.00000  -0.00001   0.00005   0.00004  -0.00004
   D37       -0.00001  -0.00000  -0.00001   0.00001   0.00000  -0.00001
   D38        3.14155   0.00000   0.00001   0.00003   0.00004   3.14158
   D39       -0.00002   0.00000  -0.00001   0.00003   0.00002   0.00001
   D40       -3.14159  -0.00000   0.00001  -0.00002  -0.00001   3.14158
   D41        3.14155   0.00000  -0.00000   0.00005   0.00004  -3.14159
   D42       -0.00002   0.00000   0.00001  -0.00000   0.00001  -0.00001
   D43       -0.00002   0.00000   0.00000   0.00001   0.00002  -0.00001
   D44        3.14158   0.00000  -0.00000   0.00001   0.00001   3.14159
   D45       -3.14159  -0.00000   0.00000  -0.00001  -0.00001   3.14159
   D46        0.00002  -0.00000  -0.00001  -0.00001  -0.00001   0.00000
   D47       -0.00000  -0.00000  -0.00001  -0.00003  -0.00005  -0.00005
   D48        3.14158  -0.00000   0.00002  -0.00003  -0.00001   3.14157
   D49        3.14157  -0.00000  -0.00002   0.00001  -0.00001   3.14156
   D50       -0.00003   0.00000   0.00001   0.00001   0.00002  -0.00001
   D51        3.14157   0.00000  -0.00000   0.00005   0.00004  -3.14157
   D52       -0.00000   0.00000  -0.00001   0.00003   0.00002   0.00001
   D53        0.00000   0.00000   0.00001  -0.00000   0.00000   0.00000
   D54       -3.14157  -0.00000   0.00001  -0.00003  -0.00002   3.14159
   D55       -3.14159   0.00000   0.00002   0.00001   0.00003  -3.14155
   D56        0.00002   0.00000   0.00001   0.00001   0.00001   0.00003
   D57        0.00002   0.00000  -0.00002   0.00000  -0.00001   0.00001
   D58       -3.14156  -0.00000  -0.00003   0.00000  -0.00003  -3.14159
   D59        0.00002  -0.00000   0.00000  -0.00002  -0.00002  -0.00000
   D60       -3.14157  -0.00000  -0.00000  -0.00002  -0.00002  -3.14159
   D61       -3.14159   0.00000   0.00002  -0.00002  -0.00001  -3.14159
   D62        0.00001   0.00000   0.00001  -0.00002  -0.00001   0.00001
   D63       -0.00005   0.00000   0.00002   0.00003   0.00005   0.00000
   D64       -3.14158  -0.00000   0.00000  -0.00001  -0.00001  -3.14159
   D65        3.14154   0.00000   0.00003   0.00002   0.00005   3.14159
   D66        0.00001  -0.00000   0.00001  -0.00002  -0.00001  -0.00000
   D67        0.00004  -0.00000  -0.00002  -0.00002  -0.00004  -0.00000
   D68       -3.14157  -0.00000  -0.00002   0.00001  -0.00001  -3.14159
   D69        3.14157   0.00000  -0.00001   0.00003   0.00002   3.14159
   D70       -0.00004   0.00000  -0.00000   0.00005   0.00004   0.00000
   D71        0.00002  -0.00000  -0.00001  -0.00001  -0.00002  -0.00000
   D72       -3.14158  -0.00000  -0.00001  -0.00001  -0.00001   3.14159
   D73       -3.14159  -0.00000  -0.00001  -0.00000  -0.00001   3.14159
   D74       -0.00000  -0.00000   0.00000  -0.00001  -0.00000  -0.00001
   D75       -0.00001   0.00000   0.00001   0.00000   0.00001   0.00001
   D76       -3.14157  -0.00000  -0.00000  -0.00001  -0.00001  -3.14159
   D77        3.14159   0.00000   0.00000   0.00000   0.00001  -3.14159
   D78        0.00002  -0.00000  -0.00001  -0.00001  -0.00002   0.00000
   D79        0.00000  -0.00000   0.00000  -0.00000  -0.00000  -0.00000
   D80       -3.14155  -0.00000  -0.00001  -0.00003  -0.00004  -3.14159
   D81        3.14157   0.00000   0.00001   0.00001   0.00002   3.14159
   D82        0.00002  -0.00000  -0.00000  -0.00001  -0.00001   0.00000
         Item               Value     Threshold  Converged?
 Maximum Force            0.000480     0.000450     NO 
 RMS     Force            0.000088     0.000300     YES
 Maximum Displacement     0.004981     0.001800     NO 
 RMS     Displacement     0.000843     0.001200     YES
 Predicted change in Energy=-2.072910D-06
 Lowest energy point so far.  Saving SCF results.
 GradGradGradGradGradGradGradGradGradGradGradGradGradGradGradGradGradGrad

 Leave Link  103 at Thu Aug 20 10:01:47 2026, MaxMem=   104857600 cpu:               0.0 elap:               0.0
 (Enter /sw/cluster/pub/apps//g16/l202.exe)
                          Input orientation:                          
 ---------------------------------------------------------------------
 Center     Atomic      Atomic             Coordinates (Angstroms)
 Number     Number       Type             X           Y           Z
 ---------------------------------------------------------------------
      1          6           0        0.006183   -0.011561    0.039683
      2          6           0       -0.044755   -1.536626    0.051901
      3          6           0        1.254485   -2.081356    0.032740
      4          6           0        2.221726   -0.977319    0.007334
      5          6           0        1.511081    0.239269    0.011041
      6          6           0        2.191103    1.449693   -0.010001
      7          6           0        3.590703    1.443610   -0.034919
      8          6           0        4.295756    0.235768   -0.038594
      9          6           0        3.616477   -0.984321   -0.017491
     10          1           0        4.167921   -1.920765   -0.020422
     11          1           0        5.381962    0.246894   -0.058045
     12          1           0        4.133624    2.384450   -0.051530
     13          1           0        1.649343    2.392342   -0.007286
     14          6           0        1.444779   -3.463288    0.039542
     15          6           0        0.324744   -4.297145    0.065684
     16          6           0       -0.965095   -3.756826    0.084719
     17          6           0       -1.155098   -2.369963    0.077871
     18          1           0       -2.160667   -1.956788    0.092772
     19          1           0       -1.826290   -4.418761    0.104978
     20          1           0        0.456436   -5.375556    0.071290
     21          1           0        2.445472   -3.886867    0.024811
     22          6           0       -0.635349    0.579666    1.310852
     23          1           0       -0.156827    0.180868    2.210453
     24          1           0       -0.534505    1.670784    1.321895
     25          1           0       -1.703198    0.337173    1.352342
     26          6           0       -0.680229    0.560821   -1.216608
     27          1           0       -1.748812    0.318011   -1.216551
     28          1           0       -0.580130    1.651627   -1.247503
     29          1           0       -0.233831    0.148517   -2.126573
 ---------------------------------------------------------------------
                    Distance matrix (angstroms):
                    1          2          3          4          5
     1  C    0.000000
     2  C    1.525964   0.000000
     3  C    2.417096   1.408944   0.000000
     4  C    2.417099   2.334898   1.468025   0.000000
     5  C    1.525928   2.361377   2.334869   1.408942   0.000000
     6  C    2.628994   3.731085   3.653407   2.427267   1.388523
     7  C    3.869350   4.701691   4.229406   2.781506   2.403617
     8  C    4.297411   4.689308   3.824067   2.403184   2.785120
     9  C    3.739486   3.703306   2.604806   1.394989   2.435298
    10  H    4.579163   4.230772   2.918343   2.162992   3.424257
    11  H    5.382876   5.713344   4.739732   3.389700   3.871505
    12  H    4.773360   5.731003   5.314129   3.867857   3.388724
    13  H    2.912204   4.279049   4.491268   3.417960   2.157585
    14  C    3.739516   2.435342   1.394989   2.604750   3.703261
    15  C    4.297486   2.785173   2.403170   3.824028   4.689290
    16  C    3.869421   2.403620   2.781445   4.229359   4.701665
    17  C    2.629086   1.388519   2.427225   3.653406   3.731095
    18  H    2.912382   2.157612   3.417950   4.491328   4.279145
    19  H    4.773429   3.388714   3.867797   5.314084   5.730979
    20  H    5.382951   3.871557   3.389708   4.739707   5.713333
    21  H    4.579121   3.424266   2.162957   2.918190   4.230635
    22  C    1.541746   2.532281   3.505150   3.505173   2.532299
    23  H    2.185370   2.760741   3.442657   3.442767   2.760931
    24  H    2.183277   3.484282   4.352121   4.041946   2.819928
    25  H    2.183271   2.820053   4.042093   4.352237   3.484288
    26  C    1.541769   2.532237   3.505009   3.505032   2.532263
    27  H    2.183288   2.820010   4.041965   4.352119   3.484262
    28  H    2.183302   3.484255   4.352010   4.041828   2.819903
    29  H    2.185383   2.760653   3.442390   3.442503   2.760860
                    6          7          8          9         10
     6  C    0.000000
     7  C    1.399835   0.000000
     8  C    2.429814   1.398569   0.000000
     9  C    2.820669   2.428130   1.396597   0.000000
    10  H    3.907417   3.413562   2.160395   1.086750   0.000000
    11  H    3.410369   2.154362   1.086437   2.152783   2.484765
    12  H    2.156128   1.086380   2.154829   3.408404   4.305464
    13  H    1.087243   2.160956   3.413984   3.907885   4.994627
    14  C    4.969591   5.356134   4.670888   3.296180   3.130251
    15  C    6.042779   6.605519   6.027198   4.670892   4.519359
    16  C    6.089203   6.914777   6.605496   5.356121   5.452525
    17  C    5.078834   6.089227   6.042782   4.969610   5.342843
    18  H    5.527439   6.682609   6.819821   5.859458   6.329703
    19  H    7.112764   7.983155   7.691860   6.436931   6.495096
    20  H    7.042705   7.505726   6.799957   5.410793   5.071401
    21  H    5.342732   5.452440   4.519258   3.130146   2.614274
    22  C    3.238893   4.518518   5.123969   4.721077   5.576365
    23  H    3.471758   4.547547   4.988659   4.534227   5.300670
    24  H    3.041672   4.348550   5.219350   5.106289   6.067442
    25  H    4.273086   5.583375   6.158931   5.649932   6.438385
    26  C    3.238910   4.518469   5.123847   4.720914   5.576171
    27  H    4.273101   5.583336   6.158827   5.649791   6.438211
    28  H    3.041697   4.348503   5.219232   5.106140   6.067265
    29  H    3.471778   4.547454   4.988430   4.533919   5.300303
                   11         12         13         14         15
    11  H    0.000000
    12  H    2.475386   0.000000
    13  H    4.305574   2.484688   0.000000
    14  C    5.410765   6.436942   5.859389   0.000000
    15  C    6.799931   7.691881   6.819760   1.396596   0.000000
    16  C    7.505684   7.983156   6.682516   2.428106   1.398568
    17  C    7.042696   7.112790   5.527358   2.820672   2.429837
    18  H    7.859403   7.647567   5.782830   3.907892   3.413982
    19  H    8.588004   9.045925   7.647467   3.408387   2.154827
    20  H    7.475926   8.588044   7.859353   2.152812   1.086436
    21  H    5.071273   6.495006   6.329558   1.086749   2.160438
    22  C    6.180020   5.277920   3.200484   4.721084   5.124013
    23  H    5.985702   5.327318   3.615416   4.534079   4.988441
    24  H    6.239894   4.918033   2.656419   5.649840   6.158941
    25  H    7.224738   6.342768   4.160750   5.106536   5.219668
    26  C    6.179885   5.277899   3.200599   4.720914   5.123874
    27  H    7.224620   6.342752   4.160844   5.106370   5.219524
    28  H    6.239762   4.918014   2.656568   5.649699   6.158827
    29  H    5.985451   5.327276   3.615588   4.533753   4.988177
                   16         17         18         19         20
    16  C    0.000000
    17  C    1.399834   0.000000
    18  H    2.160924   1.087247   0.000000
    19  H    1.086381   2.156109   2.484606   0.000000
    20  H    2.154349   3.410377   4.305539   2.475365   0.000000
    21  H    3.413572   3.907418   4.994631   4.305496   2.484878
    22  C    4.518550   3.238934   3.200612   5.277949   6.180063
    23  H    4.547249   3.471482   3.615179   5.326980   5.985479
    24  H    5.583455   4.273216   4.161061   6.342882   7.224741
    25  H    4.348849   3.041919   2.656699   4.918330   6.240223
    26  C    4.518482   3.238931   3.200708   5.277905   6.179908
    27  H    4.348771   3.041912   2.656815   4.918277   6.240061
    28  H    5.583402   4.273218   4.161141   6.342848   7.224609
    29  H    4.547116   3.471462   3.615315   5.326891   5.985186
                   21         22         23         24         25
    21  H    0.000000
    22  C    5.576313   0.000000
    23  H    5.300515   1.094214   0.000000
    24  H    6.438181   1.095824   1.775394   0.000000
    25  H    6.067645   1.095822   1.775401   1.773497   0.000000
    26  C    5.576115   2.527928   3.487557   2.774392   2.774164
    27  H    6.067454   2.774171   3.781213   3.122218   2.569369
    28  H    6.438010   2.774406   3.781504   2.569875   3.122221
    29  H    5.300136   3.487549   4.337830   3.781486   3.781201
                   26         27         28         29
    26  C    0.000000
    27  H    1.095822   0.000000
    28  H    1.095824   1.773501   0.000000
    29  H    1.094214   1.775398   1.775395   0.000000
 Stoichiometry    C15H14
 Framework group  C1[X(C15H14)]
 Deg. of freedom    81
 Full point group                 C1      NOp   1
 RotChk:  IX=0 Diff= 2.43D-05
 Largest Abelian subgroup         C1      NOp   1
 Largest concise Abelian subgroup C1      NOp   1
                         Standard orientation:                         
 ---------------------------------------------------------------------
 Center     Atomic      Atomic             Coordinates (Angstroms)
 Number     Number       Type             X           Y           Z
 ---------------------------------------------------------------------
      1          6           0       -0.000044    1.412901   -0.000001
      2          6           0        1.180692    0.446243   -0.000039
      3          6           0        0.734036   -0.890028   -0.000009
      4          6           0       -0.733989   -0.890073   -0.000002
      5          6           0       -1.180684    0.446183   -0.000035
      6          6           0       -2.539411    0.732295   -0.000058
      7          6           0       -3.457392   -0.324515   -0.000041
      8          6           0       -3.013591   -1.650802   -0.000006
      9          6           0       -1.648083   -1.943842    0.000016
     10          1           0       -1.307175   -2.975737    0.000040
     11          1           0       -3.737941   -2.460532    0.000004
     12          1           0       -4.522967   -0.112922   -0.000060
     13          1           0       -2.891370    1.760994   -0.000085
     14          6           0        1.648097   -1.943825    0.000012
     15          6           0        3.013608   -1.650804   -0.000005
     16          6           0        3.457385   -0.324511   -0.000044
     17          6           0        2.539423    0.732315   -0.000060
     18          1           0        2.891460    1.760992   -0.000092
     19          1           0        4.522958   -0.112903   -0.000062
     20          1           0        3.737986   -2.460508    0.000012
     21          1           0        1.307099   -2.975689    0.000037
     22          6           0       -0.000027    2.295860   -1.263870
     23          1           0        0.000190    1.680836   -2.168883
     24          1           0       -0.886881    2.939198   -1.284771
     25          1           0        0.886616    2.939494   -1.284531
     26          6           0       -0.000013    2.295626    1.264059
     27          1           0        0.886634    2.939249    1.284838
     28          1           0       -0.886866    2.938961    1.285104
     29          1           0        0.000219    1.680418    2.168947
 ---------------------------------------------------------------------
 Rotational constants (GHZ):           1.0600268           0.5502022           0.3928827
 Leave Link  202 at Thu Aug 20 10:01:47 2026, MaxMem=   104857600 cpu:               0.0 elap:               0.0
 (Enter /sw/cluster/pub/apps//g16/l301.exe)
 Standard basis: 6-31G(d) (6D, 7F)
 Ernie: Thresh=  0.10000D-02 Tol=  0.10000D-05 Strict=F.
 There are   253 symmetry adapted cartesian basis functions of A   symmetry.
 There are   253 symmetry adapted basis functions of A   symmetry.
   253 basis functions,   476 primitive gaussians,   253 cartesian basis functions
    52 alpha electrons       52 beta electrons
       nuclear repulsion energy       927.0741974361 Hartrees.
 IExCor=  402 DFT=T Ex+Corr=B3LYP ExCW=0 ScaHFX=  0.200000
 ScaDFX=  0.800000  0.720000  1.000000  0.810000 ScalE2=  1.000000  1.000000
 IRadAn=      5 IRanWt=     -1 IRanGd=            0 ICorTp=0 IEmpDi=141
 NAtoms=   29 NActive=   29 NUniq=   29 SFac= 1.00D+00 NAtFMM=   60 NAOKFM=F Big=F
 Integral buffers will be    131072 words long.
 Raffenetti 2 integral format.
 Two-electron integral symmetry is turned on.
 R6Disp:  Grimme-D3(BJ) Dispersion energy=       -0.0648369875 Hartrees.
 Nuclear repulsion after empirical dispersion term =      927.0093604486 Hartrees.
 Leave Link  301 at Thu Aug 20 10:01:47 2026, MaxMem=   104857600 cpu:               0.0 elap:               0.0
 (Enter /sw/cluster/pub/apps//g16/l302.exe)
 NPDir=0 NMtPBC=     1 NCelOv=     1 NCel=       1 NClECP=     1 NCelD=      1
         NCelK=      1 NCelE2=     1 NClLst=     1 CellRange=     0.0.
 One-electron integrals computed using PRISM.
 One-electron integral symmetry used in STVInt
 NBasis=   253 RedAO= T EigKep=  3.60D-04  NBF=   253
 NBsUse=   253 1.00D-06 EigRej= -1.00D+00 NBFU=   253
 Precomputing XC quadrature grid using
 IXCGrd= 4 IRadAn=           5 IRanWt=          -1 IRanGd=           0 AccXCQ= 0.00D+00.
 Generated NRdTot=       0 NPtTot=           0 NUsed=           0 NTot=          32
 NSgBfM=   252   252   252   252   252 MxSgAt=    29 MxSgA2=    29.
 Leave Link  302 at Thu Aug 20 10:01:48 2026, MaxMem=   104857600 cpu:               0.3 elap:               0.3
 (Enter /sw/cluster/pub/apps//g16/l303.exe)
 DipDrv:  MaxL=1.
 Leave Link  303 at Thu Aug 20 10:01:48 2026, MaxMem=   104857600 cpu:               0.0 elap:               0.0
 (Enter /sw/cluster/pub/apps//g16/l401.exe)
 Initial guess from the checkpoint file:  "f1.chk"
 B after Tr=     0.000000    0.000000    0.000000
         Rot=    1.000000    0.000005    0.000001    0.000011 Ang=   0.00 deg.
 Guess basis will be translated and rotated to current coordinates.
 JPrj=2 DoOrth=T DoCkMO=T.
 Leave Link  401 at Thu Aug 20 10:01:48 2026, MaxMem=   104857600 cpu:               0.1 elap:               0.0
 (Enter /sw/cluster/pub/apps//g16/l502.exe)
 Integral symmetry usage will be decided dynamically.
 Closed shell SCF:
 Using DIIS extrapolation, IDIIS=  1040.
 NGot=   104857600 LenX=   104725134 LenY=   104660684
 Requested convergence on RMS density matrix=1.00D-08 within 128 cycles.
 Requested convergence on MAX density matrix=1.00D-06.
 Requested convergence on             energy=1.00D-06.
 No special actions if energy rises.
 Fock matrices will be formed incrementally for  20 cycles.

 Cycle   1  Pass 1  IDiag  1:
 FoFJK:  IHMeth= 1 ICntrl=       0 DoSepK=F KAlg= 0 I1Cent=           0 FoldK=F
 IRaf= 900000000 NMat=       1 IRICut=       1 DoRegI=T DoRafI=F ISym2E= 0 IDoP0=0 IntGTp=1.
 FoFCou: FMM=F IPFlag=           0 FMFlag=      100000 FMFlg1=           0
         NFxFlg=           0 DoJE=F BraDBF=F KetDBF=F FulRan=T
         wScrn=  0.000000 ICntrl=         0 IOpCl=  0 I1Cent=           0 NGrid=           0
         NMat0=    1 NMatS0=      1 NMatT0=    0 NMatD0=    1 NMtDS0=    0 NMtDT0=    0
 Symmetry not used in FoFCou.
 E= -580.116022824815    
 DIIS: error= 6.62D-05 at cycle   1 NSaved=   1.
 NSaved= 1 IEnMin= 1 EnMin= -580.116022824815     IErMin= 1 ErrMin= 6.62D-05
 ErrMax= 6.62D-05  0.00D+00 EMaxC= 1.00D-01 BMatC= 6.66D-07 BMatP= 6.66D-07
 IDIUse=1 WtCom= 1.00D+00 WtEn= 0.00D+00
 Coeff-Com:  0.100D+01
 Coeff:      0.100D+01
 Gap=     1.979 Goal=   None    Shift=    0.000
 RMSDP=9.91D-06 MaxDP=1.50D-04              OVMax= 2.77D-04

 Cycle   2  Pass 1  IDiag  1:
 RMSU=  9.77D-06    CP:  1.00D+00
 E= -580.116023929881     Delta-E=       -0.000001105066 Rises=F Damp=F
 DIIS: error= 2.74D-05 at cycle   2 NSaved=   2.
 NSaved= 2 IEnMin= 2 EnMin= -580.116023929881     IErMin= 2 ErrMin= 2.74D-05
 ErrMax= 2.74D-05  0.00D+00 EMaxC= 1.00D-01 BMatC= 7.03D-08 BMatP= 6.66D-07
 IDIUse=1 WtCom= 1.00D+00 WtEn= 0.00D+00
 Coeff-Com:  0.124D+00 0.876D+00
 Coeff:      0.124D+00 0.876D+00
 Gap=     0.183 Goal=   None    Shift=    0.000
 RMSDP=2.86D-06 MaxDP=1.02D-04 DE=-1.11D-06 OVMax= 1.69D-04

 Cycle   3  Pass 1  IDiag  1:
 RMSU=  2.84D-06    CP:  1.00D+00  9.60D-01
 E= -580.116023893219     Delta-E=        0.000000036662 Rises=F Damp=F
 DIIS: error= 2.09D-05 at cycle   3 NSaved=   3.
 NSaved= 3 IEnMin= 2 EnMin= -580.116023929881     IErMin= 3 ErrMin= 2.09D-05
 ErrMax= 2.09D-05  0.00D+00 EMaxC= 1.00D-01 BMatC= 1.04D-07 BMatP= 7.03D-08
 IDIUse=1 WtCom= 1.00D+00 WtEn= 0.00D+00
 Coeff-Com: -0.128D-01 0.555D+00 0.458D+00
 Coeff:     -0.128D-01 0.555D+00 0.458D+00
 Gap=     0.183 Goal=   None    Shift=    0.000
 RMSDP=2.02D-06 MaxDP=6.48D-05 DE= 3.67D-08 OVMax= 1.32D-04

 Cycle   4  Pass 1  IDiag  1:
 RMSU=  9.19D-07    CP:  1.00D+00  9.72D-01  3.68D-01
 E= -580.116023996059     Delta-E=       -0.000000102840 Rises=F Damp=F
 DIIS: error= 6.70D-06 at cycle   4 NSaved=   4.
 NSaved= 4 IEnMin= 4 EnMin= -580.116023996059     IErMin= 4 ErrMin= 6.70D-06
 ErrMax= 6.70D-06  0.00D+00 EMaxC= 1.00D-01 BMatC= 9.29D-09 BMatP= 7.03D-08
 IDIUse=1 WtCom= 1.00D+00 WtEn= 0.00D+00
 Coeff-Com: -0.193D-01 0.256D+00 0.289D+00 0.474D+00
 Coeff:     -0.193D-01 0.256D+00 0.289D+00 0.474D+00
 Gap=     0.183 Goal=   None    Shift=    0.000
 RMSDP=5.16D-07 MaxDP=1.40D-05 DE=-1.03D-07 OVMax= 3.86D-05

 Cycle   5  Pass 1  IDiag  1:
 RMSU=  2.47D-07    CP:  1.00D+00  9.88D-01  4.40D-01  5.94D-01
 E= -580.116024005956     Delta-E=       -0.000000009897 Rises=F Damp=F
 DIIS: error= 1.31D-06 at cycle   5 NSaved=   5.
 NSaved= 5 IEnMin= 5 EnMin= -580.116024005956     IErMin= 5 ErrMin= 1.31D-06
 ErrMax= 1.31D-06  0.00D+00 EMaxC= 1.00D-01 BMatC= 5.14D-10 BMatP= 9.29D-09
 IDIUse=1 WtCom= 1.00D+00 WtEn= 0.00D+00
 Coeff-Com: -0.869D-02 0.779D-01 0.110D+00 0.248D+00 0.572D+00
 Coeff:     -0.869D-02 0.779D-01 0.110D+00 0.248D+00 0.572D+00
 Gap=     0.183 Goal=   None    Shift=    0.000
 RMSDP=1.16D-07 MaxDP=4.71D-06 DE=-9.90D-09 OVMax= 8.83D-06

 Cycle   6  Pass 1  IDiag  1:
 RMSU=  8.54D-08    CP:  1.00D+00  9.86D-01  4.46D-01  6.22D-01  7.17D-01
 E= -580.116024006421     Delta-E=       -0.000000000465 Rises=F Damp=F
 DIIS: error= 6.19D-07 at cycle   6 NSaved=   6.
 NSaved= 6 IEnMin= 6 EnMin= -580.116024006421     IErMin= 6 ErrMin= 6.19D-07
 ErrMax= 6.19D-07  0.00D+00 EMaxC= 1.00D-01 BMatC= 4.30D-11 BMatP= 5.14D-10
 IDIUse=1 WtCom= 1.00D+00 WtEn= 0.00D+00
 Coeff-Com: -0.319D-02 0.226D-01 0.390D-01 0.976D-01 0.307D+00 0.537D+00
 Coeff:     -0.319D-02 0.226D-01 0.390D-01 0.976D-01 0.307D+00 0.537D+00
 Gap=     0.183 Goal=   None    Shift=    0.000
 RMSDP=4.50D-08 MaxDP=1.49D-06 DE=-4.65D-10 OVMax= 2.96D-06

 Cycle   7  Pass 1  IDiag  1:
 RMSU=  3.12D-08    CP:  1.00D+00  9.87D-01  4.48D-01  6.17D-01  7.63D-01
                    CP:  6.99D-01
 E= -580.116024006458     Delta-E=       -0.000000000036 Rises=F Damp=F
 DIIS: error= 2.23D-07 at cycle   7 NSaved=   7.
 NSaved= 7 IEnMin= 7 EnMin= -580.116024006458     IErMin= 7 ErrMin= 2.23D-07
 ErrMax= 2.23D-07  0.00D+00 EMaxC= 1.00D-01 BMatC= 6.66D-12 BMatP= 4.30D-11
 IDIUse=1 WtCom= 1.00D+00 WtEn= 0.00D+00
 Coeff-Com: -0.395D-03-0.289D-03 0.429D-02 0.157D-01 0.864D-01 0.315D+00
 Coeff-Com:  0.580D+00
 Coeff:     -0.395D-03-0.289D-03 0.429D-02 0.157D-01 0.864D-01 0.315D+00
 Coeff:      0.580D+00
 Gap=     0.183 Goal=   None    Shift=    0.000
 RMSDP=1.76D-08 MaxDP=3.63D-07 DE=-3.64D-11 OVMax= 1.55D-06

 Cycle   8  Pass 1  IDiag  1:
 RMSU=  1.13D-08    CP:  1.00D+00  9.87D-01  4.49D-01  6.22D-01  7.73D-01
                    CP:  7.60D-01  6.77D-01
 E= -580.116024006471     Delta-E=       -0.000000000013 Rises=F Damp=F
 DIIS: error= 7.38D-08 at cycle   8 NSaved=   8.
 NSaved= 8 IEnMin= 8 EnMin= -580.116024006471     IErMin= 8 ErrMin= 7.38D-08
 ErrMax= 7.38D-08  0.00D+00 EMaxC= 1.00D-01 BMatC= 1.19D-12 BMatP= 6.66D-12
 IDIUse=1 WtCom= 1.00D+00 WtEn= 0.00D+00
 Coeff-Com:  0.143D-03-0.299D-02-0.211D-02-0.151D-02 0.178D-01 0.132D+00
 Coeff-Com:  0.359D+00 0.497D+00
 Coeff:      0.143D-03-0.299D-02-0.211D-02-0.151D-02 0.178D-01 0.132D+00
 Coeff:      0.359D+00 0.497D+00
 Gap=     0.183 Goal=   None    Shift=    0.000
 RMSDP=5.84D-09 MaxDP=1.77D-07 DE=-1.30D-11 OVMax= 4.73D-07

 SCF Done:  E(RB3LYP) =  -580.116024006     A.U. after    8 cycles
            NFock=  8  Conv=0.58D-08     -V/T= 2.0099
 KE= 5.744294180135D+02 PE=-3.196500276243D+03 EE= 1.114945473775D+03
 Leave Link  502 at Thu Aug 20 10:02:31 2026, MaxMem=   104857600 cpu:              42.5 elap:              42.5
 (Enter /sw/cluster/pub/apps//g16/l701.exe)
 ... and contract with generalized density number  0.
 Compute integral first derivatives.
 R6Disp: Adding Grimme-D3(BJ) dispersion energy 1st derivatives to the gradient.
 Leave Link  701 at Thu Aug 20 10:02:31 2026, MaxMem=   104857600 cpu:               0.0 elap:               0.1
 (Enter /sw/cluster/pub/apps//g16/l702.exe)
 L702 exits ... SP integral derivatives will be done elsewhere.
 Leave Link  702 at Thu Aug 20 10:02:31 2026, MaxMem=   104857600 cpu:               0.0 elap:               0.0
 (Enter /sw/cluster/pub/apps//g16/l703.exe)
 Integral derivatives from FoFJK, PRISM(SPDF).
 Compute integral first derivatives, UseDBF=F ICtDFT=           0.
 Calling FoFJK, ICntrl=      2127 FMM=F ISym2X=0 I1Cent= 0 IOpClX= 0 NMat=1 NMatS=1 NMatT=0.
 FoFJK:  IHMeth= 1 ICntrl=    2127 DoSepK=F KAlg= 0 I1Cent=           0 FoldK=F
 IRaf=         0 NMat=       1 IRICut=       1 DoRegI=T DoRafI=F ISym2E= 0 IDoP0=0 IntGTp=1.
 FoFCou: FMM=F IPFlag=           0 FMFlag=      100000 FMFlg1=         800
         NFxFlg=           0 DoJE=F BraDBF=F KetDBF=F FulRan=T
         wScrn=  0.000000 ICntrl=      2127 IOpCl=  0 I1Cent=           0 NGrid=           0
         NMat0=    1 NMatS0=      1 NMatT0=    0 NMatD0=    1 NMtDS0=    0 NMtDT0=    0
 Symmetry not used in FoFCou.
 Leave Link  703 at Thu Aug 20 10:02:46 2026, MaxMem=   104857600 cpu:              15.6 elap:              15.7
 (Enter /sw/cluster/pub/apps//g16/l716.exe)
 Dipole        =-5.81007625D-06 1.65385071D-01 1.70695978D-05
 ***** Axes restored to original set *****
 -------------------------------------------------------------------
 Center     Atomic                   Forces (Hartrees/Bohr)
 Number     Number              X              Y              Z
 -------------------------------------------------------------------
      1        6          -0.000066409    0.000025776   -0.000006805
      2        6          -0.000065581   -0.000049030    0.000002512
      3        6           0.000088967   -0.000015534   -0.000002193
      4        6           0.000019888   -0.000069025    0.000001339
      5        6           0.000042729    0.000088759   -0.000001151
      6        6          -0.000036213   -0.000015055    0.000000065
      7        6           0.000053673   -0.000027022   -0.000000141
      8        6          -0.000019026    0.000059849   -0.000000407
      9        6          -0.000030922   -0.000022130    0.000001077
     10        1           0.000002462   -0.000002874   -0.000000030
     11        1           0.000007215    0.000007790   -0.000000301
     12        1           0.000012913   -0.000000728   -0.000000193
     13        1          -0.000009213    0.000001175    0.000000098
     14        6           0.000011922    0.000038287   -0.000000205
     15        6          -0.000063008    0.000013259    0.000001044
     16        6           0.000030385   -0.000053389   -0.000000127
     17        6          -0.000000459    0.000040608   -0.000000024
     18        1           0.000001493    0.000012899   -0.000000468
     19        1           0.000003547   -0.000013239    0.000000064
     20        1          -0.000003438   -0.000008237    0.000000262
     21        1           0.000001346   -0.000008135   -0.000000051
     22        6           0.000012395   -0.000003902   -0.000002180
     23        1           0.000013547   -0.000011081   -0.000010116
     24        1          -0.000008656    0.000008083    0.000007318
     25        1          -0.000008900    0.000005279    0.000008758
     26        6           0.000013175   -0.000004857    0.000006113
     27        1          -0.000009568    0.000005126   -0.000007980
     28        1          -0.000008432    0.000008018   -0.000006359
     29        1           0.000014168   -0.000010668    0.000010081
 -------------------------------------------------------------------
 Cartesian Forces:  Max     0.000088967 RMS     0.000026137
 Leave Link  716 at Thu Aug 20 10:02:47 2026, MaxMem=   104857600 cpu:               0.0 elap:               0.0
 (Enter /sw/cluster/pub/apps//g16/l103.exe)

 GradGradGradGradGradGradGradGradGradGradGradGradGradGradGradGradGradGrad
 Berny optimization.
 Using GEDIIS/GDIIS optimizer.
 FormGI is forming the generalized inverse of G from B-inverse, IUseBI=4.
 Internal  Forces:  Max     0.000059963 RMS     0.000014193
 Search for a local minimum.
 Step number   3 out of a maximum of  174
 All quantities printed in internal units (Hartrees-Bohrs-Radians)
 RMS Force = .14193D-04 SwitMx=.10000D-02 MixMth= 2
 Mixed Optimization -- En-DIIS/RFO-DIIS
 Swapping is turned off.
 Update second derivatives using D2CorX and points    1    2    3
 DE= -2.27D-06 DEPred=-2.07D-06 R= 1.09D+00
 TightC=F SS=  1.41D+00  RLast= 5.44D-03 DXNew= 5.0454D-01 1.6317D-02
 Trust test= 1.09D+00 RLast= 5.44D-03 DXMaxT set to 3.00D-01
 ITU=  1  1  0
     Eigenvalues ---    0.00230   0.00232   0.00754   0.01249   0.01449
     Eigenvalues ---    0.01648   0.01717   0.01880   0.02096   0.02097
     Eigenvalues ---    0.02113   0.02113   0.02118   0.02119   0.02135
     Eigenvalues ---    0.02135   0.02145   0.02146   0.02160   0.02161
     Eigenvalues ---    0.04396   0.05461   0.05468   0.05468   0.05512
     Eigenvalues ---    0.05977   0.07702   0.11654   0.14965   0.15980
     Eigenvalues ---    0.16000   0.16000   0.16000   0.16000   0.16000
     Eigenvalues ---    0.16000   0.16000   0.16000   0.16000   0.16000
     Eigenvalues ---    0.16000   0.16554   0.18512   0.21965   0.22000
     Eigenvalues ---    0.22601   0.22612   0.24315   0.24511   0.24988
     Eigenvalues ---    0.28038   0.28389   0.29032   0.31506   0.34099
     Eigenvalues ---    0.34102   0.34105   0.34118   0.34275   0.34283
     Eigenvalues ---    0.34917   0.35072   0.35078   0.35138   0.35143
     Eigenvalues ---    0.35180   0.35181   0.35185   0.35187   0.37935
     Eigenvalues ---    0.40330   0.42117   0.42132   0.43474   0.44322
     Eigenvalues ---    0.45254   0.45816   0.46110   0.46469   0.46882
     Eigenvalues ---    0.47990
 En-DIIS/RFO-DIIS/Sim-DIIS IScMMF=       -3 using points:     3    2    1
 RFO step:  Lambda=-1.60586949D-07.
 NNeg= 0 NGDIIS= 3 SimSw=  2.50D-03 Rises=F DC= -2.27D-06 SmlDif=  1.00D-05
 NRisDI= 0 DoIntr=F SqrtH=F CThrHd= 10.0 CDAdj=  3.0
 RMS Error=  0.1427137595D-03 NUsed= 3 OKEnD=F EnDIS=F
 InvSVX:  RCond= 5.25D-05 Info=           0 Equed=N FErr=  1.43D-15 BErr=  5.36D-17
 DidBck=F Rises=F RFO-DIIS coefs:    0.94070    0.05664    0.00266
 Iteration  1 RMS(Cart)=  0.00024150 RMS(Int)=  0.00000005
 Iteration  2 RMS(Cart)=  0.00000005 RMS(Int)=  0.00000001
 ITry= 1 IFail=0 DXMaxC= 1.31D-03 DCOld= 1.00D+10 DXMaxT= 3.00D-01 DXLimC= 3.00D+00 Rises=F
 Variable       Old X    -DE/DX   Delta X   Delta X   Delta X     New X
                                 (Linear)    (Quad)   (Total)
    R1        2.88365   0.00004  -0.00002   0.00017   0.00014   2.88380
    R2        2.88359   0.00005  -0.00003   0.00023   0.00020   2.88378
    R3        2.91348  -0.00000  -0.00006   0.00006   0.00000   2.91348
    R4        2.91352  -0.00001  -0.00006   0.00004  -0.00002   2.91350
    R5        2.66252   0.00006  -0.00003   0.00020   0.00016   2.66268
    R6        2.62392  -0.00001   0.00001  -0.00004  -0.00004   2.62388
    R7        2.77417   0.00000  -0.00000  -0.00001  -0.00001   2.77416
    R8        2.63615  -0.00001  -0.00001  -0.00002  -0.00003   2.63612
    R9        2.66251   0.00006  -0.00003   0.00020   0.00017   2.66268
   R10        2.63615  -0.00001  -0.00001  -0.00002  -0.00003   2.63612
   R11        2.62393  -0.00001   0.00001  -0.00005  -0.00004   2.62389
   R12        2.64530   0.00004  -0.00003   0.00013   0.00010   2.64541
   R13        2.05459   0.00001   0.00000   0.00001   0.00001   2.05460
   R14        2.64291  -0.00004   0.00001  -0.00012  -0.00011   2.64280
   R15        2.05296   0.00001  -0.00000   0.00002   0.00002   2.05298
   R16        2.63919   0.00004  -0.00002   0.00012   0.00010   2.63929
   R17        2.05307   0.00001  -0.00000   0.00002   0.00002   2.05309
   R18        2.05366   0.00000   0.00000   0.00001   0.00001   2.05367
   R19        2.63918   0.00004  -0.00002   0.00012   0.00010   2.63929
   R20        2.05366   0.00000   0.00000   0.00001   0.00001   2.05367
   R21        2.64291  -0.00004   0.00001  -0.00012  -0.00011   2.64280
   R22        2.05307   0.00001  -0.00000   0.00002   0.00002   2.05309
   R23        2.64530   0.00004  -0.00003   0.00013   0.00011   2.64541
   R24        2.05296   0.00001   0.00000   0.00001   0.00001   2.05298
   R25        2.05460   0.00000   0.00000   0.00000   0.00001   2.05460
   R26        2.06776   0.00000   0.00000   0.00000   0.00000   2.06777
   R27        2.07081   0.00001   0.00001   0.00001   0.00002   2.07083
   R28        2.07080   0.00001   0.00000   0.00002   0.00002   2.07083
   R29        2.07080   0.00001   0.00001   0.00002   0.00002   2.07082
   R30        2.07081   0.00001   0.00001   0.00001   0.00002   2.07083
   R31        2.06776   0.00000   0.00000  -0.00000   0.00000   2.06777
    A1        1.76945   0.00001   0.00002  -0.00002  -0.00000   1.76945
    A2        1.94203  -0.00001   0.00002  -0.00010  -0.00008   1.94195
    A3        1.94195  -0.00001   0.00002  -0.00006  -0.00004   1.94191
    A4        1.94208  -0.00001   0.00003  -0.00016  -0.00013   1.94195
    A5        1.94202  -0.00001   0.00002  -0.00013  -0.00011   1.94191
    A6        1.92219   0.00003  -0.00009   0.00042   0.00033   1.92252
    A7        1.93425  -0.00001  -0.00001  -0.00000  -0.00001   1.93424
    A8        2.24805  -0.00001   0.00002  -0.00010  -0.00008   2.24796
    A9        2.10089   0.00002  -0.00000   0.00010   0.00010   2.10099
   A10        1.89341   0.00001   0.00000   0.00002   0.00002   1.89343
   A11        2.10450  -0.00003   0.00001  -0.00014  -0.00013   2.10438
   A12        2.28527   0.00002  -0.00001   0.00012   0.00011   2.28538
   A13        1.89338   0.00001   0.00000   0.00004   0.00004   1.89342
   A14        2.28537   0.00001  -0.00001   0.00004   0.00004   2.28540
   A15        2.10444  -0.00002   0.00000  -0.00008  -0.00008   2.10436
   A16        1.93429  -0.00002  -0.00001  -0.00004  -0.00005   1.93424
   A17        2.24795   0.00001   0.00001  -0.00002  -0.00001   2.24794
   A18        2.10095   0.00001   0.00000   0.00005   0.00005   2.10100
   A19        2.07847  -0.00000  -0.00000  -0.00001  -0.00001   2.07846
   A20        2.10799  -0.00001   0.00002  -0.00009  -0.00007   2.10793
   A21        2.09672   0.00001  -0.00002   0.00010   0.00008   2.09680
   A22        2.10347  -0.00000  -0.00000  -0.00003  -0.00003   2.10344
   A23        2.08999   0.00001  -0.00002   0.00013   0.00011   2.09010
   A24        2.08973  -0.00001   0.00002  -0.00010  -0.00008   2.08965
   A25        2.10510   0.00001  -0.00001   0.00007   0.00007   2.10516
   A26        2.08889  -0.00002   0.00002  -0.00011  -0.00010   2.08879
   A27        2.08920   0.00000  -0.00001   0.00004   0.00003   2.08923
   A28        2.07394   0.00000   0.00000   0.00000   0.00000   2.07394
   A29        2.10797  -0.00000   0.00000  -0.00001  -0.00000   2.10797
   A30        2.10127  -0.00000  -0.00001   0.00001   0.00000   2.10127
   A31        2.07392   0.00001  -0.00000   0.00002   0.00002   2.07394
   A32        2.10792   0.00000  -0.00000   0.00004   0.00004   2.10795
   A33        2.10135  -0.00001   0.00000  -0.00006  -0.00006   2.10129
   A34        2.10507   0.00002  -0.00001   0.00010   0.00009   2.10515
   A35        2.08925  -0.00000  -0.00001   0.00000  -0.00001   2.08925
   A36        2.08887  -0.00001   0.00002  -0.00010  -0.00008   2.08879
   A37        2.10351  -0.00001   0.00000  -0.00006  -0.00006   2.10345
   A38        2.08972  -0.00001   0.00002  -0.00009  -0.00007   2.08965
   A39        2.08996   0.00002  -0.00002   0.00015   0.00013   2.09009
   A40        2.07848  -0.00000   0.00000  -0.00002  -0.00002   2.07846
   A41        2.10804  -0.00001   0.00003  -0.00013  -0.00010   2.10794
   A42        2.09667   0.00002  -0.00003   0.00015   0.00012   2.09679
   A43        1.93491  -0.00004   0.00001  -0.00030  -0.00029   1.93462
   A44        1.93034   0.00002  -0.00003   0.00018   0.00015   1.93049
   A45        1.93034   0.00002  -0.00003   0.00019   0.00015   1.93049
   A46        1.89058   0.00001   0.00002   0.00000   0.00002   1.89060
   A47        1.89060   0.00001   0.00002  -0.00001   0.00001   1.89061
   A48        1.88560  -0.00001   0.00002  -0.00006  -0.00004   1.88556
   A49        1.93033   0.00002  -0.00003   0.00019   0.00015   1.93049
   A50        1.93035   0.00002  -0.00003   0.00017   0.00014   1.93049
   A51        1.93490  -0.00004   0.00001  -0.00030  -0.00029   1.93461
   A52        1.88561  -0.00001   0.00002  -0.00006  -0.00004   1.88557
   A53        1.89059   0.00001   0.00002   0.00000   0.00002   1.89061
   A54        1.89059   0.00001   0.00002   0.00000   0.00002   1.89061
    D1       -0.00006  -0.00000   0.00000   0.00004   0.00004  -0.00002
    D2        3.14157  -0.00000   0.00000   0.00002   0.00002   3.14159
    D3       -2.06640   0.00001  -0.00005   0.00028   0.00023  -2.06617
    D4        1.07522   0.00001  -0.00005   0.00026   0.00021   1.07543
    D5        2.06618  -0.00001   0.00004  -0.00014  -0.00010   2.06608
    D6       -1.07538  -0.00001   0.00004  -0.00017  -0.00012  -1.07551
    D7        0.00006   0.00000  -0.00000  -0.00005  -0.00005   0.00001
    D8       -3.14156   0.00000  -0.00000  -0.00002  -0.00002  -3.14158
    D9        2.06637  -0.00001   0.00004  -0.00024  -0.00020   2.06616
   D10       -1.07526  -0.00001   0.00005  -0.00022  -0.00017  -1.07543
   D11       -2.06613   0.00001  -0.00004   0.00009   0.00005  -2.06608
   D12        1.07544   0.00001  -0.00004   0.00012   0.00008   1.07551
   D13        0.97949  -0.00000   0.00006   0.00020   0.00027   0.97976
   D14        3.07695  -0.00000   0.00007   0.00013   0.00020   3.07715
   D15       -1.11799   0.00000   0.00005   0.00029   0.00034  -1.11764
   D16       -0.97984   0.00000   0.00001   0.00038   0.00039  -0.97944
   D17        1.11763  -0.00000   0.00002   0.00030   0.00032   1.11795
   D18       -3.07731   0.00000   0.00000   0.00047   0.00047  -3.07684
   D19        3.14136   0.00000   0.00003   0.00035   0.00039  -3.14144
   D20       -1.04436  -0.00000   0.00004   0.00027   0.00032  -1.04404
   D21        1.04388   0.00001   0.00002   0.00044   0.00046   1.04435
   D22        1.11802  -0.00000  -0.00006  -0.00030  -0.00036   1.11766
   D23       -3.07691   0.00000  -0.00008  -0.00014  -0.00022  -3.07713
   D24       -0.97944   0.00000  -0.00007  -0.00023  -0.00029  -0.97974
   D25        3.07727  -0.00000  -0.00002  -0.00044  -0.00045   3.07682
   D26       -1.11766   0.00000  -0.00003  -0.00028  -0.00031  -1.11797
   D27        0.97980  -0.00000  -0.00002  -0.00036  -0.00038   0.97942
   D28       -1.04389  -0.00001  -0.00003  -0.00043  -0.00046  -1.04435
   D29        1.04437   0.00000  -0.00005  -0.00027  -0.00032   1.04405
   D30       -3.14135  -0.00000  -0.00004  -0.00035  -0.00039   3.14144
   D31        0.00004   0.00000   0.00000  -0.00002  -0.00002   0.00001
   D32       -3.14155  -0.00000   0.00000  -0.00003  -0.00003  -3.14158
   D33       -3.14159   0.00000  -0.00000  -0.00000  -0.00000  -3.14159
   D34        0.00001  -0.00000   0.00000  -0.00001  -0.00001   0.00000
   D35        3.14155   0.00000  -0.00000   0.00003   0.00003   3.14158
   D36       -0.00004   0.00000  -0.00000   0.00003   0.00003  -0.00001
   D37       -0.00001   0.00000  -0.00000   0.00000   0.00000  -0.00000
   D38        3.14158   0.00000  -0.00000   0.00001   0.00000   3.14159
   D39        0.00001  -0.00000  -0.00000  -0.00001  -0.00001  -0.00000
   D40        3.14158  -0.00000   0.00000   0.00001   0.00001   3.14159
   D41       -3.14159   0.00000  -0.00000  -0.00000  -0.00001   3.14159
   D42       -0.00001   0.00000  -0.00000   0.00001   0.00001  -0.00000
   D43       -0.00001  -0.00000  -0.00000   0.00000   0.00000  -0.00000
   D44        3.14159   0.00000  -0.00000   0.00000   0.00000   3.14159
   D45        3.14159  -0.00000   0.00000  -0.00000  -0.00000   3.14159
   D46        0.00000  -0.00000   0.00000  -0.00000  -0.00000  -0.00000
   D47       -0.00005   0.00000   0.00000   0.00004   0.00004  -0.00001
   D48        3.14157  -0.00000   0.00000   0.00001   0.00002   3.14159
   D49        3.14156   0.00000   0.00000   0.00003   0.00003   3.14158
   D50       -0.00001  -0.00000  -0.00000   0.00000   0.00000  -0.00000
   D51       -3.14157   0.00000  -0.00000  -0.00002  -0.00002  -3.14159
   D52        0.00001   0.00000  -0.00000  -0.00001  -0.00001   0.00000
   D53        0.00000   0.00000  -0.00000  -0.00000  -0.00000   0.00000
   D54        3.14159   0.00000   0.00000   0.00000   0.00001  -3.14159
   D55       -3.14155  -0.00000  -0.00000  -0.00003  -0.00003  -3.14159
   D56        0.00003  -0.00000  -0.00000  -0.00002  -0.00002   0.00001
   D57        0.00001   0.00000   0.00000  -0.00000  -0.00000   0.00000
   D58       -3.14159   0.00000   0.00000   0.00001   0.00001  -3.14158
   D59       -0.00000   0.00000   0.00000   0.00001   0.00001   0.00000
   D60       -3.14159   0.00000   0.00000   0.00000   0.00000  -3.14159
   D61       -3.14159   0.00000   0.00000  -0.00001  -0.00000   3.14159
   D62        0.00001  -0.00000   0.00000  -0.00001  -0.00001  -0.00000
   D63        0.00000  -0.00000  -0.00000  -0.00000  -0.00001  -0.00000
   D64       -3.14159  -0.00000   0.00000  -0.00001  -0.00001   3.14159
   D65        3.14159  -0.00000  -0.00000  -0.00000  -0.00000   3.14159
   D66       -0.00000  -0.00000   0.00000  -0.00000  -0.00000  -0.00000
   D67       -0.00000   0.00000   0.00000   0.00000   0.00000   0.00000
   D68       -3.14159   0.00000   0.00000  -0.00000  -0.00000  -3.14159
   D69        3.14159   0.00000  -0.00000   0.00001   0.00000  -3.14159
   D70        0.00000   0.00000  -0.00000   0.00000  -0.00000   0.00000
   D71       -0.00000   0.00000   0.00000   0.00000   0.00000   0.00000
   D72        3.14159   0.00000   0.00000   0.00000   0.00000  -3.14159
   D73        3.14159  -0.00000   0.00000   0.00000   0.00000   3.14159
   D74       -0.00001  -0.00000   0.00000   0.00000   0.00000  -0.00000
   D75        0.00001  -0.00000  -0.00000  -0.00000  -0.00000   0.00000
   D76       -3.14159  -0.00000   0.00000  -0.00000  -0.00000  -3.14159
   D77       -3.14159  -0.00000  -0.00000  -0.00000  -0.00000  -3.14159
   D78        0.00000  -0.00000   0.00000  -0.00000  -0.00000   0.00000
   D79       -0.00000   0.00000   0.00000   0.00000   0.00000  -0.00000
   D80       -3.14159  -0.00000   0.00000  -0.00000   0.00000  -3.14159
   D81        3.14159  -0.00000  -0.00000  -0.00000  -0.00000   3.14159
   D82        0.00000  -0.00000   0.00000  -0.00000  -0.00000   0.00000
         Item               Value     Threshold  Converged?
 Maximum Force            0.000060     0.000450     YES
 RMS     Force            0.000014     0.000300     YES
 Maximum Displacement     0.001313     0.001800     YES
 RMS     Displacement     0.000242     0.001200     YES
 Predicted change in Energy=-8.029024D-08
 Optimization completed.
    -- Stationary point found.
                           ----------------------------
                           !   Optimized Parameters   !
                           ! (Angstroms and Degrees)  !
 --------------------------                            --------------------------
 ! Name  Definition              Value          Derivative Info.                !
 --------------------------------------------------------------------------------
 ! R1    R(1,2)                  1.526          -DE/DX =    0.0                 !
 ! R2    R(1,5)                  1.5259         -DE/DX =    0.0                 !
 ! R3    R(1,22)                 1.5417         -DE/DX =    0.0                 !
 ! R4    R(1,26)                 1.5418         -DE/DX =    0.0                 !
 ! R5    R(2,3)                  1.4089         -DE/DX =    0.0001              !
 ! R6    R(2,17)                 1.3885         -DE/DX =    0.0                 !
 ! R7    R(3,4)                  1.468          -DE/DX =    0.0                 !
 ! R8    R(3,14)                 1.395          -DE/DX =    0.0                 !
 ! R9    R(4,5)                  1.4089         -DE/DX =    0.0001              !
 ! R10   R(4,9)                  1.395          -DE/DX =    0.0                 !
 ! R11   R(5,6)                  1.3885         -DE/DX =    0.0                 !
 ! R12   R(6,7)                  1.3998         -DE/DX =    0.0                 !
 ! R13   R(6,13)                 1.0872         -DE/DX =    0.0                 !
 ! R14   R(7,8)                  1.3986         -DE/DX =    0.0                 !
 ! R15   R(7,12)                 1.0864         -DE/DX =    0.0                 !
 ! R16   R(8,9)                  1.3966         -DE/DX =    0.0                 !
 ! R17   R(8,11)                 1.0864         -DE/DX =    0.0                 !
 ! R18   R(9,10)                 1.0868         -DE/DX =    0.0                 !
 ! R19   R(14,15)                1.3966         -DE/DX =    0.0                 !
 ! R20   R(14,21)                1.0867         -DE/DX =    0.0                 !
 ! R21   R(15,16)                1.3986         -DE/DX =    0.0                 !
 ! R22   R(15,20)                1.0864         -DE/DX =    0.0                 !
 ! R23   R(16,17)                1.3998         -DE/DX =    0.0                 !
 ! R24   R(16,19)                1.0864         -DE/DX =    0.0                 !
 ! R25   R(17,18)                1.0872         -DE/DX =    0.0                 !
 ! R26   R(22,23)                1.0942         -DE/DX =    0.0                 !
 ! R27   R(22,24)                1.0958         -DE/DX =    0.0                 !
 ! R28   R(22,25)                1.0958         -DE/DX =    0.0                 !
 ! R29   R(26,27)                1.0958         -DE/DX =    0.0                 !
 ! R30   R(26,28)                1.0958         -DE/DX =    0.0                 !
 ! R31   R(26,29)                1.0942         -DE/DX =    0.0                 !
 ! A1    A(2,1,5)              101.3822         -DE/DX =    0.0                 !
 ! A2    A(2,1,22)             111.2699         -DE/DX =    0.0                 !
 ! A3    A(2,1,26)             111.2657         -DE/DX =    0.0                 !
 ! A4    A(5,1,22)             111.273          -DE/DX =    0.0                 !
 ! A5    A(5,1,26)             111.2695         -DE/DX =    0.0                 !
 ! A6    A(22,1,26)            110.1336         -DE/DX =    0.0                 !
 ! A7    A(1,2,3)              110.8244         -DE/DX =    0.0                 !
 ! A8    A(1,2,17)             128.8035         -DE/DX =    0.0                 !
 ! A9    A(3,2,17)             120.3721         -DE/DX =    0.0                 !
 ! A10   A(2,3,4)              108.4843         -DE/DX =    0.0                 !
 ! A11   A(2,3,14)             120.5792         -DE/DX =    0.0                 !
 ! A12   A(4,3,14)             130.9365         -DE/DX =    0.0                 !
 ! A13   A(3,4,5)              108.4824         -DE/DX =    0.0                 !
 ! A14   A(3,4,9)              130.9419         -DE/DX =    0.0                 !
 ! A15   A(5,4,9)              120.5757         -DE/DX =    0.0                 !
 ! A16   A(1,5,4)              110.8267         -DE/DX =    0.0                 !
 ! A17   A(1,5,6)              128.7978         -DE/DX =    0.0                 !
 ! A18   A(4,5,6)              120.3754         -DE/DX =    0.0                 !
 ! A19   A(5,6,7)              119.0874         -DE/DX =    0.0                 !
 ! A20   A(5,6,13)             120.7791         -DE/DX =    0.0                 !
 ! A21   A(7,6,13)             120.1335         -DE/DX =    0.0                 !
 ! A22   A(6,7,8)              120.5201         -DE/DX =    0.0                 !
 ! A23   A(6,7,12)             119.7475         -DE/DX =    0.0                 !
 ! A24   A(8,7,12)             119.7325         -DE/DX =    0.0                 !
 ! A25   A(7,8,9)              120.6133         -DE/DX =    0.0                 !
 ! A26   A(7,8,11)             119.6843         -DE/DX =    0.0                 !
 ! A27   A(9,8,11)             119.7024         -DE/DX =    0.0                 !
 ! A28   A(4,9,8)              118.828          -DE/DX =    0.0                 !
 ! A29   A(4,9,10)             120.7779         -DE/DX =    0.0                 !
 ! A30   A(8,9,10)             120.3941         -DE/DX =    0.0                 !
 ! A31   A(3,14,15)            118.827          -DE/DX =    0.0                 !
 ! A32   A(3,14,21)            120.7747         -DE/DX =    0.0                 !
 ! A33   A(15,14,21)           120.3983         -DE/DX =    0.0                 !
 ! A34   A(14,15,16)           120.6115         -DE/DX =    0.0                 !
 ! A35   A(14,15,20)           119.7052         -DE/DX =    0.0                 !
 ! A36   A(16,15,20)           119.6833         -DE/DX =    0.0                 !
 ! A37   A(15,16,17)           120.5221         -DE/DX =    0.0                 !
 ! A38   A(15,16,19)           119.7323         -DE/DX =    0.0                 !
 ! A39   A(17,16,19)           119.7456         -DE/DX =    0.0                 !
 ! A40   A(2,17,16)            119.088          -DE/DX =    0.0                 !
 ! A41   A(2,17,18)            120.7818         -DE/DX =    0.0                 !
 ! A42   A(16,17,18)           120.1302         -DE/DX =    0.0                 !
 ! A43   A(1,22,23)            110.8622         -DE/DX =    0.0                 !
 ! A44   A(1,22,24)            110.6004         -DE/DX =    0.0                 !
 ! A45   A(1,22,25)            110.6001         -DE/DX =    0.0                 !
 ! A46   A(23,22,24)           108.3225         -DE/DX =    0.0                 !
 ! A47   A(23,22,25)           108.3232         -DE/DX =    0.0                 !
 ! A48   A(24,22,25)           108.0371         -DE/DX =    0.0                 !
 ! A49   A(1,26,27)            110.5999         -DE/DX =    0.0                 !
 ! A50   A(1,26,28)            110.6009         -DE/DX =    0.0                 !
 ! A51   A(1,26,29)            110.8617         -DE/DX =    0.0                 !
 ! A52   A(27,26,28)           108.0375         -DE/DX =    0.0                 !
 ! A53   A(27,26,29)           108.323          -DE/DX =    0.0                 !
 ! A54   A(28,26,29)           108.3226         -DE/DX =    0.0                 !
 ! D1    D(5,1,2,3)             -0.0034         -DE/DX =    0.0                 !
 ! D2    D(5,1,2,17)           179.9984         -DE/DX =    0.0                 !
 ! D3    D(22,1,2,3)          -118.3961         -DE/DX =    0.0                 !
 ! D4    D(22,1,2,17)           61.6058         -DE/DX =    0.0                 !
 ! D5    D(26,1,2,3)           118.3832         -DE/DX =    0.0                 !
 ! D6    D(26,1,2,17)          -61.6149         -DE/DX =    0.0                 !
 ! D7    D(2,1,5,4)              0.0036         -DE/DX =    0.0                 !
 ! D8    D(2,1,5,6)           -179.9981         -DE/DX =    0.0                 !
 ! D9    D(22,1,5,4)           118.394          -DE/DX =    0.0                 !
 ! D10   D(22,1,5,6)           -61.6077         -DE/DX =    0.0                 !
 ! D11   D(26,1,5,4)          -118.3803         -DE/DX =    0.0                 !
 ! D12   D(26,1,5,6)            61.6179         -DE/DX =    0.0                 !
 ! D13   D(2,1,22,23)           56.1206         -DE/DX =    0.0                 !
 ! D14   D(2,1,22,24)          176.2964         -DE/DX =    0.0                 !
 ! D15   D(2,1,22,25)          -64.0558         -DE/DX =    0.0                 !
 ! D16   D(5,1,22,23)          -56.1404         -DE/DX =    0.0                 !
 ! D17   D(5,1,22,24)           64.0353         -DE/DX =    0.0                 !
 ! D18   D(5,1,22,25)         -176.3169         -DE/DX =    0.0                 !
 ! D19   D(26,1,22,23)        -180.0134         -DE/DX =    0.0                 !
 ! D20   D(26,1,22,24)         -59.8376         -DE/DX =    0.0                 !
 ! D21   D(26,1,22,25)          59.8102         -DE/DX =    0.0                 !
 ! D22   D(2,1,26,27)           64.0578         -DE/DX =    0.0                 !
 ! D23   D(2,1,26,28)         -176.2938         -DE/DX =    0.0                 !
 ! D24   D(2,1,26,29)          -56.1179         -DE/DX =    0.0                 !
 ! D25   D(5,1,26,27)          176.3144         -DE/DX =    0.0                 !
 ! D26   D(5,1,26,28)          -64.0372         -DE/DX =    0.0                 !
 ! D27   D(5,1,26,29)           56.1386         -DE/DX =    0.0                 !
 ! D28   D(22,1,26,27)         -59.8106         -DE/DX =    0.0                 !
 ! D29   D(22,1,26,28)          59.8378         -DE/DX =    0.0                 !
 ! D30   D(22,1,26,29)         180.0137         -DE/DX =    0.0                 !
 ! D31   D(1,2,3,4)              0.0021         -DE/DX =    0.0                 !
 ! D32   D(1,2,3,14)          -179.9977         -DE/DX =    0.0                 !
 ! D33   D(17,2,3,4)          -179.9996         -DE/DX =    0.0                 !
 ! D34   D(17,2,3,14)            0.0006         -DE/DX =    0.0                 !
 ! D35   D(1,2,17,16)          179.9976         -DE/DX =    0.0                 !
 ! D36   D(1,2,17,18)           -0.0026         -DE/DX =    0.0                 !
 ! D37   D(3,2,17,16)           -0.0003         -DE/DX =    0.0                 !
 ! D38   D(3,2,17,18)          179.9994         -DE/DX =    0.0                 !
 ! D39   D(2,3,4,5)              0.0003         -DE/DX =    0.0                 !
 ! D40   D(2,3,4,9)            179.9995         -DE/DX =    0.0                 !
 ! D41   D(14,3,4,5)           180.0001         -DE/DX =    0.0                 !
 ! D42   D(14,3,4,9)            -0.0007         -DE/DX =    0.0                 !
 ! D43   D(2,3,14,15)           -0.0003         -DE/DX =    0.0                 !
 ! D44   D(2,3,14,21)          179.9999         -DE/DX =    0.0                 !
 ! D45   D(4,3,14,15)          179.9999         -DE/DX =    0.0                 !
 ! D46   D(4,3,14,21)            0.0001         -DE/DX =    0.0                 !
 ! D47   D(3,4,5,1)             -0.0026         -DE/DX =    0.0                 !
 ! D48   D(3,4,5,6)            179.9989         -DE/DX =    0.0                 !
 ! D49   D(9,4,5,1)            179.9981         -DE/DX =    0.0                 !
 ! D50   D(9,4,5,6)             -0.0004         -DE/DX =    0.0                 !
 ! D51   D(3,4,9,8)           -179.9988         -DE/DX =    0.0                 !
 ! D52   D(3,4,9,10)             0.0008         -DE/DX =    0.0                 !
 ! D53   D(5,4,9,8)              0.0003         -DE/DX =    0.0                 !
 ! D54   D(5,4,9,10)          -180.0001         -DE/DX =    0.0                 !
 ! D55   D(1,5,6,7)           -179.9978         -DE/DX =    0.0                 !
 ! D56   D(1,5,6,13)             0.0019         -DE/DX =    0.0                 !
 ! D57   D(4,5,6,7)              0.0003         -DE/DX =    0.0                 !
 ! D58   D(4,5,6,13)          -179.9999         -DE/DX =    0.0                 !
 ! D59   D(5,6,7,8)             -0.0002         -DE/DX =    0.0                 !
 ! D60   D(5,6,7,12)          -180.0            -DE/DX =    0.0                 !
 ! D61   D(13,6,7,8)           180.0001         -DE/DX =    0.0                 !
 ! D62   D(13,6,7,12)            0.0003         -DE/DX =    0.0                 !
 ! D63   D(6,7,8,9)              0.0001         -DE/DX =    0.0                 !
 ! D64   D(6,7,8,11)           180.0002         -DE/DX =    0.0                 !
 ! D65   D(12,7,8,9)           179.9999         -DE/DX =    0.0                 !
 ! D66   D(12,7,8,11)            0.0            -DE/DX =    0.0                 !
 ! D67   D(7,8,9,4)             -0.0001         -DE/DX =    0.0                 !
 ! D68   D(7,8,9,10)          -179.9998         -DE/DX =    0.0                 !
 ! D69   D(11,8,9,4)          -180.0002         -DE/DX =    0.0                 !
 ! D70   D(11,8,9,10)            0.0001         -DE/DX =    0.0                 !
 ! D71   D(3,14,15,16)          -0.0001         -DE/DX =    0.0                 !
 ! D72   D(3,14,15,20)        -180.0001         -DE/DX =    0.0                 !
 ! D73   D(21,14,15,16)        179.9997         -DE/DX =    0.0                 !
 ! D74   D(21,14,15,20)         -0.0003         -DE/DX =    0.0                 !
 ! D75   D(14,15,16,17)          0.0004         -DE/DX =    0.0                 !
 ! D76   D(14,15,16,19)       -179.9997         -DE/DX =    0.0                 !
 ! D77   D(20,15,16,17)       -179.9997         -DE/DX =    0.0                 !
 ! D78   D(20,15,16,19)          0.0003         -DE/DX =    0.0                 !
 ! D79   D(15,16,17,2)          -0.0001         -DE/DX =    0.0                 !
 ! D80   D(15,16,17,18)       -179.9999         -DE/DX =    0.0                 !
 ! D81   D(19,16,17,2)         180.0            -DE/DX =    0.0                 !
 ! D82   D(19,16,17,18)          0.0002         -DE/DX =    0.0                 !
 --------------------------------------------------------------------------------
 Lowest energy point so far.  Saving SCF results.
 Largest change from initial coordinates is atom   23       0.015 Angstoms.
 GradGradGradGradGradGradGradGradGradGradGradGradGradGradGradGradGradGrad

 Leave Link  103 at Thu Aug 20 10:02:47 2026, MaxMem=   104857600 cpu:               0.0 elap:               0.0
 (Enter /sw/cluster/pub/apps//g16/l202.exe)
                          Input orientation:                          
 ---------------------------------------------------------------------
 Center     Atomic      Atomic             Coordinates (Angstroms)
 Number     Number       Type             X           Y           Z
 ---------------------------------------------------------------------
      1          6           0        0.006183   -0.011561    0.039683
      2          6           0       -0.044755   -1.536626    0.051901
      3          6           0        1.254485   -2.081356    0.032740
      4          6           0        2.221726   -0.977319    0.007334
      5          6           0        1.511081    0.239269    0.011041
      6          6           0        2.191103    1.449693   -0.010001
      7          6           0        3.590703    1.443610   -0.034919
      8          6           0        4.295756    0.235768   -0.038594
      9          6           0        3.616477   -0.984321   -0.017491
     10          1           0        4.167921   -1.920765   -0.020422
     11          1           0        5.381962    0.246894   -0.058045
     12          1           0        4.133624    2.384450   -0.051530
     13          1           0        1.649343    2.392342   -0.007286
     14          6           0        1.444779   -3.463288    0.039542
     15          6           0        0.324744   -4.297145    0.065684
     16          6           0       -0.965095   -3.756826    0.084719
     17          6           0       -1.155098   -2.369963    0.077871
     18          1           0       -2.160667   -1.956788    0.092772
     19          1           0       -1.826290   -4.418761    0.104978
     20          1           0        0.456436   -5.375556    0.071290
     21          1           0        2.445472   -3.886867    0.024811
     22          6           0       -0.635349    0.579666    1.310852
     23          1           0       -0.156827    0.180868    2.210453
     24          1           0       -0.534505    1.670784    1.321895
     25          1           0       -1.703198    0.337173    1.352342
     26          6           0       -0.680229    0.560821   -1.216608
     27          1           0       -1.748812    0.318011   -1.216551
     28          1           0       -0.580130    1.651627   -1.247503
     29          1           0       -0.233831    0.148517   -2.126573
 ---------------------------------------------------------------------
                    Distance matrix (angstroms):
                    1          2          3          4          5
     1  C    0.000000
     2  C    1.525964   0.000000
     3  C    2.417096   1.408944   0.000000
     4  C    2.417099   2.334898   1.468025   0.000000
     5  C    1.525928   2.361377   2.334869   1.408942   0.000000
     6  C    2.628994   3.731085   3.653407   2.427267   1.388523
     7  C    3.869350   4.701691   4.229406   2.781506   2.403617
     8  C    4.297411   4.689308   3.824067   2.403184   2.785120
     9  C    3.739486   3.703306   2.604806   1.394989   2.435298
    10  H    4.579163   4.230772   2.918343   2.162992   3.424257
    11  H    5.382876   5.713344   4.739732   3.389700   3.871505
    12  H    4.773360   5.731003   5.314129   3.867857   3.388724
    13  H    2.912204   4.279049   4.491268   3.417960   2.157585
    14  C    3.739516   2.435342   1.394989   2.604750   3.703261
    15  C    4.297486   2.785173   2.403170   3.824028   4.689290
    16  C    3.869421   2.403620   2.781445   4.229359   4.701665
    17  C    2.629086   1.388519   2.427225   3.653406   3.731095
    18  H    2.912382   2.157612   3.417950   4.491328   4.279145
    19  H    4.773429   3.388714   3.867797   5.314084   5.730979
    20  H    5.382951   3.871557   3.389708   4.739707   5.713333
    21  H    4.579121   3.424266   2.162957   2.918190   4.230635
    22  C    1.541746   2.532281   3.505150   3.505173   2.532299
    23  H    2.185370   2.760741   3.442657   3.442767   2.760931
    24  H    2.183277   3.484282   4.352121   4.041946   2.819928
    25  H    2.183271   2.820053   4.042093   4.352237   3.484288
    26  C    1.541769   2.532237   3.505009   3.505032   2.532263
    27  H    2.183288   2.820010   4.041965   4.352119   3.484262
    28  H    2.183302   3.484255   4.352010   4.041828   2.819903
    29  H    2.185383   2.760653   3.442390   3.442503   2.760860
                    6          7          8          9         10
     6  C    0.000000
     7  C    1.399835   0.000000
     8  C    2.429814   1.398569   0.000000
     9  C    2.820669   2.428130   1.396597   0.000000
    10  H    3.907417   3.413562   2.160395   1.086750   0.000000
    11  H    3.410369   2.154362   1.086437   2.152783   2.484765
    12  H    2.156128   1.086380   2.154829   3.408404   4.305464
    13  H    1.087243   2.160956   3.413984   3.907885   4.994627
    14  C    4.969591   5.356134   4.670888   3.296180   3.130251
    15  C    6.042779   6.605519   6.027198   4.670892   4.519359
    16  C    6.089203   6.914777   6.605496   5.356121   5.452525
    17  C    5.078834   6.089227   6.042782   4.969610   5.342843
    18  H    5.527439   6.682609   6.819821   5.859458   6.329703
    19  H    7.112764   7.983155   7.691860   6.436931   6.495096
    20  H    7.042705   7.505726   6.799957   5.410793   5.071401
    21  H    5.342732   5.452440   4.519258   3.130146   2.614274
    22  C    3.238893   4.518518   5.123969   4.721077   5.576365
    23  H    3.471758   4.547547   4.988659   4.534227   5.300670
    24  H    3.041672   4.348550   5.219350   5.106289   6.067442
    25  H    4.273086   5.583375   6.158931   5.649932   6.438385
    26  C    3.238910   4.518469   5.123847   4.720914   5.576171
    27  H    4.273101   5.583336   6.158827   5.649791   6.438211
    28  H    3.041697   4.348503   5.219232   5.106140   6.067265
    29  H    3.471778   4.547454   4.988430   4.533919   5.300303
                   11         12         13         14         15
    11  H    0.000000
    12  H    2.475386   0.000000
    13  H    4.305574   2.484688   0.000000
    14  C    5.410765   6.436942   5.859389   0.000000
    15  C    6.799931   7.691881   6.819760   1.396596   0.000000
    16  C    7.505684   7.983156   6.682516   2.428106   1.398568
    17  C    7.042696   7.112790   5.527358   2.820672   2.429837
    18  H    7.859403   7.647567   5.782830   3.907892   3.413982
    19  H    8.588004   9.045925   7.647467   3.408387   2.154827
    20  H    7.475926   8.588044   7.859353   2.152812   1.086436
    21  H    5.071273   6.495006   6.329558   1.086749   2.160438
    22  C    6.180020   5.277920   3.200484   4.721084   5.124013
    23  H    5.985702   5.327318   3.615416   4.534079   4.988441
    24  H    6.239894   4.918033   2.656419   5.649840   6.158941
    25  H    7.224738   6.342768   4.160750   5.106536   5.219668
    26  C    6.179885   5.277899   3.200599   4.720914   5.123874
    27  H    7.224620   6.342752   4.160844   5.106370   5.219524
    28  H    6.239762   4.918014   2.656568   5.649699   6.158827
    29  H    5.985451   5.327276   3.615588   4.533753   4.988177
                   16         17         18         19         20
    16  C    0.000000
    17  C    1.399834   0.000000
    18  H    2.160924   1.087247   0.000000
    19  H    1.086381   2.156109   2.484606   0.000000
    20  H    2.154349   3.410377   4.305539   2.475365   0.000000
    21  H    3.413572   3.907418   4.994631   4.305496   2.484878
    22  C    4.518550   3.238934   3.200612   5.277949   6.180063
    23  H    4.547249   3.471482   3.615179   5.326980   5.985479
    24  H    5.583455   4.273216   4.161061   6.342882   7.224741
    25  H    4.348849   3.041919   2.656699   4.918330   6.240223
    26  C    4.518482   3.238931   3.200708   5.277905   6.179908
    27  H    4.348771   3.041912   2.656815   4.918277   6.240061
    28  H    5.583402   4.273218   4.161141   6.342848   7.224609
    29  H    4.547116   3.471462   3.615315   5.326891   5.985186
                   21         22         23         24         25
    21  H    0.000000
    22  C    5.576313   0.000000
    23  H    5.300515   1.094214   0.000000
    24  H    6.438181   1.095824   1.775394   0.000000
    25  H    6.067645   1.095822   1.775401   1.773497   0.000000
    26  C    5.576115   2.527928   3.487557   2.774392   2.774164
    27  H    6.067454   2.774171   3.781213   3.122218   2.569369
    28  H    6.438010   2.774406   3.781504   2.569875   3.122221
    29  H    5.300136   3.487549   4.337830   3.781486   3.781201
                   26         27         28         29
    26  C    0.000000
    27  H    1.095822   0.000000
    28  H    1.095824   1.773501   0.000000
    29  H    1.094214   1.775398   1.775395   0.000000
 Stoichiometry    C15H14
 Framework group  C1[X(C15H14)]
 Deg. of freedom    81
 Full point group                 C1      NOp   1
 RotChk:  IX=0 Diff= 1.24D-15
 Largest Abelian subgroup         C1      NOp   1
 Largest concise Abelian subgroup C1      NOp   1
                         Standard orientation:                         
 ---------------------------------------------------------------------
 Center     Atomic      Atomic             Coordinates (Angstroms)
 Number     Number       Type             X           Y           Z
 ---------------------------------------------------------------------
      1          6           0       -0.000044    1.412901   -0.000001
      2          6           0        1.180692    0.446243   -0.000039
      3          6           0        0.734036   -0.890028   -0.000009
      4          6           0       -0.733989   -0.890073   -0.000002
      5          6           0       -1.180684    0.446183   -0.000035
      6          6           0       -2.539411    0.732295   -0.000058
      7          6           0       -3.457392   -0.324515   -0.000041
      8          6           0       -3.013591   -1.650802   -0.000006
      9          6           0       -1.648083   -1.943842    0.000016
     10          1           0       -1.307175   -2.975737    0.000040
     11          1           0       -3.737941   -2.460532    0.000004
     12          1           0       -4.522967   -0.112922   -0.000060
     13          1           0       -2.891370    1.760994   -0.000085
     14          6           0        1.648097   -1.943825    0.000012
     15          6           0        3.013608   -1.650804   -0.000005
     16          6           0        3.457385   -0.324511   -0.000044
     17          6           0        2.539423    0.732315   -0.000060
     18          1           0        2.891460    1.760992   -0.000092
     19          1           0        4.522958   -0.112903   -0.000062
     20          1           0        3.737986   -2.460508    0.000012
     21          1           0        1.307099   -2.975689    0.000037
     22          6           0       -0.000027    2.295860   -1.263870
     23          1           0        0.000190    1.680836   -2.168883
     24          1           0       -0.886881    2.939198   -1.284771
     25          1           0        0.886616    2.939494   -1.284531
     26          6           0       -0.000013    2.295626    1.264059
     27          1           0        0.886634    2.939249    1.284838
     28          1           0       -0.886866    2.938961    1.285104
     29          1           0        0.000219    1.680418    2.168947
 ---------------------------------------------------------------------
 Rotational constants (GHZ):           1.0600268           0.5502022           0.3928827
 Leave Link  202 at Thu Aug 20 10:02:47 2026, MaxMem=   104857600 cpu:               0.0 elap:               0.0
 (Enter /sw/cluster/pub/apps//g16/l601.exe)
 Copying SCF densities to generalized density rwf, IOpCl= 0 IROHF=0.

 **********************************************************************

            Population analysis using the SCF density.

 **********************************************************************

 Orbital symmetries:
       Occupied  (A) (A) (A) (A) (A) (A) (A) (A) (A) (A) (A) (A)
                 (A) (A) (A) (A) (A) (A) (A) (A) (A) (A) (A) (A)
                 (A) (A) (A) (A) (A) (A) (A) (A) (A) (A) (A) (A)
                 (A) (A) (A) (A) (A) (A) (A) (A) (A) (A) (A) (A)
                 (A) (A) (A) (A)
       Virtual   (A) (A) (A) (A) (A) (A) (A) (A) (A) (A) (A) (A)
                 (A) (A) (A) (A) (A) (A) (A) (A) (A) (A) (A) (A)
                 (A) (A) (A) (A) (A) (A) (A) (A) (A) (A) (A) (A)
                 (A) (A) (A) (A) (A) (A) (A) (A) (A) (A) (A) (A)
                 (A) (A) (A) (A) (A) (A) (A) (A) (A) (A) (A) (A)
                 (A) (A) (A) (A) (A) (A) (A) (A) (A) (A) (A) (A)
                 (A) (A) (A) (A) (A) (A) (A) (A) (A) (A) (A) (A)
                 (A) (A) (A) (A) (A) (A) (A) (A) (A) (A) (A) (A)
                 (A) (A) (A) (A) (A) (A) (A) (A) (A) (A) (A) (A)
                 (A) (A) (A) (A) (A) (A) (A) (A) (A) (A) (A) (A)
                 (A) (A) (A) (A) (A) (A) (A) (A) (A) (A) (A) (A)
                 (A) (A) (A) (A) (A) (A) (A) (A) (A) (A) (A) (A)
                 (A) (A) (A) (A) (A) (A) (A) (A) (A) (A) (A) (A)
                 (A) (A) (A) (A) (A) (A) (A) (A) (A) (A) (A) (A)
                 (A) (A) (A) (A) (A) (A) (A) (A) (A) (A) (A) (A)
                 (A) (A) (A) (A) (A) (A) (A) (A) (A) (A) (A) (A)
                 (A) (A) (A) (A) (A) (A) (A) (A) (A)
 The electronic state is 1-A.
 Alpha  occ. eigenvalues --  -10.20366 -10.18819 -10.18788 -10.18689 -10.18688
 Alpha  occ. eigenvalues --  -10.18668 -10.18668 -10.18628 -10.18628 -10.18599
 Alpha  occ. eigenvalues --  -10.18599 -10.18497 -10.18496 -10.17808 -10.17808
 Alpha  occ. eigenvalues --   -0.88470  -0.83857  -0.80831  -0.76976  -0.73806
 Alpha  occ. eigenvalues --   -0.72802  -0.70885  -0.68580  -0.63986  -0.61711
 Alpha  occ. eigenvalues --   -0.57979  -0.57118  -0.55314  -0.50599  -0.49177
 Alpha  occ. eigenvalues --   -0.46828  -0.44802  -0.44402  -0.43350  -0.42834
 Alpha  occ. eigenvalues --   -0.42579  -0.41387  -0.41246  -0.39040  -0.37930
 Alpha  occ. eigenvalues --   -0.37864  -0.37070  -0.34663  -0.34349  -0.34072
 Alpha  occ. eigenvalues --   -0.33674  -0.31556  -0.31498  -0.27720  -0.24446
 Alpha  occ. eigenvalues --   -0.24048  -0.21062
 Alpha virt. eigenvalues --   -0.02727  -0.00494   0.01260   0.04579   0.08510
 Alpha virt. eigenvalues --    0.10405   0.10519   0.13063   0.13398   0.14046
 Alpha virt. eigenvalues --    0.14935   0.16491   0.16566   0.16802   0.17895
 Alpha virt. eigenvalues --    0.18668   0.19349   0.20542   0.21606   0.21620
 Alpha virt. eigenvalues --    0.22980   0.24396   0.26062   0.26722   0.27649
 Alpha virt. eigenvalues --    0.27826   0.30250   0.31780   0.32492   0.37153
 Alpha virt. eigenvalues --    0.38533   0.39911   0.40695   0.47645   0.49896
 Alpha virt. eigenvalues --    0.49921   0.51411   0.51602   0.52465   0.55234
 Alpha virt. eigenvalues --    0.55613   0.55936   0.56146   0.56353   0.56736
 Alpha virt. eigenvalues --    0.58469   0.58507   0.58774   0.60543   0.60552
 Alpha virt. eigenvalues --    0.61856   0.62030   0.62891   0.63359   0.63718
 Alpha virt. eigenvalues --    0.64785   0.66074   0.66501   0.68506   0.68988
 Alpha virt. eigenvalues --    0.69662   0.75192   0.76003   0.77157   0.78458
 Alpha virt. eigenvalues --    0.79412   0.80477   0.81798   0.82783   0.83686
 Alpha virt. eigenvalues --    0.84305   0.84568   0.85067   0.86419   0.88308
 Alpha virt. eigenvalues --    0.90759   0.90928   0.91034   0.91721   0.92542
 Alpha virt. eigenvalues --    0.92680   0.96056   0.96225   0.96655   0.97257
 Alpha virt. eigenvalues --    0.98654   0.99264   0.99526   1.01018   1.04008
 Alpha virt. eigenvalues --    1.07250   1.07624   1.11044   1.11092   1.15117
 Alpha virt. eigenvalues --    1.15195   1.19122   1.22219   1.24263   1.24544
 Alpha virt. eigenvalues --    1.28021   1.28608   1.33809   1.34039   1.39394
 Alpha virt. eigenvalues --    1.41592   1.41855   1.45365   1.45451   1.46225
 Alpha virt. eigenvalues --    1.46698   1.49736   1.50271   1.50355   1.53292
 Alpha virt. eigenvalues --    1.56277   1.57260   1.60983   1.65327   1.67947
 Alpha virt. eigenvalues --    1.68910   1.73943   1.79497   1.79854   1.80721
 Alpha virt. eigenvalues --    1.81025   1.84934   1.86848   1.90364   1.90615
 Alpha virt. eigenvalues --    1.91288   1.92414   1.93064   1.95364   1.96466
 Alpha virt. eigenvalues --    2.00294   2.02314   2.04332   2.04418   2.05259
 Alpha virt. eigenvalues --    2.07617   2.08769   2.11283   2.13328   2.14998
 Alpha virt. eigenvalues --    2.19632   2.19721   2.19972   2.21994   2.23872
 Alpha virt. eigenvalues --    2.25034   2.25054   2.27032   2.27078   2.28936
 Alpha virt. eigenvalues --    2.30539   2.32163   2.32683   2.33476   2.37367
 Alpha virt. eigenvalues --    2.43753   2.43783   2.45950   2.49981   2.55769
 Alpha virt. eigenvalues --    2.60971   2.61979   2.64782   2.65337   2.68403
 Alpha virt. eigenvalues --    2.69113   2.70603   2.70642   2.73873   2.75989
 Alpha virt. eigenvalues --    2.76954   2.82709   2.83755   2.85785   2.94416
 Alpha virt. eigenvalues --    2.96037   3.00932   3.10141   3.29255   3.35493
 Alpha virt. eigenvalues --    3.51173   4.08584   4.09942   4.10231   4.15092
 Alpha virt. eigenvalues --    4.15803   4.19002   4.23863   4.29415   4.31326
 Alpha virt. eigenvalues --    4.35942   4.42712   4.44285   4.60683   4.81116
 Alpha virt. eigenvalues --    4.83147
          Condensed to atoms (all electrons):
               1          2          3          4          5          6
     1  C    5.183021   0.315968  -0.072067  -0.072071   0.315974  -0.084800
     2  C    0.315968   4.924034   0.494357   0.007512  -0.079181   0.006915
     3  C   -0.072067   0.494357   4.920345   0.268310   0.007519   0.014055
     4  C   -0.072071   0.007512   0.268310   4.920322   0.494351  -0.031045
     5  C    0.315974  -0.079181   0.007519   0.494351   4.924025   0.480048
     6  C   -0.084800   0.006915   0.014055  -0.031045   0.480048   5.080925
     7  C    0.006538  -0.000319   0.000253  -0.041274  -0.006799   0.497453
     8  C   -0.000458  -0.000285   0.007809   0.004034  -0.039805  -0.021072
     9  C    0.015427   0.010192  -0.093855   0.474750  -0.081933  -0.061703
    10  H   -0.000227  -0.000033  -0.008898  -0.032451   0.005386   0.000499
    11  H    0.000012   0.000002  -0.000189   0.002055   0.001174   0.004261
    12  H   -0.000154   0.000003   0.000005   0.001002   0.002744  -0.039491
    13  H   -0.007516   0.000231  -0.000272   0.004787  -0.040812   0.353309
    14  C    0.015426  -0.081943   0.474760  -0.093842   0.010192  -0.000318
    15  C   -0.000458  -0.039805   0.004034   0.007809  -0.000285   0.000003
    16  C    0.006537  -0.006801  -0.041272   0.000254  -0.000319   0.000001
    17  C   -0.084799   0.480041  -0.031046   0.014055   0.006915  -0.000226
    18  H   -0.007515  -0.040813   0.004787  -0.000272   0.000231   0.000003
    19  H   -0.000154   0.002744   0.001002   0.000005   0.000003  -0.000000
    20  H    0.000012   0.001174   0.002054  -0.000189   0.000002  -0.000000
    21  H   -0.000227   0.005386  -0.032449  -0.008901  -0.000033   0.000004
    22  C    0.351820  -0.044754   0.000053   0.000056  -0.044750  -0.002260
    23  H   -0.030036  -0.002217   0.001035   0.001035  -0.002215   0.000272
    24  H   -0.026926   0.004907   0.000094  -0.000342  -0.008903   0.003274
    25  H   -0.026922  -0.008899  -0.000342   0.000094   0.004907  -0.000049
    26  C    0.351820  -0.044757   0.000049   0.000053  -0.044753  -0.002261
    27  H   -0.026923  -0.008899  -0.000342   0.000094   0.004908  -0.000049
    28  H   -0.026926   0.004907   0.000094  -0.000342  -0.008903   0.003274
    29  H   -0.030036  -0.002217   0.001036   0.001036  -0.002215   0.000271
               7          8          9         10         11         12
     1  C    0.006538  -0.000458   0.015427  -0.000227   0.000012  -0.000154
     2  C   -0.000319  -0.000285   0.010192  -0.000033   0.000002   0.000003
     3  C    0.000253   0.007809  -0.093855  -0.008898  -0.000189   0.000005
     4  C   -0.041274   0.004034   0.474750  -0.032451   0.002055   0.001002
     5  C   -0.006799  -0.039805  -0.081933   0.005386   0.001174   0.002744
     6  C    0.497453  -0.021072  -0.061703   0.000499   0.004261  -0.039491
     7  C    4.888928   0.539976  -0.026876   0.004272  -0.040342   0.357338
     8  C    0.539976   4.880853   0.492668  -0.047833   0.357066  -0.041076
     9  C   -0.026876   0.492668   5.161034   0.347363  -0.038451   0.004450
    10  H    0.004272  -0.047833   0.347363   0.603265  -0.004732  -0.000178
    11  H   -0.040342   0.357066  -0.038451  -0.004732   0.597681  -0.005245
    12  H    0.357338  -0.041076   0.004450  -0.000178  -0.005245   0.599285
    13  H   -0.046530   0.004429   0.000616   0.000021  -0.000180  -0.004856
    14  C    0.000027   0.000101  -0.013731   0.002860  -0.000000  -0.000000
    15  C   -0.000000   0.000000   0.000101  -0.000016  -0.000000   0.000000
    16  C    0.000000  -0.000000   0.000027   0.000000  -0.000000   0.000000
    17  C    0.000001   0.000003  -0.000318   0.000004  -0.000000  -0.000000
    18  H   -0.000000  -0.000000   0.000001   0.000000   0.000000  -0.000000
    19  H    0.000000   0.000000  -0.000000  -0.000000  -0.000000  -0.000000
    20  H   -0.000000  -0.000000  -0.000000   0.000001   0.000000  -0.000000
    21  H    0.000000  -0.000016   0.002861   0.002722   0.000001  -0.000000
    22  C   -0.000012   0.000024  -0.000229   0.000003   0.000000   0.000001
    23  H   -0.000024  -0.000011  -0.000043   0.000001  -0.000000   0.000000
    24  H    0.000010   0.000000  -0.000002   0.000000  -0.000000   0.000002
    25  H    0.000002  -0.000000   0.000006  -0.000000  -0.000000  -0.000000
    26  C   -0.000012   0.000024  -0.000229   0.000003   0.000000   0.000001
    27  H    0.000002  -0.000000   0.000006  -0.000000  -0.000000  -0.000000
    28  H    0.000010   0.000000  -0.000002   0.000000  -0.000000   0.000002
    29  H   -0.000024  -0.000011  -0.000043   0.000001  -0.000000   0.000000
              13         14         15         16         17         18
     1  C   -0.007516   0.015426  -0.000458   0.006537  -0.084799  -0.007515
     2  C    0.000231  -0.081943  -0.039805  -0.006801   0.480041  -0.040813
     3  C   -0.000272   0.474760   0.004034  -0.041272  -0.031046   0.004787
     4  C    0.004787  -0.093842   0.007809   0.000254   0.014055  -0.000272
     5  C   -0.040812   0.010192  -0.000285  -0.000319   0.006915   0.000231
     6  C    0.353309  -0.000318   0.000003   0.000001  -0.000226   0.000003
     7  C   -0.046530   0.000027  -0.000000   0.000000   0.000001  -0.000000
     8  C    0.004429   0.000101   0.000000  -0.000000   0.000003  -0.000000
     9  C    0.000616  -0.013731   0.000101   0.000027  -0.000318   0.000001
    10  H    0.000021   0.002860  -0.000016   0.000000   0.000004   0.000000
    11  H   -0.000180  -0.000000  -0.000000  -0.000000  -0.000000   0.000000
    12  H   -0.004856  -0.000000   0.000000   0.000000  -0.000000  -0.000000
    13  H    0.607931   0.000001  -0.000000  -0.000000   0.000003   0.000000
    14  C    0.000001   5.161012   0.492660  -0.026882  -0.061700   0.000616
    15  C   -0.000000   0.492660   4.880868   0.539978  -0.021069   0.004429
    16  C   -0.000000  -0.026882   0.539978   4.888916   0.497460  -0.046531
    17  C    0.000003  -0.061700  -0.021069   0.497460   5.080938   0.353311
    18  H    0.000000   0.000616   0.004429  -0.046531   0.353311   0.607935
    19  H   -0.000000   0.004451  -0.041077   0.357340  -0.039493  -0.004857
    20  H    0.000000  -0.038450   0.357065  -0.040341   0.004261  -0.000181
    21  H    0.000000   0.347363  -0.047831   0.004272   0.000499   0.000021
    22  C    0.000857  -0.000229   0.000024  -0.000012  -0.002257   0.000857
    23  H    0.000047  -0.000043  -0.000011  -0.000024   0.000272   0.000047
    24  H    0.001807   0.000006  -0.000000   0.000002  -0.000049  -0.000081
    25  H   -0.000081  -0.000002   0.000000   0.000010   0.003272   0.001805
    26  C    0.000856  -0.000229   0.000024  -0.000012  -0.002258   0.000856
    27  H   -0.000081  -0.000002   0.000000   0.000010   0.003272   0.001804
    28  H    0.001806   0.000006  -0.000000   0.000002  -0.000049  -0.000081
    29  H    0.000047  -0.000043  -0.000011  -0.000024   0.000272   0.000047
              19         20         21         22         23         24
     1  C   -0.000154   0.000012  -0.000227   0.351820  -0.030036  -0.026926
     2  C    0.002744   0.001174   0.005386  -0.044754  -0.002217   0.004907
     3  C    0.001002   0.002054  -0.032449   0.000053   0.001035   0.000094
     4  C    0.000005  -0.000189  -0.008901   0.000056   0.001035  -0.000342
     5  C    0.000003   0.000002  -0.000033  -0.044750  -0.002215  -0.008903
     6  C   -0.000000  -0.000000   0.000004  -0.002260   0.000272   0.003274
     7  C    0.000000  -0.000000   0.000000  -0.000012  -0.000024   0.000010
     8  C    0.000000  -0.000000  -0.000016   0.000024  -0.000011   0.000000
     9  C   -0.000000  -0.000000   0.002861  -0.000229  -0.000043  -0.000002
    10  H   -0.000000   0.000001   0.002722   0.000003   0.000001   0.000000
    11  H   -0.000000   0.000000   0.000001   0.000000  -0.000000  -0.000000
    12  H   -0.000000  -0.000000  -0.000000   0.000001   0.000000   0.000002
    13  H   -0.000000   0.000000   0.000000   0.000857   0.000047   0.001807
    14  C    0.004451  -0.038450   0.347363  -0.000229  -0.000043   0.000006
    15  C   -0.041077   0.357065  -0.047831   0.000024  -0.000011  -0.000000
    16  C    0.357340  -0.040341   0.004272  -0.000012  -0.000024   0.000002
    17  C   -0.039493   0.004261   0.000499  -0.002257   0.000272  -0.000049
    18  H   -0.004857  -0.000181   0.000021   0.000857   0.000047  -0.000081
    19  H    0.599290  -0.005246  -0.000178   0.000001   0.000000  -0.000000
    20  H   -0.005246   0.597678  -0.004731   0.000000  -0.000000  -0.000000
    21  H   -0.000178  -0.004731   0.603263   0.000003   0.000001  -0.000000
    22  C    0.000001   0.000000   0.000003   5.145012   0.369373   0.362472
    23  H    0.000000  -0.000000   0.000001   0.369373   0.556537  -0.028456
    24  H   -0.000000  -0.000000  -0.000000   0.362472  -0.028456   0.580788
    25  H    0.000002  -0.000000   0.000000   0.362471  -0.028457  -0.031009
    26  C    0.000001   0.000000   0.000003  -0.060627   0.005590  -0.003787
    27  H    0.000002  -0.000000   0.000000  -0.003793  -0.000063  -0.000204
    28  H   -0.000000  -0.000000  -0.000000  -0.003787  -0.000063   0.003159
    29  H    0.000000  -0.000000   0.000001   0.005590  -0.000184  -0.000063
              25         26         27         28         29
     1  C   -0.026922   0.351820  -0.026923  -0.026926  -0.030036
     2  C   -0.008899  -0.044757  -0.008899   0.004907  -0.002217
     3  C   -0.000342   0.000049  -0.000342   0.000094   0.001036
     4  C    0.000094   0.000053   0.000094  -0.000342   0.001036
     5  C    0.004907  -0.044753   0.004908  -0.008903  -0.002215
     6  C   -0.000049  -0.002261  -0.000049   0.003274   0.000271
     7  C    0.000002  -0.000012   0.000002   0.000010  -0.000024
     8  C   -0.000000   0.000024  -0.000000   0.000000  -0.000011
     9  C    0.000006  -0.000229   0.000006  -0.000002  -0.000043
    10  H   -0.000000   0.000003  -0.000000   0.000000   0.000001
    11  H   -0.000000   0.000000  -0.000000  -0.000000  -0.000000
    12  H   -0.000000   0.000001  -0.000000   0.000002   0.000000
    13  H   -0.000081   0.000856  -0.000081   0.001806   0.000047
    14  C   -0.000002  -0.000229  -0.000002   0.000006  -0.000043
    15  C    0.000000   0.000024   0.000000  -0.000000  -0.000011
    16  C    0.000010  -0.000012   0.000010   0.000002  -0.000024
    17  C    0.003272  -0.002258   0.003272  -0.000049   0.000272
    18  H    0.001805   0.000856   0.001804  -0.000081   0.000047
    19  H    0.000002   0.000001   0.000002  -0.000000   0.000000
    20  H   -0.000000   0.000000  -0.000000  -0.000000  -0.000000
    21  H    0.000000   0.000003   0.000000  -0.000000   0.000001
    22  C    0.362471  -0.060627  -0.003793  -0.003787   0.005590
    23  H   -0.028457   0.005590  -0.000063  -0.000063  -0.000184
    24  H   -0.031009  -0.003787  -0.000204   0.003159  -0.000063
    25  H    0.580789  -0.003793   0.003163  -0.000204  -0.000063
    26  C   -0.003793   5.145023   0.362469   0.362470   0.369372
    27  H    0.003163   0.362469   0.580791  -0.031009  -0.028457
    28  H   -0.000204   0.362470  -0.031009   0.580789  -0.028456
    29  H   -0.000063   0.369372  -0.028457  -0.028456   0.556536
 Mulliken charges:
               1
     1  C   -0.064342
     2  C    0.102550
     3  C    0.079081
     4  C    0.079113
     5  C    0.102530
     6  C   -0.201294
     7  C   -0.132598
     8  C   -0.136422
     9  C   -0.192088
    10  H    0.127966
    11  H    0.126887
    12  H    0.126167
    13  H    0.123581
    14  C   -0.192066
    15  C   -0.136432
    16  C   -0.132587
    17  C   -0.201317
    18  H    0.123579
    19  H    0.126164
    20  H    0.126889
    21  H    0.127967
    22  C   -0.435904
    23  H    0.157636
    24  H    0.143301
    25  H    0.143299
    26  C   -0.435896
    27  H    0.143299
    28  H    0.143301
    29  H    0.157636
 Sum of Mulliken charges =  -0.00000
 Mulliken charges with hydrogens summed into heavy atoms:
               1
     1  C   -0.064342
     2  C    0.102550
     3  C    0.079081
     4  C    0.079113
     5  C    0.102530
     6  C   -0.077713
     7  C   -0.006431
     8  C   -0.009535
     9  C   -0.064121
    14  C   -0.064099
    15  C   -0.009544
    16  C   -0.006423
    17  C   -0.077738
    22  C    0.008333
    26  C    0.008340
 Electronic spatial extent (au):  <R**2>=           2909.2278
 Charge=             -0.0000 electrons
 Dipole moment (field-independent basis, Debye):
    X=             -0.0000    Y=              0.4204    Z=              0.0000  Tot=              0.4204
 Quadrupole moment (field-independent basis, Debye-Ang):
   XX=            -80.7229   YY=            -79.7991   ZZ=            -92.2919
   XY=              0.0001   XZ=              0.0000   YZ=             -0.0002
 Traceless Quadrupole moment (field-independent basis, Debye-Ang):
   XX=              3.5484   YY=              4.4722   ZZ=             -8.0206
   XY=              0.0001   XZ=              0.0000   YZ=             -0.0002
 Octapole moment (field-independent basis, Debye-Ang**2):
  XXX=             -0.0001  YYY=            -10.6697  ZZZ=              0.0002  XYY=              0.0000
  XXY=             -1.7174  XXZ=             -0.0007  XZZ=              0.0002  YZZ=              4.2947
  YYZ=              0.0004  XYZ=             -0.0001
 Hexadecapole moment (field-independent basis, Debye-Ang**3):
 XXXX=          -2238.8537 YYYY=          -1250.1005 ZZZZ=           -266.3010 XXXY=             -0.0012
 XXXZ=              0.0002 YYYX=              0.0051 YYYZ=             -0.0009 ZZZX=              0.0001
 ZZZY=             -0.0009 XXYY=           -575.7795 XXZZ=           -497.0144 YYZZ=           -278.9792
 XXYZ=             -0.0013 YYXZ=              0.0000 ZZXY=             -0.0006
 N-N= 9.270093604486D+02 E-N=-3.196500271463D+03  KE= 5.744294180135D+02
 No NMR shielding tensors so no spin-rotation constants.
 Leave Link  601 at Thu Aug 20 10:02:47 2026, MaxMem=   104857600 cpu:               0.1 elap:               0.1
 (Enter /sw/cluster/pub/apps//g16/l9999.exe)
 1\1\GINC-N05\FOpt\RB3LYP\6-31G(d)\C15H14\UNKNOWN\20-Aug-2026\0\\#p opt
  freq b3lyp/6-31g(d) EmpiricalDispersion=GD3BJ\\OPT F1 - dispersion co
 rrection\\0,1\C,0.0061828829,-0.0115612881,0.039683374\C,-0.0447552729
 ,-1.5366259891,0.051900871\C,1.254484624,-2.0813557644,0.032740333\C,2
 .2217258501,-0.9773191202,0.0073339164\C,1.5110810908,0.2392693817,0.0
 110414039\C,2.1911028443,1.4496929055,-0.0100013076\C,3.5907025199,1.4
 436096067,-0.0349187269\C,4.2957560958,0.235768307,-0.0385935537\C,3.6
 164768115,-0.9843210432,-0.0174906633\H,4.1679207958,-1.9207651097,-0.
 020422014\H,5.3819623363,0.2468937684,-0.058044815\H,4.1336244569,2.38
 44503613,-0.051530386\H,1.6493434169,2.392341626,-0.0072857197\C,1.444
 779217,-3.4632879934,0.039541702\C,0.3247435043,-4.2971452679,0.065684
 0621\C,-0.9650953297,-3.7568259581,0.0847192371\C,-1.1550978956,-2.369
 9632425,0.0778713386\H,-2.1606672145,-1.9567883393,0.0927722052\H,-1.8
 262900689,-4.4187607646,0.1049780898\H,0.4564361753,-5.3755558967,0.07
 12899389\H,2.4454724353,-3.8868667162,0.024811358\C,-0.6353487141,0.57
 96657966,1.3108518207\H,-0.156827017,0.180868027,2.2104525421\H,-0.534
 5045547,1.6707843143,1.3218954561\H,-1.7031980749,0.3371726332,1.35234
 21068\C,-0.6802290147,0.5608213014,-1.2166077112\H,-1.7488117088,0.318
 0111924,-1.2165505037\H,-0.5801304063,1.6516267352,-1.2475031474\H,-0.
 2338307848,0.1485165367,-2.1265732073\\Version=ES64L-G16RevA.03\State=
 1-A\HF=-580.116024\RMSD=5.841e-09\RMSF=2.614e-05\Dipole=-0.1243766,0.1
 089988,0.0013941\Quadrupole=3.0239661,2.9359102,-5.9598764,-0.3415395,
 -0.1577809,-0.0595541\PG=C01 [X(C15H14)]\\@


 WE MIGHT AS WELL ATTEMPT TO INTRODUCE A NEW PLANET 
 INTO THE SOLAR SYSTEM, OR TO ANNIHILATE ONE ALREADYIN EXISTENCE, 
 AS TO CREATE OR DESTROY A PARTICLE OF HYDROGEN.
 ALL THE CHANGES WE CAN PRODUCE CONSIST IN SEPARATING PARTICLES
 THAT ARE IN A STATE OF ... COMBINATION, AND JOINING 
 THOSE THAT WERE PREVIOUSLY AT A DISTANCE.

                                    -- JOHN DALTON, 1810
 Leave Link 9999 at Thu Aug 20 10:02:48 2026, MaxMem=   104857600 cpu:               0.0 elap:               0.0
 Job cpu time:       0 days  0 hours  3 minutes  2.7 seconds.
 Elapsed time:       0 days  0 hours  3 minutes  3.0 seconds.
 File lengths (MBytes):  RWF=     46 Int=      0 D2E=      0 Chk=      7 Scr=      1
 Normal termination of Gaussian 16 at Thu Aug 20 10:02:48 2026.
 (Enter /sw/cluster/pub/apps//g16/l1.exe)
 Link1:  Proceeding to internal job step number  2.
 --------------------------------------------------------------------
 #P Geom=AllCheck Guess=TCheck SCRF=Check GenChk RB3LYP/6-31G(d) Freq
 --------------------------------------------------------------------
 1/10=4,29=7,30=1,38=1,40=1/1,3;
 2/12=2,40=1/2;
 3/5=1,6=6,7=1,11=2,14=-4,25=1,30=1,70=2,71=2,74=-5,116=1,124=41,140=1/1,2,3;
 4/5=101/1;
 5/5=2,38=6,98=1/2;
 8/6=4,10=90,11=11/1;
 11/6=1,8=1,9=11,15=111,16=1/1,2,10;
 10/6=1/2;
 6/7=2,8=2,9=2,10=2,28=1/1;
 7/8=1,10=1,25=1/1,2,3,16;
 1/10=4,30=1/3;
 99//99;
 Leave Link    1 at Thu Aug 20 10:02:48 2026, MaxMem=   104857600 cpu:               0.0 elap:               0.0
 (Enter /sw/cluster/pub/apps//g16/l101.exe)
 Structure from the checkpoint file:  "f1.chk"
 ------------------------------
 OPT F1 - dispersion correction
 ------------------------------
 Charge =  0 Multiplicity = 1
 Redundant internal coordinates found in file.  (old form).
 C,0,0.0061828829,-0.0115612881,0.039683374
 C,0,-0.0447552729,-1.5366259891,0.051900871
 C,0,1.254484624,-2.0813557644,0.032740333
 C,0,2.2217258501,-0.9773191202,0.0073339164
 C,0,1.5110810908,0.2392693817,0.0110414039
 C,0,2.1911028443,1.4496929055,-0.0100013076
 C,0,3.5907025199,1.4436096067,-0.0349187269
 C,0,4.2957560958,0.235768307,-0.0385935537
 C,0,3.6164768115,-0.9843210432,-0.0174906633
 H,0,4.1679207958,-1.9207651097,-0.020422014
 H,0,5.3819623363,0.2468937684,-0.058044815
 H,0,4.1336244569,2.3844503613,-0.051530386
 H,0,1.6493434169,2.392341626,-0.0072857197
 C,0,1.444779217,-3.4632879934,0.039541702
 C,0,0.3247435043,-4.2971452679,0.0656840621
 C,0,-0.9650953297,-3.7568259581,0.0847192371
 C,0,-1.1550978956,-2.3699632425,0.0778713386
 H,0,-2.1606672145,-1.9567883393,0.0927722052
 H,0,-1.8262900689,-4.4187607646,0.1049780898
 H,0,0.4564361753,-5.3755558967,0.0712899389
 H,0,2.4454724353,-3.8868667162,0.024811358
 C,0,-0.6353487141,0.5796657966,1.3108518207
 H,0,-0.156827017,0.180868027,2.2104525421
 H,0,-0.5345045547,1.6707843143,1.3218954561
 H,0,-1.7031980749,0.3371726332,1.3523421068
 C,0,-0.6802290147,0.5608213014,-1.2166077112
 H,0,-1.7488117088,0.3180111924,-1.2165505037
 H,0,-0.5801304063,1.6516267352,-1.2475031474
 H,0,-0.2338307848,0.1485165367,-2.1265732073
 Recover connectivity data from disk.
 ITRead=  0  0  0  0  0  0  0  0  0  0  0  0  0  0  0  0  0  0  0  0
 ITRead=  0  0  0  0  0  0  0  0  0
 MicOpt= -1 -1 -1 -1 -1 -1 -1 -1 -1 -1 -1 -1 -1 -1 -1 -1 -1 -1 -1 -1
 MicOpt= -1 -1 -1 -1 -1 -1 -1 -1 -1
 NAtoms=     29 NQM=       29 NQMF=       0 NMMI=      0 NMMIF=      0
                NMic=       0 NMicF=      0.
                    Isotopes and Nuclear Properties:
 (Nuclear quadrupole moments (NQMom) in fm**2, nuclear magnetic moments (NMagM)
  in nuclear magnetons)

  Atom         1           2           3           4           5           6           7           8           9          10
 IAtWgt=          12          12          12          12          12          12          12          12          12           1
 AtmWgt=  12.0000000  12.0000000  12.0000000  12.0000000  12.0000000  12.0000000  12.0000000  12.0000000  12.0000000   1.0078250
 NucSpn=           0           0           0           0           0           0           0           0           0           1
 AtZEff=   3.6000000   3.6000000   3.6000000   3.6000000   3.6000000   3.6000000   3.6000000   3.6000000   3.6000000   1.0000000
 NQMom=    0.0000000   0.0000000   0.0000000   0.0000000   0.0000000   0.0000000   0.0000000   0.0000000   0.0000000   0.0000000
 NMagM=    0.0000000   0.0000000   0.0000000   0.0000000   0.0000000   0.0000000   0.0000000   0.0000000   0.0000000   2.7928460
 AtZNuc=   6.0000000   6.0000000   6.0000000   6.0000000   6.0000000   6.0000000   6.0000000   6.0000000   6.0000000   1.0000000

  Atom        11          12          13          14          15          16          17          18          19          20
 IAtWgt=           1           1           1          12          12          12          12           1           1           1
 AtmWgt=   1.0078250   1.0078250   1.0078250  12.0000000  12.0000000  12.0000000  12.0000000   1.0078250   1.0078250   1.0078250
 NucSpn=           1           1           1           0           0           0           0           1           1           1
 AtZEff=   1.0000000   1.0000000   1.0000000   3.6000000   3.6000000   3.6000000   3.6000000   1.0000000   1.0000000   1.0000000
 NQMom=    0.0000000   0.0000000   0.0000000   0.0000000   0.0000000   0.0000000   0.0000000   0.0000000   0.0000000   0.0000000
 NMagM=    2.7928460   2.7928460   2.7928460   0.0000000   0.0000000   0.0000000   0.0000000   2.7928460   2.7928460   2.7928460
 AtZNuc=   1.0000000   1.0000000   1.0000000   6.0000000   6.0000000   6.0000000   6.0000000   1.0000000   1.0000000   1.0000000

  Atom        21          22          23          24          25          26          27          28          29
 IAtWgt=           1          12           1           1           1          12           1           1           1
 AtmWgt=   1.0078250  12.0000000   1.0078250   1.0078250   1.0078250  12.0000000   1.0078250   1.0078250   1.0078250
 NucSpn=           1           0           1           1           1           0           1           1           1
 AtZEff=   1.0000000   3.6000000   1.0000000   1.0000000   1.0000000   3.6000000   1.0000000   1.0000000   1.0000000
 NQMom=    0.0000000   0.0000000   0.0000000   0.0000000   0.0000000   0.0000000   0.0000000   0.0000000   0.0000000
 NMagM=    2.7928460   0.0000000   2.7928460   2.7928460   2.7928460   0.0000000   2.7928460   2.7928460   2.7928460
 AtZNuc=   1.0000000   6.0000000   1.0000000   1.0000000   1.0000000   6.0000000   1.0000000   1.0000000   1.0000000
 Leave Link  101 at Thu Aug 20 10:02:48 2026, MaxMem=   104857600 cpu:               0.0 elap:               0.0
 (Enter /sw/cluster/pub/apps//g16/l103.exe)

 GradGradGradGradGradGradGradGradGradGradGradGradGradGradGradGradGradGrad
 Berny optimization.
 Initialization pass.
                           ----------------------------
                           !    Initial Parameters    !
                           ! (Angstroms and Degrees)  !
 --------------------------                            --------------------------
 ! Name  Definition              Value          Derivative Info.                !
 --------------------------------------------------------------------------------
 ! R1    R(1,2)                  1.526          calculate D2E/DX2 analytically  !
 ! R2    R(1,5)                  1.5259         calculate D2E/DX2 analytically  !
 ! R3    R(1,22)                 1.5417         calculate D2E/DX2 analytically  !
 ! R4    R(1,26)                 1.5418         calculate D2E/DX2 analytically  !
 ! R5    R(2,3)                  1.4089         calculate D2E/DX2 analytically  !
 ! R6    R(2,17)                 1.3885         calculate D2E/DX2 analytically  !
 ! R7    R(3,4)                  1.468          calculate D2E/DX2 analytically  !
 ! R8    R(3,14)                 1.395          calculate D2E/DX2 analytically  !
 ! R9    R(4,5)                  1.4089         calculate D2E/DX2 analytically  !
 ! R10   R(4,9)                  1.395          calculate D2E/DX2 analytically  !
 ! R11   R(5,6)                  1.3885         calculate D2E/DX2 analytically  !
 ! R12   R(6,7)                  1.3998         calculate D2E/DX2 analytically  !
 ! R13   R(6,13)                 1.0872         calculate D2E/DX2 analytically  !
 ! R14   R(7,8)                  1.3986         calculate D2E/DX2 analytically  !
 ! R15   R(7,12)                 1.0864         calculate D2E/DX2 analytically  !
 ! R16   R(8,9)                  1.3966         calculate D2E/DX2 analytically  !
 ! R17   R(8,11)                 1.0864         calculate D2E/DX2 analytically  !
 ! R18   R(9,10)                 1.0868         calculate D2E/DX2 analytically  !
 ! R19   R(14,15)                1.3966         calculate D2E/DX2 analytically  !
 ! R20   R(14,21)                1.0867         calculate D2E/DX2 analytically  !
 ! R21   R(15,16)                1.3986         calculate D2E/DX2 analytically  !
 ! R22   R(15,20)                1.0864         calculate D2E/DX2 analytically  !
 ! R23   R(16,17)                1.3998         calculate D2E/DX2 analytically  !
 ! R24   R(16,19)                1.0864         calculate D2E/DX2 analytically  !
 ! R25   R(17,18)                1.0872         calculate D2E/DX2 analytically  !
 ! R26   R(22,23)                1.0942         calculate D2E/DX2 analytically  !
 ! R27   R(22,24)                1.0958         calculate D2E/DX2 analytically  !
 ! R28   R(22,25)                1.0958         calculate D2E/DX2 analytically  !
 ! R29   R(26,27)                1.0958         calculate D2E/DX2 analytically  !
 ! R30   R(26,28)                1.0958         calculate D2E/DX2 analytically  !
 ! R31   R(26,29)                1.0942         calculate D2E/DX2 analytically  !
 ! A1    A(2,1,5)              101.3822         calculate D2E/DX2 analytically  !
 ! A2    A(2,1,22)             111.2699         calculate D2E/DX2 analytically  !
 ! A3    A(2,1,26)             111.2657         calculate D2E/DX2 analytically  !
 ! A4    A(5,1,22)             111.273          calculate D2E/DX2 analytically  !
 ! A5    A(5,1,26)             111.2695         calculate D2E/DX2 analytically  !
 ! A6    A(22,1,26)            110.1336         calculate D2E/DX2 analytically  !
 ! A7    A(1,2,3)              110.8244         calculate D2E/DX2 analytically  !
 ! A8    A(1,2,17)             128.8035         calculate D2E/DX2 analytically  !
 ! A9    A(3,2,17)             120.3721         calculate D2E/DX2 analytically  !
 ! A10   A(2,3,4)              108.4843         calculate D2E/DX2 analytically  !
 ! A11   A(2,3,14)             120.5792         calculate D2E/DX2 analytically  !
 ! A12   A(4,3,14)             130.9365         calculate D2E/DX2 analytically  !
 ! A13   A(3,4,5)              108.4824         calculate D2E/DX2 analytically  !
 ! A14   A(3,4,9)              130.9419         calculate D2E/DX2 analytically  !
 ! A15   A(5,4,9)              120.5757         calculate D2E/DX2 analytically  !
 ! A16   A(1,5,4)              110.8267         calculate D2E/DX2 analytically  !
 ! A17   A(1,5,6)              128.7978         calculate D2E/DX2 analytically  !
 ! A18   A(4,5,6)              120.3754         calculate D2E/DX2 analytically  !
 ! A19   A(5,6,7)              119.0874         calculate D2E/DX2 analytically  !
 ! A20   A(5,6,13)             120.7791         calculate D2E/DX2 analytically  !
 ! A21   A(7,6,13)             120.1335         calculate D2E/DX2 analytically  !
 ! A22   A(6,7,8)              120.5201         calculate D2E/DX2 analytically  !
 ! A23   A(6,7,12)             119.7475         calculate D2E/DX2 analytically  !
 ! A24   A(8,7,12)             119.7325         calculate D2E/DX2 analytically  !
 ! A25   A(7,8,9)              120.6133         calculate D2E/DX2 analytically  !
 ! A26   A(7,8,11)             119.6843         calculate D2E/DX2 analytically  !
 ! A27   A(9,8,11)             119.7024         calculate D2E/DX2 analytically  !
 ! A28   A(4,9,8)              118.828          calculate D2E/DX2 analytically  !
 ! A29   A(4,9,10)             120.7779         calculate D2E/DX2 analytically  !
 ! A30   A(8,9,10)             120.3941         calculate D2E/DX2 analytically  !
 ! A31   A(3,14,15)            118.827          calculate D2E/DX2 analytically  !
 ! A32   A(3,14,21)            120.7747         calculate D2E/DX2 analytically  !
 ! A33   A(15,14,21)           120.3983         calculate D2E/DX2 analytically  !
 ! A34   A(14,15,16)           120.6115         calculate D2E/DX2 analytically  !
 ! A35   A(14,15,20)           119.7052         calculate D2E/DX2 analytically  !
 ! A36   A(16,15,20)           119.6833         calculate D2E/DX2 analytically  !
 ! A37   A(15,16,17)           120.5221         calculate D2E/DX2 analytically  !
 ! A38   A(15,16,19)           119.7323         calculate D2E/DX2 analytically  !
 ! A39   A(17,16,19)           119.7456         calculate D2E/DX2 analytically  !
 ! A40   A(2,17,16)            119.088          calculate D2E/DX2 analytically  !
 ! A41   A(2,17,18)            120.7818         calculate D2E/DX2 analytically  !
 ! A42   A(16,17,18)           120.1302         calculate D2E/DX2 analytically  !
 ! A43   A(1,22,23)            110.8622         calculate D2E/DX2 analytically  !
 ! A44   A(1,22,24)            110.6004         calculate D2E/DX2 analytically  !
 ! A45   A(1,22,25)            110.6001         calculate D2E/DX2 analytically  !
 ! A46   A(23,22,24)           108.3225         calculate D2E/DX2 analytically  !
 ! A47   A(23,22,25)           108.3232         calculate D2E/DX2 analytically  !
 ! A48   A(24,22,25)           108.0371         calculate D2E/DX2 analytically  !
 ! A49   A(1,26,27)            110.5999         calculate D2E/DX2 analytically  !
 ! A50   A(1,26,28)            110.6009         calculate D2E/DX2 analytically  !
 ! A51   A(1,26,29)            110.8617         calculate D2E/DX2 analytically  !
 ! A52   A(27,26,28)           108.0375         calculate D2E/DX2 analytically  !
 ! A53   A(27,26,29)           108.323          calculate D2E/DX2 analytically  !
 ! A54   A(28,26,29)           108.3226         calculate D2E/DX2 analytically  !
 ! D1    D(5,1,2,3)             -0.0034         calculate D2E/DX2 analytically  !
 ! D2    D(5,1,2,17)           179.9984         calculate D2E/DX2 analytically  !
 ! D3    D(22,1,2,3)          -118.3961         calculate D2E/DX2 analytically  !
 ! D4    D(22,1,2,17)           61.6058         calculate D2E/DX2 analytically  !
 ! D5    D(26,1,2,3)           118.3832         calculate D2E/DX2 analytically  !
 ! D6    D(26,1,2,17)          -61.6149         calculate D2E/DX2 analytically  !
 ! D7    D(2,1,5,4)              0.0036         calculate D2E/DX2 analytically  !
 ! D8    D(2,1,5,6)           -179.9981         calculate D2E/DX2 analytically  !
 ! D9    D(22,1,5,4)           118.394          calculate D2E/DX2 analytically  !
 ! D10   D(22,1,5,6)           -61.6077         calculate D2E/DX2 analytically  !
 ! D11   D(26,1,5,4)          -118.3803         calculate D2E/DX2 analytically  !
 ! D12   D(26,1,5,6)            61.6179         calculate D2E/DX2 analytically  !
 ! D13   D(2,1,22,23)           56.1206         calculate D2E/DX2 analytically  !
 ! D14   D(2,1,22,24)          176.2964         calculate D2E/DX2 analytically  !
 ! D15   D(2,1,22,25)          -64.0558         calculate D2E/DX2 analytically  !
 ! D16   D(5,1,22,23)          -56.1404         calculate D2E/DX2 analytically  !
 ! D17   D(5,1,22,24)           64.0353         calculate D2E/DX2 analytically  !
 ! D18   D(5,1,22,25)         -176.3169         calculate D2E/DX2 analytically  !
 ! D19   D(26,1,22,23)         179.9866         calculate D2E/DX2 analytically  !
 ! D20   D(26,1,22,24)         -59.8376         calculate D2E/DX2 analytically  !
 ! D21   D(26,1,22,25)          59.8102         calculate D2E/DX2 analytically  !
 ! D22   D(2,1,26,27)           64.0578         calculate D2E/DX2 analytically  !
 ! D23   D(2,1,26,28)         -176.2938         calculate D2E/DX2 analytically  !
 ! D24   D(2,1,26,29)          -56.1179         calculate D2E/DX2 analytically  !
 ! D25   D(5,1,26,27)          176.3144         calculate D2E/DX2 analytically  !
 ! D26   D(5,1,26,28)          -64.0372         calculate D2E/DX2 analytically  !
 ! D27   D(5,1,26,29)           56.1386         calculate D2E/DX2 analytically  !
 ! D28   D(22,1,26,27)         -59.8106         calculate D2E/DX2 analytically  !
 ! D29   D(22,1,26,28)          59.8378         calculate D2E/DX2 analytically  !
 ! D30   D(22,1,26,29)        -179.9863         calculate D2E/DX2 analytically  !
 ! D31   D(1,2,3,4)              0.0021         calculate D2E/DX2 analytically  !
 ! D32   D(1,2,3,14)          -179.9977         calculate D2E/DX2 analytically  !
 ! D33   D(17,2,3,4)          -179.9996         calculate D2E/DX2 analytically  !
 ! D34   D(17,2,3,14)            0.0006         calculate D2E/DX2 analytically  !
 ! D35   D(1,2,17,16)          179.9976         calculate D2E/DX2 analytically  !
 ! D36   D(1,2,17,18)           -0.0026         calculate D2E/DX2 analytically  !
 ! D37   D(3,2,17,16)           -0.0003         calculate D2E/DX2 analytically  !
 ! D38   D(3,2,17,18)          179.9994         calculate D2E/DX2 analytically  !
 ! D39   D(2,3,4,5)              0.0003         calculate D2E/DX2 analytically  !
 ! D40   D(2,3,4,9)            179.9995         calculate D2E/DX2 analytically  !
 ! D41   D(14,3,4,5)          -179.9999         calculate D2E/DX2 analytically  !
 ! D42   D(14,3,4,9)            -0.0007         calculate D2E/DX2 analytically  !
 ! D43   D(2,3,14,15)           -0.0003         calculate D2E/DX2 analytically  !
 ! D44   D(2,3,14,21)          179.9999         calculate D2E/DX2 analytically  !
 ! D45   D(4,3,14,15)          179.9999         calculate D2E/DX2 analytically  !
 ! D46   D(4,3,14,21)            0.0001         calculate D2E/DX2 analytically  !
 ! D47   D(3,4,5,1)             -0.0026         calculate D2E/DX2 analytically  !
 ! D48   D(3,4,5,6)            179.9989         calculate D2E/DX2 analytically  !
 ! D49   D(9,4,5,1)            179.9981         calculate D2E/DX2 analytically  !
 ! D50   D(9,4,5,6)             -0.0004         calculate D2E/DX2 analytically  !
 ! D51   D(3,4,9,8)           -179.9988         calculate D2E/DX2 analytically  !
 ! D52   D(3,4,9,10)             0.0008         calculate D2E/DX2 analytically  !
 ! D53   D(5,4,9,8)              0.0003         calculate D2E/DX2 analytically  !
 ! D54   D(5,4,9,10)           179.9999         calculate D2E/DX2 analytically  !
 ! D55   D(1,5,6,7)           -179.9978         calculate D2E/DX2 analytically  !
 ! D56   D(1,5,6,13)             0.0019         calculate D2E/DX2 analytically  !
 ! D57   D(4,5,6,7)              0.0003         calculate D2E/DX2 analytically  !
 ! D58   D(4,5,6,13)          -179.9999         calculate D2E/DX2 analytically  !
 ! D59   D(5,6,7,8)             -0.0002         calculate D2E/DX2 analytically  !
 ! D60   D(5,6,7,12)          -180.0            calculate D2E/DX2 analytically  !
 ! D61   D(13,6,7,8)          -179.9999         calculate D2E/DX2 analytically  !
 ! D62   D(13,6,7,12)            0.0003         calculate D2E/DX2 analytically  !
 ! D63   D(6,7,8,9)              0.0001         calculate D2E/DX2 analytically  !
 ! D64   D(6,7,8,11)          -179.9998         calculate D2E/DX2 analytically  !
 ! D65   D(12,7,8,9)           179.9999         calculate D2E/DX2 analytically  !
 ! D66   D(12,7,8,11)            0.0            calculate D2E/DX2 analytically  !
 ! D67   D(7,8,9,4)             -0.0001         calculate D2E/DX2 analytically  !
 ! D68   D(7,8,9,10)          -179.9998         calculate D2E/DX2 analytically  !
 ! D69   D(11,8,9,4)           179.9998         calculate D2E/DX2 analytically  !
 ! D70   D(11,8,9,10)            0.0001         calculate D2E/DX2 analytically  !
 ! D71   D(3,14,15,16)          -0.0001         calculate D2E/DX2 analytically  !
 ! D72   D(3,14,15,20)         179.9999         calculate D2E/DX2 analytically  !
 ! D73   D(21,14,15,16)        179.9997         calculate D2E/DX2 analytically  !
 ! D74   D(21,14,15,20)         -0.0003         calculate D2E/DX2 analytically  !
 ! D75   D(14,15,16,17)          0.0004         calculate D2E/DX2 analytically  !
 ! D76   D(14,15,16,19)       -179.9997         calculate D2E/DX2 analytically  !
 ! D77   D(20,15,16,17)       -179.9997         calculate D2E/DX2 analytically  !
 ! D78   D(20,15,16,19)          0.0003         calculate D2E/DX2 analytically  !
 ! D79   D(15,16,17,2)          -0.0001         calculate D2E/DX2 analytically  !
 ! D80   D(15,16,17,18)       -179.9999         calculate D2E/DX2 analytically  !
 ! D81   D(19,16,17,2)         180.0            calculate D2E/DX2 analytically  !
 ! D82   D(19,16,17,18)          0.0002         calculate D2E/DX2 analytically  !
 --------------------------------------------------------------------------------
 Trust Radius=3.00D-01 FncErr=1.00D-07 GrdErr=1.00D-07 EigMax=2.50D+02 EigMin=1.00D-04
 Number of steps in this run=      2 maximum allowed number of steps=      2.
 GradGradGradGradGradGradGradGradGradGradGradGradGradGradGradGradGradGrad

 Leave Link  103 at Thu Aug 20 10:02:48 2026, MaxMem=   104857600 cpu:               0.0 elap:               0.0
 (Enter /sw/cluster/pub/apps//g16/l202.exe)
                          Input orientation:                          
 ---------------------------------------------------------------------
 Center     Atomic      Atomic             Coordinates (Angstroms)
 Number     Number       Type             X           Y           Z
 ---------------------------------------------------------------------
      1          6           0        0.006183   -0.011561    0.039683
      2          6           0       -0.044755   -1.536626    0.051901
      3          6           0        1.254485   -2.081356    0.032740
      4          6           0        2.221726   -0.977319    0.007334
      5          6           0        1.511081    0.239269    0.011041
      6          6           0        2.191103    1.449693   -0.010001
      7          6           0        3.590703    1.443610   -0.034919
      8          6           0        4.295756    0.235768   -0.038594
      9          6           0        3.616477   -0.984321   -0.017491
     10          1           0        4.167921   -1.920765   -0.020422
     11          1           0        5.381962    0.246894   -0.058045
     12          1           0        4.133624    2.384450   -0.051530
     13          1           0        1.649343    2.392342   -0.007286
     14          6           0        1.444779   -3.463288    0.039542
     15          6           0        0.324744   -4.297145    0.065684
     16          6           0       -0.965095   -3.756826    0.084719
     17          6           0       -1.155098   -2.369963    0.077871
     18          1           0       -2.160667   -1.956788    0.092772
     19          1           0       -1.826290   -4.418761    0.104978
     20          1           0        0.456436   -5.375556    0.071290
     21          1           0        2.445472   -3.886867    0.024811
     22          6           0       -0.635349    0.579666    1.310852
     23          1           0       -0.156827    0.180868    2.210453
     24          1           0       -0.534505    1.670784    1.321895
     25          1           0       -1.703198    0.337173    1.352342
     26          6           0       -0.680229    0.560821   -1.216608
     27          1           0       -1.748812    0.318011   -1.216551
     28          1           0       -0.580130    1.651627   -1.247503
     29          1           0       -0.233831    0.148517   -2.126573
 ---------------------------------------------------------------------
                    Distance matrix (angstroms):
                    1          2          3          4          5
     1  C    0.000000
     2  C    1.525964   0.000000
     3  C    2.417096   1.408944   0.000000
     4  C    2.417099   2.334898   1.468025   0.000000
     5  C    1.525928   2.361377   2.334869   1.408942   0.000000
     6  C    2.628994   3.731085   3.653407   2.427267   1.388523
     7  C    3.869350   4.701691   4.229406   2.781506   2.403617
     8  C    4.297411   4.689308   3.824067   2.403184   2.785120
     9  C    3.739486   3.703306   2.604806   1.394989   2.435298
    10  H    4.579163   4.230772   2.918343   2.162992   3.424257
    11  H    5.382876   5.713344   4.739732   3.389700   3.871505
    12  H    4.773360   5.731003   5.314129   3.867857   3.388724
    13  H    2.912204   4.279049   4.491268   3.417960   2.157585
    14  C    3.739516   2.435342   1.394989   2.604750   3.703261
    15  C    4.297486   2.785173   2.403170   3.824028   4.689290
    16  C    3.869421   2.403620   2.781445   4.229359   4.701665
    17  C    2.629086   1.388519   2.427225   3.653406   3.731095
    18  H    2.912382   2.157612   3.417950   4.491328   4.279145
    19  H    4.773429   3.388714   3.867797   5.314084   5.730979
    20  H    5.382951   3.871557   3.389708   4.739707   5.713333
    21  H    4.579121   3.424266   2.162957   2.918190   4.230635
    22  C    1.541746   2.532281   3.505150   3.505173   2.532299
    23  H    2.185370   2.760741   3.442657   3.442767   2.760931
    24  H    2.183277   3.484282   4.352121   4.041946   2.819928
    25  H    2.183271   2.820053   4.042093   4.352237   3.484288
    26  C    1.541769   2.532237   3.505009   3.505032   2.532263
    27  H    2.183288   2.820010   4.041965   4.352119   3.484262
    28  H    2.183302   3.484255   4.352010   4.041828   2.819903
    29  H    2.185383   2.760653   3.442390   3.442503   2.760860
                    6          7          8          9         10
     6  C    0.000000
     7  C    1.399835   0.000000
     8  C    2.429814   1.398569   0.000000
     9  C    2.820669   2.428130   1.396597   0.000000
    10  H    3.907417   3.413562   2.160395   1.086750   0.000000
    11  H    3.410369   2.154362   1.086437   2.152783   2.484765
    12  H    2.156128   1.086380   2.154829   3.408404   4.305464
    13  H    1.087243   2.160956   3.413984   3.907885   4.994627
    14  C    4.969591   5.356134   4.670888   3.296180   3.130251
    15  C    6.042779   6.605519   6.027198   4.670892   4.519359
    16  C    6.089203   6.914777   6.605496   5.356121   5.452525
    17  C    5.078834   6.089227   6.042782   4.969610   5.342843
    18  H    5.527439   6.682609   6.819821   5.859458   6.329703
    19  H    7.112764   7.983155   7.691860   6.436931   6.495096
    20  H    7.042705   7.505726   6.799957   5.410793   5.071401
    21  H    5.342732   5.452440   4.519258   3.130146   2.614274
    22  C    3.238893   4.518518   5.123969   4.721077   5.576365
    23  H    3.471758   4.547547   4.988659   4.534227   5.300670
    24  H    3.041672   4.348550   5.219350   5.106289   6.067442
    25  H    4.273086   5.583375   6.158931   5.649932   6.438385
    26  C    3.238910   4.518469   5.123847   4.720914   5.576171
    27  H    4.273101   5.583336   6.158827   5.649791   6.438211
    28  H    3.041697   4.348503   5.219232   5.106140   6.067265
    29  H    3.471778   4.547454   4.988430   4.533919   5.300303
                   11         12         13         14         15
    11  H    0.000000
    12  H    2.475386   0.000000
    13  H    4.305574   2.484688   0.000000
    14  C    5.410765   6.436942   5.859389   0.000000
    15  C    6.799931   7.691881   6.819760   1.396596   0.000000
    16  C    7.505684   7.983156   6.682516   2.428106   1.398568
    17  C    7.042696   7.112790   5.527358   2.820672   2.429837
    18  H    7.859403   7.647567   5.782830   3.907892   3.413982
    19  H    8.588004   9.045925   7.647467   3.408387   2.154827
    20  H    7.475926   8.588044   7.859353   2.152812   1.086436
    21  H    5.071273   6.495006   6.329558   1.086749   2.160438
    22  C    6.180020   5.277920   3.200484   4.721084   5.124013
    23  H    5.985702   5.327318   3.615416   4.534079   4.988441
    24  H    6.239894   4.918033   2.656419   5.649840   6.158941
    25  H    7.224738   6.342768   4.160750   5.106536   5.219668
    26  C    6.179885   5.277899   3.200599   4.720914   5.123874
    27  H    7.224620   6.342752   4.160844   5.106370   5.219524
    28  H    6.239762   4.918014   2.656568   5.649699   6.158827
    29  H    5.985451   5.327276   3.615588   4.533753   4.988177
                   16         17         18         19         20
    16  C    0.000000
    17  C    1.399834   0.000000
    18  H    2.160924   1.087247   0.000000
    19  H    1.086381   2.156109   2.484606   0.000000
    20  H    2.154349   3.410377   4.305539   2.475365   0.000000
    21  H    3.413572   3.907418   4.994631   4.305496   2.484878
    22  C    4.518550   3.238934   3.200612   5.277949   6.180063
    23  H    4.547249   3.471482   3.615179   5.326980   5.985479
    24  H    5.583455   4.273216   4.161061   6.342882   7.224741
    25  H    4.348849   3.041919   2.656699   4.918330   6.240223
    26  C    4.518482   3.238931   3.200708   5.277905   6.179908
    27  H    4.348771   3.041912   2.656815   4.918277   6.240061
    28  H    5.583402   4.273218   4.161141   6.342848   7.224609
    29  H    4.547116   3.471462   3.615315   5.326891   5.985186
                   21         22         23         24         25
    21  H    0.000000
    22  C    5.576313   0.000000
    23  H    5.300515   1.094214   0.000000
    24  H    6.438181   1.095824   1.775394   0.000000
    25  H    6.067645   1.095822   1.775401   1.773497   0.000000
    26  C    5.576115   2.527928   3.487557   2.774392   2.774164
    27  H    6.067454   2.774171   3.781213   3.122218   2.569369
    28  H    6.438010   2.774406   3.781504   2.569875   3.122221
    29  H    5.300136   3.487549   4.337830   3.781486   3.781201
                   26         27         28         29
    26  C    0.000000
    27  H    1.095822   0.000000
    28  H    1.095824   1.773501   0.000000
    29  H    1.094214   1.775398   1.775395   0.000000
 Stoichiometry    C15H14
 Framework group  C1[X(C15H14)]
 Deg. of freedom    81
 Full point group                 C1      NOp   1
 RotChk:  IX=0 Diff= 1.86D-15
 Largest Abelian subgroup         C1      NOp   1
 Largest concise Abelian subgroup C1      NOp   1
                         Standard orientation:                         
 ---------------------------------------------------------------------
 Center     Atomic      Atomic             Coordinates (Angstroms)
 Number     Number       Type             X           Y           Z
 ---------------------------------------------------------------------
      1          6           0       -0.000044    1.412901   -0.000001
      2          6           0        1.180692    0.446243   -0.000039
      3          6           0        0.734036   -0.890028   -0.000009
      4          6           0       -0.733989   -0.890073   -0.000002
      5          6           0       -1.180684    0.446183   -0.000035
      6          6           0       -2.539411    0.732295   -0.000058
      7          6           0       -3.457392   -0.324515   -0.000041
      8          6           0       -3.013591   -1.650802   -0.000006
      9          6           0       -1.648083   -1.943842    0.000016
     10          1           0       -1.307175   -2.975737    0.000040
     11          1           0       -3.737941   -2.460532    0.000004
     12          1           0       -4.522967   -0.112922   -0.000060
     13          1           0       -2.891370    1.760994   -0.000085
     14          6           0        1.648097   -1.943825    0.000012
     15          6           0        3.013608   -1.650804   -0.000005
     16          6           0        3.457385   -0.324511   -0.000044
     17          6           0        2.539423    0.732315   -0.000060
     18          1           0        2.891460    1.760992   -0.000092
     19          1           0        4.522958   -0.112903   -0.000062
     20          1           0        3.737986   -2.460508    0.000012
     21          1           0        1.307099   -2.975689    0.000037
     22          6           0       -0.000027    2.295860   -1.263870
     23          1           0        0.000190    1.680836   -2.168883
     24          1           0       -0.886881    2.939198   -1.284771
     25          1           0        0.886616    2.939494   -1.284531
     26          6           0       -0.000013    2.295626    1.264059
     27          1           0        0.886634    2.939249    1.284838
     28          1           0       -0.886866    2.938961    1.285104
     29          1           0        0.000219    1.680418    2.168947
 ---------------------------------------------------------------------
 Rotational constants (GHZ):           1.0600268           0.5502022           0.3928827
 Leave Link  202 at Thu Aug 20 10:02:48 2026, MaxMem=   104857600 cpu:               0.0 elap:               0.0
 (Enter /sw/cluster/pub/apps//g16/l301.exe)
 Standard basis: 6-31G(d) (6D, 7F)
 Ernie: Thresh=  0.10000D-02 Tol=  0.10000D-05 Strict=F.
 There are   253 symmetry adapted cartesian basis functions of A   symmetry.
 There are   253 symmetry adapted basis functions of A   symmetry.
   253 basis functions,   476 primitive gaussians,   253 cartesian basis functions
    52 alpha electrons       52 beta electrons
       nuclear repulsion energy       927.0741974361 Hartrees.
 IExCor=  402 DFT=T Ex+Corr=B3LYP ExCW=0 ScaHFX=  0.200000
 ScaDFX=  0.800000  0.720000  1.000000  0.810000 ScalE2=  1.000000  1.000000
 IRadAn=      5 IRanWt=     -1 IRanGd=            0 ICorTp=0 IEmpDi=141
 NAtoms=   29 NActive=   29 NUniq=   29 SFac= 1.00D+00 NAtFMM=   60 NAOKFM=F Big=F
 Integral buffers will be    131072 words long.
 Raffenetti 2 integral format.
 Two-electron integral symmetry is turned on.
 R6Disp:  Grimme-D3(BJ) Dispersion energy=       -0.0648369875 Hartrees.
 Nuclear repulsion after empirical dispersion term =      927.0093604486 Hartrees.
 Leave Link  301 at Thu Aug 20 10:02:48 2026, MaxMem=   104857600 cpu:               0.0 elap:               0.0
 (Enter /sw/cluster/pub/apps//g16/l302.exe)
 NPDir=0 NMtPBC=     1 NCelOv=     1 NCel=       1 NClECP=     1 NCelD=      1
         NCelK=      1 NCelE2=     1 NClLst=     1 CellRange=     0.0.
 One-electron integrals computed using PRISM.
 One-electron integral symmetry used in STVInt
 NBasis=   253 RedAO= T EigKep=  3.60D-04  NBF=   253
 NBsUse=   253 1.00D-06 EigRej= -1.00D+00 NBFU=   253
 Precomputing XC quadrature grid using
 IXCGrd= 4 IRadAn=           5 IRanWt=          -1 IRanGd=           0 AccXCQ= 0.00D+00.
 Generated NRdTot=       0 NPtTot=           0 NUsed=           0 NTot=          32
 NSgBfM=   252   252   252   252   252 MxSgAt=    29 MxSgA2=    29.
 Leave Link  302 at Thu Aug 20 10:02:49 2026, MaxMem=   104857600 cpu:               0.3 elap:               0.3
 (Enter /sw/cluster/pub/apps//g16/l303.exe)
 DipDrv:  MaxL=1.
 Leave Link  303 at Thu Aug 20 10:02:49 2026, MaxMem=   104857600 cpu:               0.0 elap:               0.0
 (Enter /sw/cluster/pub/apps//g16/l401.exe)
 Initial guess from the checkpoint file:  "f1.chk"
 B after Tr=    -0.000000   -0.000000   -0.000000
         Rot=    1.000000    0.000000   -0.000000    0.000000 Ang=   0.00 deg.
 Guess basis will be translated and rotated to current coordinates.
 JPrj=2 DoOrth=T DoCkMO=T.
 Leave Link  401 at Thu Aug 20 10:02:49 2026, MaxMem=   104857600 cpu:               0.0 elap:               0.0
 (Enter /sw/cluster/pub/apps//g16/l502.exe)
 Integral symmetry usage will be decided dynamically.
 Closed shell SCF:
 Using DIIS extrapolation, IDIIS=  1040.
 NGot=   104857600 LenX=   104725134 LenY=   104660684
 Requested convergence on RMS density matrix=1.00D-08 within 128 cycles.
 Requested convergence on MAX density matrix=1.00D-06.
 Requested convergence on             energy=1.00D-06.
 No special actions if energy rises.
 Fock matrices will be formed incrementally for  20 cycles.

 Cycle   1  Pass 1  IDiag  1:
 FoFJK:  IHMeth= 1 ICntrl=       0 DoSepK=F KAlg= 0 I1Cent=           0 FoldK=F
 IRaf= 900000000 NMat=       1 IRICut=       1 DoRegI=T DoRafI=F ISym2E= 0 IDoP0=0 IntGTp=1.
 FoFCou: FMM=F IPFlag=           0 FMFlag=      100000 FMFlg1=           0
         NFxFlg=           0 DoJE=F BraDBF=F KetDBF=F FulRan=T
         wScrn=  0.000000 ICntrl=         0 IOpCl=  0 I1Cent=           0 NGrid=           0
         NMat0=    1 NMatS0=      1 NMatT0=    0 NMatD0=    1 NMtDS0=    0 NMtDT0=    0
 Symmetry not used in FoFCou.
 E= -580.116024006468    
 DIIS: error= 1.46D-08 at cycle   1 NSaved=   1.
 NSaved= 1 IEnMin= 1 EnMin= -580.116024006468     IErMin= 1 ErrMin= 1.46D-08
 ErrMax= 1.46D-08  0.00D+00 EMaxC= 1.00D-01 BMatC= 5.25D-14 BMatP= 5.25D-14
 IDIUse=1 WtCom= 1.00D+00 WtEn= 0.00D+00
 Coeff-Com:  0.100D+01
 Coeff:      0.100D+01
 Gap=     0.183 Goal=   None    Shift=    0.000
 RMSDP=2.78D-09 MaxDP=7.63D-08              OVMax= 2.67D-07

 SCF Done:  E(RB3LYP) =  -580.116024006     A.U. after    1 cycles
            NFock=  1  Conv=0.28D-08     -V/T= 2.0099
 KE= 5.744294177303D+02 PE=-3.196500271179D+03 EE= 1.114945468994D+03
 Leave Link  502 at Thu Aug 20 10:02:54 2026, MaxMem=   104857600 cpu:               5.7 elap:               5.7
 (Enter /sw/cluster/pub/apps//g16/l801.exe)
 DoSCS=F DFT=T ScalE2(SS,OS)=  1.000000  1.000000
 Range of M.O.s used for correlation:     1   253
 NBasis=   253 NAE=    52 NBE=    52 NFC=     0 NFV=     0
 NROrb=    253 NOA=    52 NOB=    52 NVA=   201 NVB=   201

 **** Warning!!: The largest alpha MO coefficient is  0.12237595D+02

 Leave Link  801 at Thu Aug 20 10:02:55 2026, MaxMem=   104857600 cpu:               0.0 elap:               0.0
 (Enter /sw/cluster/pub/apps//g16/l1101.exe)
 Using compressed storage, NAtomX=    29.
 Will process     30 centers per pass.
 R6Disp: Adding Grimme-D3(BJ) dispersion energy 1st derivatives to the gradient.
 Leave Link 1101 at Thu Aug 20 10:02:55 2026, MaxMem=   104857600 cpu:               0.1 elap:               0.1
 (Enter /sw/cluster/pub/apps//g16/l1102.exe)
 Symmetrizing basis deriv contribution to polar:
 IMax=3 JMax=2 DiffMx= 0.00D+00
 Leave Link 1102 at Thu Aug 20 10:02:55 2026, MaxMem=   104857600 cpu:               0.0 elap:               0.0
 (Enter /sw/cluster/pub/apps//g16/l1110.exe)
 Forming Gx(P) for the SCF density, NAtomX=    29.
 Integral derivatives from FoFJK, PRISM(SPDF).
 Do as many integral derivatives as possible in FoFJK.
 G2DrvN: MDV=     104855376.
 G2DrvN: will do    30 centers at a time, making    1 passes.
 Calling FoFCou, ICntrl=  3107 FMM=F I1Cent=   0 AccDes= 0.00D+00.
 FoFJK:  IHMeth= 1 ICntrl=    3107 DoSepK=F KAlg= 0 I1Cent=           0 FoldK=F
 IRaf=         0 NMat=       1 IRICut=       1 DoRegI=T DoRafI=F ISym2E= 0 IDoP0=0 IntGTp=1.
 FoFCou: FMM=F IPFlag=           0 FMFlag=      100000 FMFlg1=           0
         NFxFlg=           0 DoJE=F BraDBF=F KetDBF=F FulRan=T
         wScrn=  0.000000 ICntrl=      3107 IOpCl=  0 I1Cent=           0 NGrid=           0
         NMat0=    1 NMatS0=      1 NMatT0=    0 NMatD0=    1 NMtDS0=    0 NMtDT0=    0
 Symmetry not used in FoFCou.
 End of G2Drv F.D. properties file   721 does not exist.
 End of G2Drv F.D. properties file   722 does not exist.
 End of G2Drv F.D. properties file   788 does not exist.
 Leave Link 1110 at Thu Aug 20 10:05:55 2026, MaxMem=   104857600 cpu:             178.9 elap:             179.2
 (Enter /sw/cluster/pub/apps//g16/l1002.exe)
 Minotr:  Closed shell wavefunction.
          IDoAtm=11111111111111111111111111111
          Direct CPHF calculation.
          Differentiating once with respect to electric field.
                with respect to dipole field.
          Differentiating once with respect to nuclear coordinates.
          Requested convergence is 1.0D-08 RMS, and 1.0D-07 maximum.
          Secondary convergence is 1.0D-12 RMS, and 1.0D-12 maximum.
          NewPWx=T KeepS1=F KeepF1=F KeepIn=T MapXYZ=F SortEE=F KeepMc=T.
         8636 words used for storage of precomputed grid.
 Two-electron integrals replicated using symmetry.
          MDV=     104857600 using IRadAn=       1.
          Solving linear equations simultaneously, MaxMat=     384.
 FoF2E skips out because all densities are zero.
 CalDSu exits because no D1Ps are significant.
 FoFJK:  IHMeth= 1 ICntrl=       0 DoSepK=F KAlg= 0 I1Cent=           0 FoldK=F
 IRaf= 870000000 NMat=      87 IRICut=     217 DoRegI=T DoRafI=T ISym2E= 2 IDoP0=0 IntGTp=1.
 FoFCou: FMM=F IPFlag=           0 FMFlag=      100000 FMFlg1=           0
         NFxFlg=           0 DoJE=F BraDBF=F KetDBF=F FulRan=T
         wScrn=  0.000000 ICntrl=         0 IOpCl=  0 I1Cent=           0 NGrid=           0
         NMat0=   87 NMatS0=     87 NMatT0=    0 NMatD0=   87 NMtDS0=    0 NMtDT0=    0
 Integrals replicated using symmetry in FoFCou.
 Raff kept on since  82.43% of shell-pairs survive, threshold=   0.20 IRatSp=82.
          There are    90 degrees of freedom in the 1st order CPHF.  IDoFFX=6 NUNeed=     3.
     87 vectors produced by pass  0 Test12= 1.16D-14 1.11D-09 XBig12= 3.02D+02 1.29D+01.
 AX will form    87 AO Fock derivatives at one time.
     87 vectors produced by pass  1 Test12= 1.16D-14 1.11D-09 XBig12= 3.87D+01 1.00D+00.
     87 vectors produced by pass  2 Test12= 1.16D-14 1.11D-09 XBig12= 2.57D-01 7.50D-02.
     87 vectors produced by pass  3 Test12= 1.16D-14 1.11D-09 XBig12= 7.31D-04 5.77D-03.
     87 vectors produced by pass  4 Test12= 1.16D-14 1.11D-09 XBig12= 7.93D-07 1.01D-04.
     63 vectors produced by pass  5 Test12= 1.16D-14 1.11D-09 XBig12= 5.44D-10 2.42D-06.
     12 vectors produced by pass  6 Test12= 1.16D-14 1.11D-09 XBig12= 3.70D-13 7.50D-08.
      3 vectors produced by pass  7 Test12= 1.16D-14 1.11D-09 XBig12= 3.13D-16 4.28D-09.
      1 vectors produced by pass  8 Test12= 1.16D-14 1.11D-09 XBig12= 5.28D-16 3.70D-09.
 InvSVY:  IOpt=1 It=  1 EMax= 1.78D-14
 Solved reduced A of dimension   514 with    90 vectors.
 FullF1:  Do perturbations      1 to       3.
 Isotropic polarizability for W=    0.000000      151.23 Bohr**3.
 End of Minotr F.D. properties file   721 does not exist.
 End of Minotr F.D. properties file   722 does not exist.
 End of Minotr F.D. properties file   788 does not exist.
 Leave Link 1002 at Thu Aug 20 10:09:41 2026, MaxMem=   104857600 cpu:             225.9 elap:             226.3
 (Enter /sw/cluster/pub/apps//g16/l601.exe)
 Copying SCF densities to generalized density rwf, IOpCl= 0 IROHF=0.

 **********************************************************************

            Population analysis using the SCF density.

 **********************************************************************

 Orbital symmetries:
       Occupied  (A) (A) (A) (A) (A) (A) (A) (A) (A) (A) (A) (A)
                 (A) (A) (A) (A) (A) (A) (A) (A) (A) (A) (A) (A)
                 (A) (A) (A) (A) (A) (A) (A) (A) (A) (A) (A) (A)
                 (A) (A) (A) (A) (A) (A) (A) (A) (A) (A) (A) (A)
                 (A) (A) (A) (A)
       Virtual   (A) (A) (A) (A) (A) (A) (A) (A) (A) (A) (A) (A)
                 (A) (A) (A) (A) (A) (A) (A) (A) (A) (A) (A) (A)
                 (A) (A) (A) (A) (A) (A) (A) (A) (A) (A) (A) (A)
                 (A) (A) (A) (A) (A) (A) (A) (A) (A) (A) (A) (A)
                 (A) (A) (A) (A) (A) (A) (A) (A) (A) (A) (A) (A)
                 (A) (A) (A) (A) (A) (A) (A) (A) (A) (A) (A) (A)
                 (A) (A) (A) (A) (A) (A) (A) (A) (A) (A) (A) (A)
                 (A) (A) (A) (A) (A) (A) (A) (A) (A) (A) (A) (A)
                 (A) (A) (A) (A) (A) (A) (A) (A) (A) (A) (A) (A)
                 (A) (A) (A) (A) (A) (A) (A) (A) (A) (A) (A) (A)
                 (A) (A) (A) (A) (A) (A) (A) (A) (A) (A) (A) (A)
                 (A) (A) (A) (A) (A) (A) (A) (A) (A) (A) (A) (A)
                 (A) (A) (A) (A) (A) (A) (A) (A) (A) (A) (A) (A)
                 (A) (A) (A) (A) (A) (A) (A) (A) (A) (A) (A) (A)
                 (A) (A) (A) (A) (A) (A) (A) (A) (A) (A) (A) (A)
                 (A) (A) (A) (A) (A) (A) (A) (A) (A) (A) (A) (A)
                 (A) (A) (A) (A) (A) (A) (A) (A) (A)
 The electronic state is 1-A.
 Alpha  occ. eigenvalues --  -10.20366 -10.18819 -10.18788 -10.18689 -10.18688
 Alpha  occ. eigenvalues --  -10.18668 -10.18668 -10.18628 -10.18628 -10.18599
 Alpha  occ. eigenvalues --  -10.18599 -10.18497 -10.18496 -10.17808 -10.17808
 Alpha  occ. eigenvalues --   -0.88470  -0.83857  -0.80831  -0.76976  -0.73806
 Alpha  occ. eigenvalues --   -0.72802  -0.70885  -0.68580  -0.63986  -0.61711
 Alpha  occ. eigenvalues --   -0.57979  -0.57118  -0.55314  -0.50599  -0.49177
 Alpha  occ. eigenvalues --   -0.46828  -0.44802  -0.44402  -0.43350  -0.42834
 Alpha  occ. eigenvalues --   -0.42579  -0.41387  -0.41246  -0.39040  -0.37930
 Alpha  occ. eigenvalues --   -0.37864  -0.37070  -0.34663  -0.34349  -0.34072
 Alpha  occ. eigenvalues --   -0.33674  -0.31556  -0.31498  -0.27720  -0.24446
 Alpha  occ. eigenvalues --   -0.24048  -0.21062
 Alpha virt. eigenvalues --   -0.02727  -0.00494   0.01260   0.04579   0.08510
 Alpha virt. eigenvalues --    0.10405   0.10519   0.13063   0.13398   0.14046
 Alpha virt. eigenvalues --    0.14935   0.16491   0.16566   0.16802   0.17895
 Alpha virt. eigenvalues --    0.18668   0.19349   0.20542   0.21606   0.21620
 Alpha virt. eigenvalues --    0.22980   0.24396   0.26062   0.26722   0.27649
 Alpha virt. eigenvalues --    0.27826   0.30250   0.31780   0.32492   0.37153
 Alpha virt. eigenvalues --    0.38533   0.39911   0.40695   0.47645   0.49896
 Alpha virt. eigenvalues --    0.49921   0.51411   0.51602   0.52465   0.55234
 Alpha virt. eigenvalues --    0.55613   0.55936   0.56146   0.56353   0.56736
 Alpha virt. eigenvalues --    0.58469   0.58507   0.58774   0.60543   0.60552
 Alpha virt. eigenvalues --    0.61856   0.62030   0.62891   0.63359   0.63718
 Alpha virt. eigenvalues --    0.64785   0.66074   0.66501   0.68506   0.68988
 Alpha virt. eigenvalues --    0.69662   0.75192   0.76003   0.77157   0.78458
 Alpha virt. eigenvalues --    0.79412   0.80477   0.81798   0.82783   0.83686
 Alpha virt. eigenvalues --    0.84305   0.84568   0.85067   0.86419   0.88308
 Alpha virt. eigenvalues --    0.90759   0.90928   0.91034   0.91721   0.92542
 Alpha virt. eigenvalues --    0.92680   0.96056   0.96225   0.96655   0.97257
 Alpha virt. eigenvalues --    0.98654   0.99264   0.99526   1.01018   1.04008
 Alpha virt. eigenvalues --    1.07250   1.07624   1.11044   1.11092   1.15117
 Alpha virt. eigenvalues --    1.15195   1.19122   1.22219   1.24263   1.24544
 Alpha virt. eigenvalues --    1.28021   1.28608   1.33809   1.34039   1.39394
 Alpha virt. eigenvalues --    1.41592   1.41855   1.45365   1.45451   1.46225
 Alpha virt. eigenvalues --    1.46698   1.49736   1.50271   1.50355   1.53292
 Alpha virt. eigenvalues --    1.56277   1.57260   1.60983   1.65327   1.67947
 Alpha virt. eigenvalues --    1.68910   1.73943   1.79497   1.79854   1.80721
 Alpha virt. eigenvalues --    1.81026   1.84934   1.86848   1.90364   1.90615
 Alpha virt. eigenvalues --    1.91288   1.92414   1.93064   1.95364   1.96466
 Alpha virt. eigenvalues --    2.00294   2.02314   2.04332   2.04418   2.05259
 Alpha virt. eigenvalues --    2.07617   2.08769   2.11283   2.13328   2.14998
 Alpha virt. eigenvalues --    2.19632   2.19721   2.19972   2.21994   2.23872
 Alpha virt. eigenvalues --    2.25034   2.25054   2.27032   2.27078   2.28936
 Alpha virt. eigenvalues --    2.30539   2.32163   2.32683   2.33476   2.37367
 Alpha virt. eigenvalues --    2.43753   2.43783   2.45950   2.49981   2.55769
 Alpha virt. eigenvalues --    2.60971   2.61979   2.64782   2.65337   2.68403
 Alpha virt. eigenvalues --    2.69113   2.70603   2.70642   2.73873   2.75989
 Alpha virt. eigenvalues --    2.76954   2.82709   2.83755   2.85785   2.94416
 Alpha virt. eigenvalues --    2.96037   3.00932   3.10141   3.29255   3.35493
 Alpha virt. eigenvalues --    3.51173   4.08584   4.09942   4.10231   4.15092
 Alpha virt. eigenvalues --    4.15803   4.19002   4.23863   4.29415   4.31326
 Alpha virt. eigenvalues --    4.35942   4.42712   4.44285   4.60683   4.81116
 Alpha virt. eigenvalues --    4.83147
          Condensed to atoms (all electrons):
               1          2          3          4          5          6
     1  C    5.183021   0.315968  -0.072067  -0.072071   0.315974  -0.084800
     2  C    0.315968   4.924034   0.494357   0.007512  -0.079181   0.006915
     3  C   -0.072067   0.494357   4.920345   0.268310   0.007519   0.014055
     4  C   -0.072071   0.007512   0.268310   4.920322   0.494351  -0.031045
     5  C    0.315974  -0.079181   0.007519   0.494351   4.924024   0.480048
     6  C   -0.084800   0.006915   0.014055  -0.031045   0.480048   5.080926
     7  C    0.006538  -0.000319   0.000253  -0.041274  -0.006799   0.497453
     8  C   -0.000458  -0.000285   0.007809   0.004034  -0.039805  -0.021072
     9  C    0.015427   0.010192  -0.093855   0.474751  -0.081933  -0.061703
    10  H   -0.000227  -0.000033  -0.008898  -0.032451   0.005386   0.000499
    11  H    0.000012   0.000002  -0.000189   0.002055   0.001174   0.004261
    12  H   -0.000154   0.000003   0.000005   0.001002   0.002744  -0.039491
    13  H   -0.007516   0.000231  -0.000272   0.004787  -0.040812   0.353309
    14  C    0.015426  -0.081943   0.474760  -0.093842   0.010192  -0.000318
    15  C   -0.000458  -0.039805   0.004034   0.007809  -0.000285   0.000003
    16  C    0.006537  -0.006801  -0.041272   0.000254  -0.000319   0.000001
    17  C   -0.084799   0.480041  -0.031046   0.014055   0.006915  -0.000226
    18  H   -0.007515  -0.040813   0.004787  -0.000272   0.000231   0.000003
    19  H   -0.000154   0.002744   0.001002   0.000005   0.000003  -0.000000
    20  H    0.000012   0.001174   0.002054  -0.000189   0.000002  -0.000000
    21  H   -0.000227   0.005386  -0.032449  -0.008901  -0.000033   0.000004
    22  C    0.351820  -0.044754   0.000053   0.000056  -0.044750  -0.002260
    23  H   -0.030036  -0.002217   0.001035   0.001035  -0.002215   0.000272
    24  H   -0.026926   0.004907   0.000094  -0.000342  -0.008903   0.003274
    25  H   -0.026922  -0.008899  -0.000342   0.000094   0.004907  -0.000049
    26  C    0.351820  -0.044757   0.000049   0.000053  -0.044753  -0.002261
    27  H   -0.026923  -0.008899  -0.000342   0.000094   0.004908  -0.000049
    28  H   -0.026926   0.004907   0.000094  -0.000342  -0.008903   0.003274
    29  H   -0.030036  -0.002217   0.001036   0.001036  -0.002215   0.000271
               7          8          9         10         11         12
     1  C    0.006538  -0.000458   0.015427  -0.000227   0.000012  -0.000154
     2  C   -0.000319  -0.000285   0.010192  -0.000033   0.000002   0.000003
     3  C    0.000253   0.007809  -0.093855  -0.008898  -0.000189   0.000005
     4  C   -0.041274   0.004034   0.474751  -0.032451   0.002055   0.001002
     5  C   -0.006799  -0.039805  -0.081933   0.005386   0.001174   0.002744
     6  C    0.497453  -0.021072  -0.061703   0.000499   0.004261  -0.039491
     7  C    4.888929   0.539976  -0.026876   0.004272  -0.040342   0.357338
     8  C    0.539976   4.880853   0.492668  -0.047833   0.357066  -0.041076
     9  C   -0.026876   0.492668   5.161034   0.347363  -0.038451   0.004450
    10  H    0.004272  -0.047833   0.347363   0.603265  -0.004732  -0.000178
    11  H   -0.040342   0.357066  -0.038451  -0.004732   0.597681  -0.005245
    12  H    0.357338  -0.041076   0.004450  -0.000178  -0.005245   0.599285
    13  H   -0.046530   0.004429   0.000616   0.000021  -0.000180  -0.004856
    14  C    0.000027   0.000101  -0.013731   0.002860  -0.000000  -0.000000
    15  C   -0.000000   0.000000   0.000101  -0.000016  -0.000000   0.000000
    16  C    0.000000  -0.000000   0.000027   0.000000  -0.000000   0.000000
    17  C    0.000001   0.000003  -0.000318   0.000004  -0.000000  -0.000000
    18  H   -0.000000  -0.000000   0.000001   0.000000   0.000000  -0.000000
    19  H    0.000000   0.000000  -0.000000  -0.000000  -0.000000  -0.000000
    20  H   -0.000000  -0.000000  -0.000000   0.000001   0.000000  -0.000000
    21  H    0.000000  -0.000016   0.002861   0.002722   0.000001  -0.000000
    22  C   -0.000012   0.000024  -0.000229   0.000003   0.000000   0.000001
    23  H   -0.000024  -0.000011  -0.000043   0.000001  -0.000000   0.000000
    24  H    0.000010   0.000000  -0.000002   0.000000  -0.000000   0.000002
    25  H    0.000002  -0.000000   0.000006  -0.000000  -0.000000  -0.000000
    26  C   -0.000012   0.000024  -0.000229   0.000003   0.000000   0.000001
    27  H    0.000002  -0.000000   0.000006  -0.000000  -0.000000  -0.000000
    28  H    0.000010   0.000000  -0.000002   0.000000  -0.000000   0.000002
    29  H   -0.000024  -0.000011  -0.000043   0.000001  -0.000000   0.000000
              13         14         15         16         17         18
     1  C   -0.007516   0.015426  -0.000458   0.006537  -0.084799  -0.007515
     2  C    0.000231  -0.081943  -0.039805  -0.006801   0.480041  -0.040813
     3  C   -0.000272   0.474760   0.004034  -0.041272  -0.031046   0.004787
     4  C    0.004787  -0.093842   0.007809   0.000254   0.014055  -0.000272
     5  C   -0.040812   0.010192  -0.000285  -0.000319   0.006915   0.000231
     6  C    0.353309  -0.000318   0.000003   0.000001  -0.000226   0.000003
     7  C   -0.046530   0.000027  -0.000000   0.000000   0.000001  -0.000000
     8  C    0.004429   0.000101   0.000000  -0.000000   0.000003  -0.000000
     9  C    0.000616  -0.013731   0.000101   0.000027  -0.000318   0.000001
    10  H    0.000021   0.002860  -0.000016   0.000000   0.000004   0.000000
    11  H   -0.000180  -0.000000  -0.000000  -0.000000  -0.000000   0.000000
    12  H   -0.004856  -0.000000   0.000000   0.000000  -0.000000  -0.000000
    13  H    0.607930   0.000001  -0.000000  -0.000000   0.000003   0.000000
    14  C    0.000001   5.161012   0.492660  -0.026882  -0.061700   0.000616
    15  C   -0.000000   0.492660   4.880868   0.539978  -0.021069   0.004429
    16  C   -0.000000  -0.026882   0.539978   4.888916   0.497459  -0.046531
    17  C    0.000003  -0.061700  -0.021069   0.497459   5.080938   0.353311
    18  H    0.000000   0.000616   0.004429  -0.046531   0.353311   0.607935
    19  H   -0.000000   0.004451  -0.041077   0.357340  -0.039493  -0.004857
    20  H    0.000000  -0.038450   0.357065  -0.040341   0.004261  -0.000181
    21  H    0.000000   0.347363  -0.047831   0.004272   0.000499   0.000021
    22  C    0.000857  -0.000229   0.000024  -0.000012  -0.002257   0.000857
    23  H    0.000047  -0.000043  -0.000011  -0.000024   0.000272   0.000047
    24  H    0.001807   0.000006  -0.000000   0.000002  -0.000049  -0.000081
    25  H   -0.000081  -0.000002   0.000000   0.000010   0.003272   0.001805
    26  C    0.000856  -0.000229   0.000024  -0.000012  -0.002258   0.000856
    27  H   -0.000081  -0.000002   0.000000   0.000010   0.003272   0.001804
    28  H    0.001806   0.000006  -0.000000   0.000002  -0.000049  -0.000081
    29  H    0.000047  -0.000043  -0.000011  -0.000024   0.000272   0.000047
              19         20         21         22         23         24
     1  C   -0.000154   0.000012  -0.000227   0.351820  -0.030036  -0.026926
     2  C    0.002744   0.001174   0.005386  -0.044754  -0.002217   0.004907
     3  C    0.001002   0.002054  -0.032449   0.000053   0.001035   0.000094
     4  C    0.000005  -0.000189  -0.008901   0.000056   0.001035  -0.000342
     5  C    0.000003   0.000002  -0.000033  -0.044750  -0.002215  -0.008903
     6  C   -0.000000  -0.000000   0.000004  -0.002260   0.000272   0.003274
     7  C    0.000000  -0.000000   0.000000  -0.000012  -0.000024   0.000010
     8  C    0.000000  -0.000000  -0.000016   0.000024  -0.000011   0.000000
     9  C   -0.000000  -0.000000   0.002861  -0.000229  -0.000043  -0.000002
    10  H   -0.000000   0.000001   0.002722   0.000003   0.000001   0.000000
    11  H   -0.000000   0.000000   0.000001   0.000000  -0.000000  -0.000000
    12  H   -0.000000  -0.000000  -0.000000   0.000001   0.000000   0.000002
    13  H   -0.000000   0.000000   0.000000   0.000857   0.000047   0.001807
    14  C    0.004451  -0.038450   0.347363  -0.000229  -0.000043   0.000006
    15  C   -0.041077   0.357065  -0.047831   0.000024  -0.000011  -0.000000
    16  C    0.357340  -0.040341   0.004272  -0.000012  -0.000024   0.000002
    17  C   -0.039493   0.004261   0.000499  -0.002257   0.000272  -0.000049
    18  H   -0.004857  -0.000181   0.000021   0.000857   0.000047  -0.000081
    19  H    0.599290  -0.005246  -0.000178   0.000001   0.000000  -0.000000
    20  H   -0.005246   0.597678  -0.004731   0.000000  -0.000000  -0.000000
    21  H   -0.000178  -0.004731   0.603263   0.000003   0.000001  -0.000000
    22  C    0.000001   0.000000   0.000003   5.145012   0.369373   0.362472
    23  H    0.000000  -0.000000   0.000001   0.369373   0.556538  -0.028456
    24  H   -0.000000  -0.000000  -0.000000   0.362472  -0.028456   0.580788
    25  H    0.000002  -0.000000   0.000000   0.362471  -0.028457  -0.031009
    26  C    0.000001   0.000000   0.000003  -0.060627   0.005590  -0.003787
    27  H    0.000002  -0.000000   0.000000  -0.003793  -0.000063  -0.000204
    28  H   -0.000000  -0.000000  -0.000000  -0.003787  -0.000063   0.003159
    29  H    0.000000  -0.000000   0.000001   0.005590  -0.000184  -0.000063
              25         26         27         28         29
     1  C   -0.026922   0.351820  -0.026923  -0.026926  -0.030036
     2  C   -0.008899  -0.044757  -0.008899   0.004907  -0.002217
     3  C   -0.000342   0.000049  -0.000342   0.000094   0.001036
     4  C    0.000094   0.000053   0.000094  -0.000342   0.001036
     5  C    0.004907  -0.044753   0.004908  -0.008903  -0.002215
     6  C   -0.000049  -0.002261  -0.000049   0.003274   0.000271
     7  C    0.000002  -0.000012   0.000002   0.000010  -0.000024
     8  C   -0.000000   0.000024  -0.000000   0.000000  -0.000011
     9  C    0.000006  -0.000229   0.000006  -0.000002  -0.000043
    10  H   -0.000000   0.000003  -0.000000   0.000000   0.000001
    11  H   -0.000000   0.000000  -0.000000  -0.000000  -0.000000
    12  H   -0.000000   0.000001  -0.000000   0.000002   0.000000
    13  H   -0.000081   0.000856  -0.000081   0.001806   0.000047
    14  C   -0.000002  -0.000229  -0.000002   0.000006  -0.000043
    15  C    0.000000   0.000024   0.000000  -0.000000  -0.000011
    16  C    0.000010  -0.000012   0.000010   0.000002  -0.000024
    17  C    0.003272  -0.002258   0.003272  -0.000049   0.000272
    18  H    0.001805   0.000856   0.001804  -0.000081   0.000047
    19  H    0.000002   0.000001   0.000002  -0.000000   0.000000
    20  H   -0.000000   0.000000  -0.000000  -0.000000  -0.000000
    21  H    0.000000   0.000003   0.000000  -0.000000   0.000001
    22  C    0.362471  -0.060627  -0.003793  -0.003787   0.005590
    23  H   -0.028457   0.005590  -0.000063  -0.000063  -0.000184
    24  H   -0.031009  -0.003787  -0.000204   0.003159  -0.000063
    25  H    0.580789  -0.003793   0.003163  -0.000204  -0.000063
    26  C   -0.003793   5.145023   0.362469   0.362470   0.369372
    27  H    0.003163   0.362469   0.580791  -0.031009  -0.028457
    28  H   -0.000204   0.362470  -0.031009   0.580789  -0.028456
    29  H   -0.000063   0.369372  -0.028457  -0.028456   0.556536
 Mulliken charges:
               1
     1  C   -0.064342
     2  C    0.102550
     3  C    0.079081
     4  C    0.079113
     5  C    0.102530
     6  C   -0.201295
     7  C   -0.132598
     8  C   -0.136421
     9  C   -0.192087
    10  H    0.127966
    11  H    0.126886
    12  H    0.126167
    13  H    0.123581
    14  C   -0.192066
    15  C   -0.136432
    16  C   -0.132588
    17  C   -0.201318
    18  H    0.123579
    19  H    0.126164
    20  H    0.126889
    21  H    0.127967
    22  C   -0.435904
    23  H    0.157636
    24  H    0.143301
    25  H    0.143299
    26  C   -0.435896
    27  H    0.143299
    28  H    0.143301
    29  H    0.157636
 Sum of Mulliken charges =  -0.00000
 Mulliken charges with hydrogens summed into heavy atoms:
               1
     1  C   -0.064342
     2  C    0.102550
     3  C    0.079081
     4  C    0.079113
     5  C    0.102530
     6  C   -0.077713
     7  C   -0.006431
     8  C   -0.009535
     9  C   -0.064121
    14  C   -0.064099
    15  C   -0.009544
    16  C   -0.006424
    17  C   -0.077739
    22  C    0.008333
    26  C    0.008340
 APT charges:
               1
     1  C    0.119694
     2  C   -0.074593
     3  C    0.056810
     4  C    0.056825
     5  C   -0.074608
     6  C    0.012515
     7  C   -0.046157
     8  C   -0.039773
     9  C   -0.018724
    10  H    0.021887
    11  H    0.005553
    12  H    0.006625
    13  H    0.017494
    14  C   -0.018731
    15  C   -0.039764
    16  C   -0.046161
    17  C    0.012514
    18  H    0.017487
    19  H    0.006620
    20  H    0.005555
    21  H    0.021893
    22  C    0.058094
    23  H   -0.009802
    24  H   -0.024880
    25  H   -0.024885
    26  C    0.058083
    27  H   -0.024888
    28  H   -0.024883
    29  H   -0.009799
 Sum of APT charges =   0.00000
 APT charges with hydrogens summed into heavy atoms:
               1
     1  C    0.119694
     2  C   -0.074593
     3  C    0.056810
     4  C    0.056825
     5  C   -0.074608
     6  C    0.030009
     7  C   -0.039532
     8  C   -0.034221
     9  C    0.003163
    14  C    0.003162
    15  C   -0.034208
    16  C   -0.039541
    17  C    0.030001
    22  C   -0.001474
    26  C   -0.001487
 Electronic spatial extent (au):  <R**2>=           2909.2278
 Charge=              0.0000 electrons
 Dipole moment (field-independent basis, Debye):
    X=             -0.0000    Y=              0.4204    Z=              0.0000  Tot=              0.4204
 Quadrupole moment (field-independent basis, Debye-Ang):
   XX=            -80.7229   YY=            -79.7991   ZZ=            -92.2919
   XY=              0.0001   XZ=              0.0000   YZ=             -0.0002
 Traceless Quadrupole moment (field-independent basis, Debye-Ang):
   XX=              3.5484   YY=              4.4722   ZZ=             -8.0206
   XY=              0.0001   XZ=              0.0000   YZ=             -0.0002
 Octapole moment (field-independent basis, Debye-Ang**2):
  XXX=             -0.0001  YYY=            -10.6698  ZZZ=              0.0002  XYY=              0.0000
  XXY=             -1.7174  XXZ=             -0.0007  XZZ=              0.0002  YZZ=              4.2947
  YYZ=              0.0004  XYZ=             -0.0001
 Hexadecapole moment (field-independent basis, Debye-Ang**3):
 XXXX=          -2238.8541 YYYY=          -1250.1005 ZZZZ=           -266.3011 XXXY=             -0.0012
 XXXZ=              0.0002 YYYX=              0.0051 YYYZ=             -0.0009 ZZZX=              0.0001
 ZZZY=             -0.0009 XXYY=           -575.7795 XXZZ=           -497.0144 YYZZ=           -278.9792
 XXYZ=             -0.0013 YYXZ=              0.0000 ZZXY=             -0.0006
 N-N= 9.270093604486D+02 E-N=-3.196500267454D+03  KE= 5.744294177303D+02
  Exact polarizability: 218.006   0.000 166.405   0.000  -0.001  69.273
 Approx polarizability: 340.419  -0.001 284.548   0.000  -0.003 104.107
 No NMR shielding tensors so no spin-rotation constants.
 Leave Link  601 at Thu Aug 20 10:09:41 2026, MaxMem=   104857600 cpu:               0.1 elap:               0.1
 (Enter /sw/cluster/pub/apps//g16/l701.exe)
 ... and contract with generalized density number  0.
 Compute integral second derivatives.
 R6Disp: Adding Grimme-D3(BJ) dispersion energy 2nd derivatives to the Hessian.
 Leave Link  701 at Thu Aug 20 10:09:41 2026, MaxMem=   104857600 cpu:               0.1 elap:               0.1
 (Enter /sw/cluster/pub/apps//g16/l702.exe)
 L702 exits ... SP integral derivatives will be done elsewhere.
 Leave Link  702 at Thu Aug 20 10:09:43 2026, MaxMem=   104857600 cpu:               0.0 elap:               0.0
 (Enter /sw/cluster/pub/apps//g16/l703.exe)
 Integral derivatives from FoFJK, PRISM(SPDF).
 Compute integral second derivatives, UseDBF=F ICtDFT=           0.
 Calling FoFJK, ICntrl=    100127 FMM=F ISym2X=0 I1Cent= 0 IOpClX= 0 NMat=1 NMatS=1 NMatT=0.
 FoFJK:  IHMeth= 1 ICntrl=  100127 DoSepK=F KAlg= 0 I1Cent=           0 FoldK=F
 IRaf=         0 NMat=       1 IRICut=       1 DoRegI=T DoRafI=F ISym2E= 0 IDoP0=0 IntGTp=1.
 FoFCou: FMM=F IPFlag=           0 FMFlag=      100000 FMFlg1=         800
         NFxFlg=           0 DoJE=F BraDBF=F KetDBF=F FulRan=T
         wScrn=  0.000000 ICntrl=    100127 IOpCl=  0 I1Cent=           0 NGrid=           0
         NMat0=    1 NMatS0=      1 NMatT0=    0 NMatD0=    1 NMtDS0=    0 NMtDT0=    0
 Symmetry not used in FoFCou.
 Leave Link  703 at Thu Aug 20 10:14:45 2026, MaxMem=   104857600 cpu:             294.9 elap:             295.2
 (Enter /sw/cluster/pub/apps//g16/l716.exe)
 Dipole        =-5.52277921D-06 1.65383133D-01 1.70772823D-05
 Polarizability= 2.18005996D+02 2.93752320D-04 1.66404596D+02
                 4.58905535D-05-1.03827313D-03 6.92732309D+01
 Full mass-weighted force constant matrix:
 Low frequencies ---   -4.3832   -3.2839   -2.9507   -0.0012   -0.0008    0.0007
 Low frequencies ---   78.4617  115.6755  123.8309
 Diagonal vibrational polarizability:
        1.8260733       1.1467673       7.8531389
 Harmonic frequencies (cm**-1), IR intensities (KM/Mole), Raman scattering
 activities (A**4/AMU), depolarization ratios for plane and unpolarized
 incident light, reduced masses (AMU), force constants (mDyne/A),
 and normal coordinates:
                      1                      2                      3
                      A                      A                      A
 Frequencies --     78.4616               115.6755               123.8308
 Red. masses --      3.4514                 4.0798                 3.3015
 Frc consts  --      0.0125                 0.0322                 0.0298
 IR Inten    --      0.0006                 1.1670                 0.0000
  Atom  AN      X      Y      Z        X      Y      Z        X      Y      Z
     1   6     0.00   0.00   0.00     0.00  -0.00  -0.12    -0.00   0.00  -0.00
     2   6     0.00  -0.00   0.05     0.00  -0.00  -0.15     0.00   0.00   0.09
     3   6    -0.00  -0.00  -0.08     0.00  -0.00  -0.16     0.00  -0.00  -0.01
     4   6     0.00  -0.00  -0.08     0.00  -0.00  -0.16     0.00   0.00   0.01
     5   6     0.00  -0.00   0.05    -0.00  -0.00  -0.15     0.00  -0.00  -0.09
     6   6    -0.00   0.00   0.17    -0.00   0.00   0.00     0.00  -0.00  -0.14
     7   6    -0.00   0.00   0.14    -0.00   0.00   0.17     0.00  -0.00  -0.01
     8   6    -0.00  -0.00  -0.02    -0.00   0.00   0.16     0.00   0.00   0.16
     9   6     0.00  -0.00  -0.14    -0.00   0.00  -0.02     0.00   0.00   0.16
    10   1     0.00  -0.00  -0.25    -0.00   0.00  -0.01     0.00   0.00   0.28
    11   1    -0.00  -0.00  -0.05    -0.00   0.00   0.30     0.00   0.00   0.30
    12   1    -0.00   0.00   0.25    -0.00   0.00   0.32     0.00  -0.00  -0.03
    13   1    -0.00   0.00   0.29    -0.00   0.00   0.03     0.00  -0.00  -0.24
    14   6    -0.00  -0.00  -0.14     0.00   0.00  -0.02     0.00  -0.00  -0.16
    15   6     0.00  -0.00  -0.02     0.00   0.00   0.16     0.00  -0.00  -0.16
    16   6     0.00   0.00   0.14     0.00   0.00   0.17     0.00   0.00   0.01
    17   6     0.00   0.00   0.17     0.00   0.00   0.00     0.00   0.00   0.14
    18   1     0.00   0.00   0.29     0.00   0.00   0.03     0.00   0.00   0.24
    19   1     0.00   0.00   0.25     0.00   0.00   0.32     0.00   0.00   0.03
    20   1    -0.00  -0.00  -0.05     0.00   0.00   0.30     0.00  -0.00  -0.30
    21   1    -0.00  -0.00  -0.25     0.00   0.00  -0.01     0.00  -0.00  -0.28
    22   6    -0.00  -0.14  -0.11    -0.00   0.16   0.00     0.16   0.00  -0.00
    23   1    -0.00  -0.26  -0.03    -0.00   0.29  -0.08     0.30   0.00   0.00
    24   1    -0.00  -0.15  -0.18     0.00   0.17   0.09     0.16  -0.01  -0.13
    25   1     0.00  -0.15  -0.18    -0.00   0.17   0.09     0.16   0.01   0.13
    26   6     0.00   0.14  -0.11     0.00  -0.16   0.00    -0.16  -0.00  -0.00
    27   1    -0.00   0.15  -0.18     0.00  -0.17   0.09    -0.16  -0.01   0.13
    28   1     0.00   0.15  -0.18    -0.00  -0.17   0.09    -0.16   0.01  -0.13
    29   1     0.00   0.26  -0.03     0.00  -0.29  -0.08    -0.30  -0.00   0.00
                      4                      5                      6
                      A                      A                      A
 Frequencies --    194.4950               204.9634               242.5634
 Red. masses --      2.8357                 4.1233                 2.1873
 Frc consts  --      0.0632                 0.1021                 0.0758
 IR Inten    --      0.0000                 0.0188                 0.0550
  Atom  AN      X      Y      Z        X      Y      Z        X      Y      Z
     1   6    -0.00  -0.00  -0.00     0.00  -0.11   0.00    -0.01   0.00   0.00
     2   6    -0.00  -0.00   0.05    -0.02  -0.08   0.00    -0.05  -0.02  -0.00
     3   6     0.00  -0.00   0.06     0.02  -0.10   0.00    -0.04  -0.01  -0.00
     4   6    -0.00  -0.00  -0.06    -0.02  -0.10   0.00    -0.04   0.01   0.00
     5   6     0.00  -0.00  -0.05     0.02  -0.08   0.00    -0.05   0.02   0.00
     6   6    -0.00   0.00   0.10     0.06   0.07  -0.00    -0.07  -0.04   0.00
     7   6    -0.00   0.00   0.13    -0.04   0.17  -0.00    -0.04  -0.07  -0.00
     8   6    -0.00   0.00  -0.04    -0.13   0.14  -0.00    -0.02  -0.06  -0.00
     9   6    -0.00  -0.00  -0.13    -0.15   0.00   0.00    -0.01  -0.02   0.00
    10   1    -0.00  -0.00  -0.20    -0.28  -0.04   0.00     0.03  -0.01   0.00
    11   1    -0.00   0.00  -0.06    -0.20   0.19  -0.00     0.00  -0.08  -0.00
    12   1    -0.00   0.00   0.25    -0.03   0.25  -0.00    -0.05  -0.09  -0.00
    13   1     0.00   0.00   0.19     0.18   0.11  -0.00    -0.11  -0.05  -0.00
    14   6     0.00   0.00   0.13     0.15   0.00  -0.00    -0.01   0.02  -0.00
    15   6     0.00   0.00   0.04     0.13   0.14  -0.00    -0.02   0.06   0.00
    16   6    -0.00   0.00  -0.13     0.04   0.17   0.00    -0.04   0.07   0.00
    17   6    -0.00   0.00  -0.10    -0.06   0.07   0.00    -0.07   0.04  -0.00
    18   1    -0.00   0.00  -0.19    -0.18   0.11   0.00    -0.11   0.05   0.00
    19   1    -0.00   0.00  -0.25     0.03   0.26   0.00    -0.05   0.09   0.00
    20   1     0.00   0.00   0.06     0.20   0.19  -0.00     0.00   0.08   0.00
    21   1     0.00   0.00   0.20     0.28  -0.04  -0.00     0.03   0.01  -0.00
    22   6     0.19  -0.00  -0.00     0.00  -0.15  -0.03     0.18   0.00   0.00
    23   1     0.39   0.00   0.00     0.00  -0.20   0.01    -0.02  -0.00  -0.00
    24   1     0.17  -0.03  -0.17    -0.00  -0.15  -0.06     0.37   0.26   0.02
    25   1     0.17   0.03   0.17     0.00  -0.15  -0.06     0.37  -0.26  -0.02
    26   6    -0.19  -0.00  -0.00     0.00  -0.15   0.03     0.18   0.00  -0.00
    27   1    -0.17  -0.03   0.17     0.00  -0.15   0.06     0.37  -0.26   0.02
    28   1    -0.17   0.03  -0.17    -0.00  -0.15   0.06     0.37   0.26  -0.02
    29   1    -0.39  -0.00   0.00     0.00  -0.20  -0.01    -0.02  -0.00   0.00
                      7                      8                      9
                      A                      A                      A
 Frequencies --    252.1929               288.4153               321.0561
 Red. masses --      1.0479                 1.1518                 2.5823
 Frc consts  --      0.0393                 0.0565                 0.1568
 IR Inten    --      0.0000                 0.0775                 0.3117
  Atom  AN      X      Y      Z        X      Y      Z        X      Y      Z
     1   6     0.00   0.00  -0.00     0.00   0.00   0.00     0.00  -0.03   0.00
     2   6    -0.00  -0.00  -0.00    -0.01  -0.00  -0.00    -0.01  -0.06   0.00
     3   6    -0.00  -0.00  -0.00    -0.02  -0.00  -0.00     0.01  -0.08  -0.00
     4   6    -0.00   0.00   0.00    -0.02   0.00   0.00    -0.01  -0.08  -0.00
     5   6    -0.00   0.00   0.00    -0.01   0.00   0.00     0.01  -0.06  -0.00
     6   6    -0.00  -0.00  -0.00    -0.02  -0.01   0.00     0.02  -0.03  -0.00
     7   6    -0.00  -0.00  -0.01    -0.02  -0.02  -0.00    -0.03   0.01   0.00
     8   6    -0.00  -0.00  -0.00    -0.01  -0.02  -0.00    -0.07  -0.00   0.00
     9   6    -0.00  -0.00   0.00    -0.01  -0.01   0.00    -0.07  -0.05  -0.00
    10   1     0.00   0.00   0.00    -0.00  -0.00   0.00    -0.12  -0.06  -0.00
    11   1    -0.00  -0.00  -0.00    -0.01  -0.02  -0.00    -0.09   0.02   0.00
    12   1    -0.00  -0.00  -0.01    -0.02  -0.02  -0.00    -0.02   0.05   0.00
    13   1    -0.00  -0.00  -0.01    -0.03  -0.02   0.00     0.06  -0.02  -0.00
    14   6    -0.00   0.00  -0.00    -0.01   0.01  -0.00     0.07  -0.05   0.00
    15   6    -0.00   0.00   0.00    -0.01   0.02   0.00     0.07  -0.00   0.00
    16   6    -0.00   0.00   0.01    -0.02   0.02   0.00     0.03   0.01  -0.00
    17   6    -0.00   0.00   0.00    -0.02   0.01  -0.00    -0.02  -0.03   0.00
    18   1    -0.00   0.00   0.01    -0.03   0.02  -0.00    -0.06  -0.02  -0.00
    19   1    -0.00   0.00   0.01    -0.02   0.02   0.00     0.02   0.05  -0.00
    20   1    -0.00   0.00   0.00    -0.01   0.02   0.00     0.09   0.02   0.00
    21   1     0.00   0.00  -0.00    -0.00   0.00  -0.00     0.12  -0.06   0.00
    22   6    -0.04   0.00  -0.00     0.07  -0.00  -0.00     0.00   0.17   0.13
    23   1     0.34   0.00   0.00     0.48  -0.00   0.00     0.00   0.39  -0.02
    24   1    -0.26  -0.31  -0.17    -0.11  -0.25  -0.24     0.01   0.18   0.29
    25   1    -0.26   0.31   0.17    -0.11   0.25   0.24    -0.01   0.18   0.30
    26   6     0.04  -0.00  -0.00     0.07  -0.00   0.00     0.00   0.17  -0.13
    27   1     0.26  -0.31   0.17    -0.11   0.25  -0.24    -0.01   0.18  -0.30
    28   1     0.26   0.31  -0.17    -0.11  -0.25   0.24     0.01   0.18  -0.29
    29   1    -0.34  -0.00   0.00     0.48  -0.00  -0.00     0.00   0.39   0.02
                     10                     11                     12
                      A                      A                      A
 Frequencies --    327.3311               355.3409               425.6380
 Red. masses --      3.6119                 3.6963                 6.2394
 Frc consts  --      0.2280                 0.2750                 0.6660
 IR Inten    --      0.0000                 0.7015                 0.2547
  Atom  AN      X      Y      Z        X      Y      Z        X      Y      Z
     1   6     0.00  -0.00  -0.00     0.00   0.00   0.18    -0.00   0.06   0.00
     2   6     0.00  -0.00  -0.11    -0.00   0.00   0.04     0.13   0.05   0.00
     3   6     0.00  -0.00  -0.10    -0.00   0.00  -0.12     0.05   0.07  -0.00
     4   6     0.00  -0.00   0.10     0.00   0.00  -0.12    -0.05   0.07  -0.00
     5   6     0.00  -0.00   0.11     0.00   0.00   0.04    -0.13   0.05   0.00
     6   6     0.00   0.00   0.18     0.00   0.00  -0.16    -0.23  -0.08   0.00
     7   6     0.00   0.00  -0.11     0.00  -0.00  -0.03    -0.27  -0.08  -0.00
     8   6    -0.00   0.00  -0.10     0.00   0.00   0.16    -0.19  -0.05   0.00
     9   6    -0.00   0.00   0.18     0.00  -0.00  -0.09    -0.14   0.10   0.00
    10   1    -0.00   0.00   0.26     0.00   0.00  -0.13    -0.12   0.10   0.00
    11   1    -0.00   0.00  -0.27     0.00   0.00   0.36    -0.09  -0.14   0.00
    12   1     0.00   0.00  -0.29     0.00  -0.00  -0.03    -0.27  -0.08  -0.00
    13   1     0.00   0.00   0.27     0.00  -0.00  -0.28    -0.30  -0.10   0.00
    14   6     0.00  -0.00  -0.18    -0.00   0.00  -0.09     0.14   0.10   0.00
    15   6     0.00  -0.00   0.10    -0.00   0.00   0.16     0.19  -0.05   0.00
    16   6     0.00  -0.00   0.11    -0.00  -0.00  -0.03     0.27  -0.08  -0.00
    17   6     0.00  -0.00  -0.18    -0.00   0.00  -0.16     0.23  -0.08   0.00
    18   1     0.00  -0.00  -0.27    -0.00  -0.00  -0.28     0.30  -0.10   0.00
    19   1     0.00   0.00   0.29    -0.00  -0.00  -0.03     0.27  -0.08  -0.00
    20   1     0.00   0.00   0.27    -0.00   0.00   0.36     0.09  -0.14   0.00
    21   1     0.00  -0.00  -0.26    -0.00   0.00  -0.13     0.12   0.10   0.00
    22   6     0.10   0.00   0.00    -0.00  -0.14   0.11     0.00  -0.00  -0.05
    23   1     0.20   0.00   0.00     0.00  -0.27   0.20    -0.00  -0.08   0.00
    24   1     0.12   0.02  -0.10    -0.00  -0.14   0.01    -0.00  -0.01  -0.11
    25   1     0.12  -0.02   0.10     0.00  -0.14   0.01     0.00  -0.01  -0.11
    26   6    -0.10   0.00  -0.00     0.00   0.14   0.11     0.00  -0.00   0.05
    27   1    -0.12   0.02   0.10    -0.00   0.14   0.01     0.00  -0.01   0.11
    28   1    -0.12  -0.02  -0.10     0.00   0.14   0.01    -0.00  -0.01   0.11
    29   1    -0.20   0.00   0.00    -0.00   0.27   0.20    -0.00  -0.08  -0.00
                     13                     14                     15
                      A                      A                      A
 Frequencies --    437.9489               495.2694               524.3141
 Red. masses --      3.3561                 3.0371                 5.2450
 Frc consts  --      0.3793                 0.4389                 0.8495
 IR Inten    --      3.0016                 0.0000                 0.2037
  Atom  AN      X      Y      Z        X      Y      Z        X      Y      Z
     1   6     0.00   0.00  -0.04     0.00   0.00  -0.00     0.05  -0.00  -0.00
     2   6     0.00   0.00   0.03     0.00   0.00  -0.22     0.11   0.16   0.00
     3   6     0.00   0.00   0.21    -0.00   0.00  -0.17    -0.02   0.17   0.00
     4   6    -0.00   0.00   0.21    -0.00  -0.00   0.17    -0.02  -0.17  -0.00
     5   6    -0.00   0.00   0.03     0.00  -0.00   0.22     0.11  -0.16  -0.00
     6   6    -0.00  -0.00  -0.14     0.00  -0.00  -0.07     0.16  -0.12   0.00
     7   6    -0.00  -0.00   0.15     0.00   0.00   0.02     0.03   0.00   0.00
     8   6    -0.00  -0.00  -0.02    -0.00   0.00   0.06    -0.17  -0.06  -0.00
     9   6    -0.00   0.00  -0.13    -0.00  -0.00  -0.09    -0.16  -0.16   0.00
    10   1    -0.00  -0.00  -0.40    -0.00  -0.00  -0.44    -0.27  -0.20   0.00
    11   1    -0.00  -0.00  -0.10    -0.00   0.00  -0.02    -0.26   0.02  -0.00
    12   1    -0.00   0.00   0.26     0.00   0.00  -0.12     0.07   0.20   0.00
    13   1    -0.00  -0.00  -0.39     0.00  -0.00  -0.39     0.26  -0.09   0.00
    14   6     0.00   0.00  -0.13    -0.00   0.00   0.09    -0.16   0.16  -0.00
    15   6     0.00  -0.00  -0.02    -0.00  -0.00  -0.06    -0.17   0.06   0.00
    16   6     0.00   0.00   0.15     0.00  -0.00  -0.02     0.03  -0.00   0.00
    17   6     0.00  -0.00  -0.14     0.00   0.00   0.07     0.16   0.12  -0.00
    18   1     0.00  -0.00  -0.39     0.00   0.00   0.39     0.26   0.09  -0.00
    19   1     0.00   0.00   0.26     0.00  -0.00   0.12     0.07  -0.20  -0.00
    20   1     0.00  -0.00  -0.10    -0.00  -0.00   0.02    -0.26  -0.02  -0.00
    21   1     0.00  -0.00  -0.40    -0.00   0.00   0.44    -0.27   0.20  -0.00
    22   6    -0.00   0.03  -0.02     0.04   0.00  -0.00     0.02  -0.00   0.00
    23   1    -0.00   0.06  -0.05     0.12   0.00   0.00     0.00   0.00   0.00
    24   1     0.00   0.03   0.00     0.08   0.04  -0.09     0.05   0.03   0.01
    25   1    -0.00   0.03   0.00     0.08  -0.04   0.09     0.05  -0.03  -0.01
    26   6     0.00  -0.03  -0.02    -0.04  -0.00  -0.00     0.02  -0.00  -0.00
    27   1     0.00  -0.03   0.00    -0.08   0.04   0.09     0.05  -0.03   0.01
    28   1    -0.00  -0.03   0.00    -0.08  -0.04  -0.09     0.05   0.03  -0.01
    29   1     0.00  -0.06  -0.05    -0.12  -0.00   0.00     0.00   0.00  -0.00
                     16                     17                     18
                      A                      A                      A
 Frequencies --    560.8592               578.8285               582.3326
 Red. masses --      3.9446                 3.7379                 3.5205
 Frc consts  --      0.7311                 0.7379                 0.7034
 IR Inten    --      1.0912                 0.0000                 8.4561
  Atom  AN      X      Y      Z        X      Y      Z        X      Y      Z
     1   6     0.00  -0.21   0.00     0.00   0.00   0.00    -0.00  -0.00  -0.08
     2   6     0.09  -0.01  -0.00     0.00  -0.00   0.06     0.00  -0.00   0.17
     3   6    -0.01   0.06   0.00    -0.00  -0.00  -0.14    -0.00   0.00   0.02
     4   6     0.01   0.06   0.00    -0.00   0.00   0.14     0.00   0.00   0.02
     5   6    -0.09  -0.01  -0.00     0.00   0.00  -0.06    -0.00   0.00   0.17
     6   6    -0.10   0.07  -0.00     0.00  -0.00  -0.12    -0.00   0.00   0.09
     7   6    -0.05   0.02   0.00    -0.00   0.00   0.19    -0.00   0.00  -0.13
     8   6     0.08   0.05  -0.00     0.00  -0.00  -0.19     0.00   0.00   0.16
     9   6     0.07   0.05   0.00    -0.00   0.00   0.12     0.00   0.00  -0.11
    10   1     0.08   0.06   0.00     0.00   0.00   0.06     0.00  -0.00  -0.30
    11   1     0.12   0.02  -0.00     0.00  -0.00  -0.44     0.00   0.00   0.22
    12   1    -0.07  -0.09   0.00    -0.00   0.00   0.35    -0.00  -0.00  -0.39
    13   1    -0.10   0.07  -0.00    -0.00  -0.00  -0.23    -0.00   0.00  -0.07
    14   6    -0.07   0.05   0.00    -0.00  -0.00  -0.12    -0.00   0.00  -0.11
    15   6    -0.08   0.05  -0.00     0.00   0.00   0.19    -0.00   0.00   0.16
    16   6     0.05   0.02   0.00    -0.00  -0.00  -0.19     0.00   0.00  -0.13
    17   6     0.10   0.07  -0.00     0.00   0.00   0.12     0.00   0.00   0.09
    18   1     0.10   0.07  -0.00    -0.00   0.00   0.23     0.00   0.00  -0.07
    19   1     0.07  -0.09   0.00    -0.00  -0.00  -0.35     0.00  -0.00  -0.39
    20   1    -0.12   0.02  -0.00     0.00   0.00   0.44    -0.00   0.00   0.22
    21   1    -0.08   0.06   0.00     0.00  -0.00  -0.06    -0.00  -0.00  -0.30
    22   6     0.00  -0.14   0.21    -0.01  -0.00   0.00    -0.00   0.09  -0.10
    23   1     0.00   0.07   0.08    -0.04  -0.00   0.00    -0.00   0.21  -0.17
    24   1     0.01  -0.12   0.37    -0.02  -0.01   0.03     0.00   0.10  -0.01
    25   1    -0.01  -0.12   0.37    -0.02   0.01  -0.03    -0.00   0.10  -0.01
    26   6     0.00  -0.14  -0.21     0.01   0.00   0.00     0.00  -0.09  -0.10
    27   1    -0.01  -0.12  -0.37     0.02  -0.01  -0.03     0.00  -0.10  -0.01
    28   1     0.01  -0.12  -0.37     0.02   0.01   0.03    -0.00  -0.10  -0.01
    29   1     0.00   0.07  -0.08     0.04   0.00   0.00     0.00  -0.21  -0.17
                     19                     20                     21
                      A                      A                      A
 Frequencies --    607.2659               639.2289               725.4333
 Red. masses --      3.9723                 6.7797                 5.4215
 Frc consts  --      0.8631                 1.6322                 1.6810
 IR Inten    --      0.5377                 6.1283                 0.1219
  Atom  AN      X      Y      Z        X      Y      Z        X      Y      Z
     1   6     0.26   0.00  -0.00     0.06   0.00  -0.00     0.00  -0.00   0.00
     2   6     0.08  -0.16   0.00     0.09   0.05  -0.00    -0.14   0.05  -0.00
     3   6    -0.12  -0.11   0.00     0.21  -0.06  -0.00    -0.02   0.12   0.00
     4   6    -0.12   0.11  -0.00     0.21   0.06   0.00     0.02   0.12   0.00
     5   6     0.08   0.16  -0.00     0.09  -0.05   0.00     0.14   0.05  -0.00
     6   6     0.03  -0.01   0.00     0.01  -0.24   0.00     0.18  -0.17   0.00
     7   6     0.07  -0.09   0.00    -0.24  -0.03   0.00     0.06  -0.06  -0.00
     8   6    -0.08  -0.13   0.00    -0.09   0.05  -0.00    -0.12  -0.07   0.00
     9   6    -0.07   0.05  -0.00    -0.01   0.27  -0.00    -0.06   0.23  -0.00
    10   1     0.12   0.11  -0.00    -0.10   0.24  -0.00     0.08   0.28   0.00
    11   1    -0.08  -0.13   0.00     0.15  -0.16  -0.00    -0.02  -0.16   0.00
    12   1     0.08   0.00  -0.00    -0.21   0.10  -0.00     0.12   0.22   0.00
    13   1    -0.16  -0.08  -0.00     0.10  -0.21  -0.00     0.14  -0.19   0.00
    14   6    -0.07  -0.05   0.00    -0.01  -0.27   0.00     0.06   0.23  -0.00
    15   6    -0.08   0.13  -0.00    -0.09  -0.05   0.00     0.12  -0.07   0.00
    16   6     0.07   0.09  -0.00    -0.24   0.03  -0.00    -0.06  -0.06  -0.00
    17   6     0.03   0.01  -0.00     0.01   0.24  -0.00    -0.18  -0.17   0.00
    18   1    -0.16   0.08   0.00     0.10   0.21   0.00    -0.14  -0.19   0.00
    19   1     0.08  -0.00   0.00    -0.21  -0.10   0.00    -0.12   0.22   0.00
    20   1    -0.08   0.13  -0.00     0.15   0.16   0.00     0.02  -0.16   0.00
    21   1     0.12  -0.11   0.00    -0.10  -0.24   0.00    -0.08   0.28  -0.00
    22   6    -0.00   0.00  -0.00     0.01   0.00  -0.00     0.00  -0.08   0.12
    23   1    -0.17   0.00  -0.00    -0.04  -0.00  -0.00     0.00  -0.08   0.11
    24   1    -0.15  -0.19   0.26    -0.02  -0.04   0.06    -0.00  -0.09   0.14
    25   1    -0.15   0.19  -0.26    -0.02   0.04  -0.06     0.00  -0.09   0.14
    26   6    -0.00   0.00   0.00     0.01   0.00   0.00     0.00  -0.08  -0.12
    27   1    -0.15   0.19   0.26    -0.02   0.04   0.06     0.00  -0.09  -0.14
    28   1    -0.15  -0.19  -0.26    -0.02  -0.04  -0.06    -0.00  -0.09  -0.14
    29   1    -0.16   0.00   0.00    -0.04   0.00   0.00     0.00  -0.08  -0.11
                     22                     23                     24
                      A                      A                      A
 Frequencies --    751.9985               765.7448               778.8082
 Red. masses --      1.9547                 1.4001                 1.9983
 Frc consts  --      0.6513                 0.4837                 0.7141
 IR Inten    --     54.3668                 0.0000                31.7047
  Atom  AN      X      Y      Z        X      Y      Z        X      Y      Z
     1   6    -0.00  -0.00   0.00     0.00   0.00   0.00    -0.00   0.00   0.00
     2   6     0.00  -0.00  -0.10    -0.00   0.00  -0.10     0.00   0.00   0.16
     3   6     0.00   0.00   0.12     0.00   0.00   0.01     0.00  -0.00  -0.06
     4   6     0.00   0.00   0.12    -0.00   0.00  -0.01    -0.00   0.00  -0.06
     5   6    -0.00  -0.00  -0.10    -0.00   0.00   0.10    -0.00   0.00   0.16
     6   6    -0.00   0.00   0.02    -0.00   0.00  -0.05    -0.00   0.00  -0.07
     7   6    -0.00  -0.00  -0.10     0.00  -0.00  -0.02     0.00  -0.00   0.01
     8   6     0.00   0.00   0.02    -0.00  -0.00  -0.07    -0.00  -0.00  -0.09
     9   6     0.00  -0.00  -0.09    -0.00  -0.00  -0.03    -0.00  -0.00   0.01
    10   1    -0.00  -0.00   0.12    -0.00   0.00   0.34    -0.00   0.00   0.37
    11   1    -0.00   0.00   0.41    -0.00   0.00   0.40    -0.00   0.00   0.37
    12   1    -0.00   0.00   0.33    -0.00   0.00   0.42     0.00   0.00   0.40
    13   1    -0.00   0.00   0.41    -0.00   0.00   0.15    -0.00   0.00   0.04
    14   6    -0.00  -0.00  -0.09     0.00  -0.00   0.03     0.00  -0.00   0.01
    15   6    -0.00   0.00   0.02     0.00  -0.00   0.07     0.00  -0.00  -0.09
    16   6     0.00  -0.00  -0.10    -0.00   0.00   0.02    -0.00  -0.00   0.01
    17   6     0.00   0.00   0.02     0.00   0.00   0.05     0.00   0.00  -0.07
    18   1     0.00   0.00   0.41     0.00  -0.00  -0.15     0.00   0.00   0.04
    19   1     0.00   0.00   0.33    -0.00  -0.00  -0.42    -0.00   0.00   0.40
    20   1     0.00   0.00   0.41     0.00  -0.00  -0.40     0.00   0.00   0.37
    21   1     0.00  -0.00   0.12    -0.00  -0.00  -0.34     0.00   0.00   0.37
    22   6     0.00  -0.01   0.02     0.00   0.00  -0.00    -0.00   0.03  -0.05
    23   1     0.00  -0.04   0.03     0.04   0.00   0.00    -0.00   0.09  -0.08
    24   1    -0.00  -0.02  -0.00     0.02   0.03  -0.04     0.00   0.04   0.00
    25   1     0.00  -0.02  -0.00     0.02  -0.03   0.04    -0.00   0.04   0.00
    26   6    -0.00   0.01   0.02    -0.00  -0.00  -0.00    -0.00  -0.03  -0.05
    27   1    -0.00   0.02  -0.00    -0.02   0.03   0.04     0.00  -0.04   0.00
    28   1     0.00   0.02  -0.00    -0.02  -0.03  -0.04    -0.00  -0.04   0.00
    29   1    -0.00   0.04   0.03    -0.04  -0.00   0.00     0.00  -0.09  -0.08
                     25                     26                     27
                      A                      A                      A
 Frequencies --    781.9027               806.7209               808.9935
 Red. masses --      5.5384                 2.8006                 2.8802
 Frc consts  --      1.9950                 1.0739                 1.1106
 IR Inten    --      0.0008                 0.0000                 0.0909
  Atom  AN      X      Y      Z        X      Y      Z        X      Y      Z
     1   6    -0.00  -0.02  -0.00     0.00   0.00   0.00     0.23  -0.00  -0.00
     2   6    -0.04  -0.15   0.00    -0.00   0.00  -0.14    -0.02   0.03   0.00
     3   6    -0.11  -0.04  -0.00     0.00   0.00   0.22     0.03   0.07  -0.00
     4   6     0.11  -0.04  -0.00     0.00  -0.00  -0.22     0.03  -0.07   0.00
     5   6     0.04  -0.15   0.00    -0.00  -0.00   0.14    -0.02  -0.03  -0.00
     6   6     0.04  -0.20  -0.00    -0.00   0.00  -0.01    -0.09   0.03   0.00
     7   6    -0.20   0.03  -0.00    -0.00   0.00   0.10    -0.13   0.02  -0.00
     8   6     0.14   0.18  -0.00     0.00   0.00  -0.04     0.05   0.06   0.00
     9   6     0.11   0.12  -0.00     0.00  -0.00   0.04     0.04  -0.12  -0.00
    10   1    -0.04   0.08   0.00    -0.00  -0.00   0.27    -0.10  -0.17  -0.00
    11   1     0.34   0.00   0.00     0.00   0.00  -0.17     0.05   0.06   0.00
    12   1    -0.20   0.01   0.00    -0.00  -0.00  -0.34    -0.16  -0.11   0.00
    13   1     0.29  -0.11   0.00    -0.00   0.00  -0.44    -0.06   0.04   0.00
    14   6    -0.11   0.12   0.00     0.00   0.00  -0.04     0.04   0.12   0.00
    15   6    -0.14   0.18  -0.00     0.00  -0.00   0.04     0.05  -0.06  -0.00
    16   6     0.20   0.03   0.00    -0.00  -0.00  -0.10    -0.13  -0.02   0.00
    17   6    -0.04  -0.20  -0.00    -0.00  -0.00   0.01    -0.09  -0.03  -0.00
    18   1    -0.29  -0.11  -0.00    -0.00  -0.00   0.44    -0.06  -0.04  -0.00
    19   1     0.20   0.01   0.00    -0.00   0.00   0.34    -0.16   0.11  -0.00
    20   1    -0.34   0.00   0.00     0.00  -0.00   0.17     0.05  -0.06  -0.00
    21   1     0.04   0.08   0.00    -0.00   0.00  -0.27    -0.10   0.17   0.00
    22   6    -0.00   0.05  -0.08    -0.00  -0.00   0.00     0.06   0.00  -0.00
    23   1     0.00   0.08  -0.10     0.05  -0.00   0.00    -0.15   0.00  -0.00
    24   1     0.00   0.05  -0.06     0.03   0.04  -0.06    -0.11  -0.23   0.30
    25   1    -0.00   0.05  -0.06     0.03  -0.04   0.06    -0.11   0.23  -0.30
    26   6    -0.00   0.05   0.08     0.00   0.00   0.00     0.06   0.00   0.00
    27   1    -0.00   0.05   0.06    -0.03   0.04   0.06    -0.11   0.23   0.30
    28   1     0.00   0.05   0.06    -0.03  -0.04  -0.06    -0.11  -0.23  -0.30
    29   1    -0.00   0.08   0.10    -0.05   0.00   0.00    -0.15   0.00   0.00
                     28                     29                     30
                      A                      A                      A
 Frequencies --    883.2235               889.9192               938.3917
 Red. masses --      1.3394                 1.5885                 1.3829
 Frc consts  --      0.6156                 0.7412                 0.7175
 IR Inten    --      0.0583                 0.0000                 1.4271
  Atom  AN      X      Y      Z        X      Y      Z        X      Y      Z
     1   6    -0.00  -0.00  -0.01     0.00   0.00   0.00     0.00   0.00   0.02
     2   6    -0.00  -0.00  -0.03    -0.00  -0.00  -0.06    -0.00   0.00   0.02
     3   6     0.00   0.00   0.02     0.00   0.00   0.09    -0.00  -0.00   0.01
     4   6    -0.00   0.00   0.02    -0.00  -0.00  -0.09     0.00  -0.00   0.01
     5   6     0.00  -0.00  -0.03    -0.00   0.00   0.06     0.00   0.00   0.02
     6   6    -0.00   0.00   0.07     0.00  -0.00  -0.07     0.00  -0.00  -0.08
     7   6     0.00   0.00   0.05    -0.00  -0.00  -0.03    -0.00   0.00   0.05
     8   6    -0.00  -0.00  -0.03    -0.00   0.00   0.03     0.00   0.00   0.05
     9   6    -0.00   0.00  -0.08    -0.00   0.00   0.09     0.00  -0.00  -0.06
    10   1    -0.00   0.00   0.45     0.00  -0.00  -0.43    -0.00  -0.00   0.36
    11   1    -0.00   0.00   0.22     0.00  -0.00  -0.27     0.00   0.00  -0.29
    12   1     0.00  -0.00  -0.30    -0.00   0.00   0.26    -0.00  -0.00  -0.27
    13   1     0.00  -0.00  -0.38    -0.00   0.00   0.38     0.00   0.00   0.44
    14   6     0.00   0.00  -0.08    -0.00  -0.00  -0.09    -0.00  -0.00  -0.06
    15   6     0.00  -0.00  -0.03    -0.00  -0.00  -0.03    -0.00   0.00   0.05
    16   6    -0.00   0.00   0.05     0.00   0.00   0.03     0.00   0.00   0.05
    17   6     0.00   0.00   0.07     0.00   0.00   0.07    -0.00  -0.00  -0.08
    18   1    -0.00  -0.00  -0.38    -0.00  -0.00  -0.38    -0.00   0.00   0.44
    19   1    -0.00  -0.00  -0.30    -0.00  -0.00  -0.26     0.00  -0.00  -0.26
    20   1     0.00   0.00   0.22     0.00   0.00   0.27    -0.00   0.00  -0.29
    21   1     0.00   0.00   0.45     0.00   0.00   0.43     0.00  -0.00   0.36
    22   6     0.00  -0.01   0.01    -0.00  -0.00   0.00    -0.00   0.02  -0.01
    23   1    -0.00  -0.02   0.02     0.03  -0.00   0.00     0.00  -0.01   0.00
    24   1     0.00  -0.01   0.00     0.02   0.03  -0.04    -0.01   0.01  -0.03
    25   1    -0.00  -0.01   0.00     0.02  -0.03   0.04     0.01   0.01  -0.03
    26   6    -0.00   0.01   0.01     0.00   0.00   0.00     0.00  -0.02  -0.01
    27   1     0.00   0.01   0.00    -0.02   0.03   0.04    -0.01  -0.01  -0.03
    28   1    -0.00   0.01   0.00    -0.02  -0.03  -0.04     0.01  -0.01  -0.03
    29   1     0.00   0.02   0.02    -0.03   0.00   0.00    -0.00   0.01   0.00
                     31                     32                     33
                      A                      A                      A
 Frequencies --    939.1382               952.5888               961.7615
 Red. masses --      1.3836                 2.5238                 1.4709
 Frc consts  --      0.7190                 1.3493                 0.8016
 IR Inten    --      0.0000                 2.6767                 0.3637
  Atom  AN      X      Y      Z        X      Y      Z        X      Y      Z
     1   6    -0.00   0.00   0.00     0.00   0.23   0.00     0.00  -0.00   0.11
     2   6     0.00   0.00   0.02    -0.03   0.04  -0.00     0.00  -0.00  -0.01
     3   6     0.00   0.00   0.03    -0.01  -0.03   0.00     0.00   0.00   0.00
     4   6     0.00  -0.00  -0.03     0.01  -0.03   0.00    -0.00   0.00   0.00
     5   6     0.00  -0.00  -0.02     0.03   0.04  -0.00    -0.00  -0.00  -0.01
     6   6    -0.00   0.00   0.08     0.01  -0.04   0.00    -0.00   0.00   0.01
     7   6     0.00  -0.00  -0.04    -0.06   0.01  -0.00     0.00  -0.00   0.00
     8   6     0.00  -0.00  -0.05     0.02   0.04  -0.00    -0.00  -0.00  -0.01
     9   6    -0.00   0.00   0.07     0.02  -0.08   0.00    -0.00   0.00   0.01
    10   1     0.00  -0.00  -0.37    -0.07  -0.11  -0.00     0.00   0.00  -0.05
    11   1    -0.00   0.00   0.31    -0.00   0.06   0.00     0.00  -0.00   0.06
    12   1    -0.00   0.00   0.24    -0.06  -0.00   0.00     0.00  -0.00  -0.01
    13   1     0.00  -0.00  -0.43     0.02  -0.03  -0.00    -0.00   0.00  -0.04
    14   6    -0.00  -0.00  -0.07    -0.02  -0.08   0.00     0.00   0.00   0.01
    15   6     0.00   0.00   0.05    -0.02   0.04  -0.00     0.00  -0.00  -0.01
    16   6     0.00   0.00   0.04     0.06   0.01  -0.00    -0.00  -0.00   0.00
    17   6    -0.00  -0.00  -0.08    -0.01  -0.04   0.00     0.00   0.00   0.01
    18   1     0.00   0.00   0.44    -0.02  -0.03  -0.00     0.00   0.00  -0.04
    19   1    -0.00  -0.00  -0.25     0.06  -0.00   0.00    -0.00   0.00  -0.01
    20   1    -0.00  -0.00  -0.31     0.00   0.06   0.00    -0.00  -0.00   0.06
    21   1     0.00   0.00   0.37     0.07  -0.11  -0.00    -0.00   0.00  -0.05
    22   6     0.00   0.00  -0.00     0.00  -0.01   0.16    -0.00   0.12  -0.02
    23   1    -0.01  -0.00   0.00    -0.00  -0.41   0.44    -0.00  -0.32   0.28
    24   1    -0.01  -0.01   0.02    -0.03  -0.05  -0.14    -0.04   0.06  -0.37
    25   1    -0.01   0.01  -0.02     0.03  -0.05  -0.14     0.04   0.06  -0.37
    26   6    -0.00  -0.00  -0.00     0.00  -0.01  -0.16     0.00  -0.12  -0.01
    27   1     0.01  -0.01  -0.02     0.03  -0.05   0.14    -0.04  -0.06  -0.37
    28   1     0.01   0.01   0.02    -0.03  -0.05   0.14     0.04  -0.06  -0.37
    29   1     0.01   0.00  -0.00    -0.00  -0.41  -0.44     0.00   0.32   0.28
                     34                     35                     36
                      A                      A                      A
 Frequencies --    976.7575               979.2258              1030.6902
 Red. masses --      1.2563                 1.2430                 7.2217
 Frc consts  --      0.7062                 0.7022                 4.5201
 IR Inten    --      0.0000                 0.0093                 0.9321
  Atom  AN      X      Y      Z        X      Y      Z        X      Y      Z
     1   6     0.00   0.00  -0.00    -0.00   0.00  -0.00    -0.01   0.00   0.00
     2   6     0.00  -0.00   0.00    -0.00   0.00  -0.01    -0.03   0.05   0.00
     3   6    -0.00  -0.00  -0.00    -0.00   0.00   0.01     0.30   0.07  -0.00
     4   6    -0.00   0.00   0.00    -0.00   0.00   0.01     0.30  -0.07   0.00
     5   6    -0.00   0.00  -0.00     0.00   0.00  -0.01    -0.03  -0.05  -0.00
     6   6     0.00  -0.00  -0.04     0.00  -0.00  -0.04    -0.08   0.29  -0.00
     7   6    -0.00   0.00   0.06    -0.00   0.00   0.06     0.02  -0.00   0.00
     8   6     0.00  -0.00  -0.07     0.00  -0.00  -0.06    -0.20  -0.23   0.00
     9   6    -0.00   0.00   0.03    -0.00   0.00   0.04     0.01   0.05   0.00
    10   1     0.00  -0.00  -0.24     0.00  -0.00  -0.27     0.04   0.04  -0.00
    11   1    -0.00   0.00   0.43    -0.00   0.00   0.43    -0.17  -0.28   0.00
    12   1     0.00  -0.00  -0.41     0.00  -0.00  -0.40     0.01   0.03  -0.00
    13   1    -0.00   0.00   0.28    -0.00   0.00   0.26    -0.05   0.31  -0.00
    14   6     0.00  -0.00  -0.03    -0.00   0.00   0.04     0.01  -0.05   0.00
    15   6     0.00   0.00   0.07    -0.00  -0.00  -0.06    -0.20   0.23  -0.00
    16   6    -0.00  -0.00  -0.06     0.00   0.00   0.06     0.02   0.00   0.00
    17   6     0.00   0.00   0.04    -0.00  -0.00  -0.04    -0.08  -0.29   0.00
    18   1    -0.00  -0.00  -0.28     0.00   0.00   0.26    -0.05  -0.31   0.00
    19   1     0.00   0.00   0.41    -0.00  -0.00  -0.40     0.01  -0.03  -0.00
    20   1    -0.00  -0.00  -0.43     0.00   0.00   0.43    -0.17   0.28  -0.00
    21   1     0.00   0.00   0.24    -0.00  -0.00  -0.27     0.04  -0.04   0.00
    22   6     0.00  -0.00   0.00     0.00  -0.01  -0.00     0.01   0.00   0.00
    23   1    -0.00   0.00  -0.00     0.00   0.02  -0.02    -0.03  -0.00   0.00
    24   1    -0.00  -0.01   0.01     0.00  -0.01   0.02    -0.02  -0.04   0.04
    25   1    -0.00   0.01  -0.01    -0.00  -0.01   0.02    -0.02   0.04  -0.04
    26   6    -0.00   0.00   0.00    -0.00   0.01  -0.00     0.01   0.00  -0.00
    27   1     0.00  -0.01  -0.01     0.00   0.01   0.02    -0.02   0.04   0.04
    28   1     0.00   0.01   0.01    -0.00   0.01   0.02    -0.02  -0.04  -0.04
    29   1     0.00  -0.00  -0.00    -0.00  -0.02  -0.02    -0.03  -0.00  -0.00
                     37                     38                     39
                      A                      A                      A
 Frequencies --   1045.3177              1056.9959              1057.6865
 Red. masses --      1.3073                 2.2469                 2.2538
 Frc consts  --      0.8416                 1.4791                 1.4855
 IR Inten    --      0.0000                 7.4456                 0.6315
  Atom  AN      X      Y      Z        X      Y      Z        X      Y      Z
     1   6    -0.00  -0.00  -0.00    -0.01  -0.00   0.00    -0.00   0.01   0.00
     2   6     0.00   0.00   0.04    -0.04   0.03   0.00     0.02  -0.00  -0.00
     3   6    -0.00  -0.00  -0.01     0.06   0.04  -0.00     0.00  -0.02   0.00
     4   6    -0.00   0.00   0.01     0.06  -0.04   0.00    -0.00  -0.02   0.00
     5   6     0.00  -0.00  -0.04    -0.04  -0.03  -0.00    -0.02  -0.00  -0.00
     6   6     0.00   0.00   0.01    -0.06  -0.03   0.00    -0.05  -0.07   0.00
     7   6    -0.00   0.00   0.00     0.15  -0.06   0.00     0.13  -0.06   0.00
     8   6     0.00  -0.00  -0.00     0.02   0.07  -0.00     0.06   0.12  -0.00
     9   6     0.00  -0.00   0.00    -0.09   0.07  -0.00    -0.09   0.05  -0.00
    10   1     0.00   0.00  -0.02    -0.43  -0.04  -0.00    -0.39  -0.04  -0.00
    11   1     0.00  -0.00   0.02    -0.06   0.16  -0.00    -0.04   0.22  -0.00
    12   1    -0.00   0.00  -0.02     0.13  -0.19   0.00     0.11  -0.21   0.00
    13   1     0.00   0.00  -0.02    -0.35  -0.13   0.00    -0.37  -0.19   0.00
    14   6     0.00   0.00  -0.00    -0.09  -0.07   0.00     0.09   0.05  -0.00
    15   6     0.00   0.00   0.00     0.02  -0.07   0.00    -0.06   0.12  -0.00
    16   6    -0.00  -0.00  -0.00     0.15   0.06  -0.00    -0.13  -0.06   0.00
    17   6     0.00  -0.00  -0.01    -0.06   0.03  -0.00     0.05  -0.07   0.00
    18   1     0.00  -0.00   0.02    -0.35   0.13  -0.00     0.37  -0.19   0.00
    19   1    -0.00  -0.00   0.02     0.13   0.20  -0.00    -0.11  -0.21   0.00
    20   1     0.00   0.00  -0.02    -0.06  -0.16   0.00     0.04   0.22  -0.00
    21   1     0.00  -0.00   0.02    -0.43   0.04   0.00     0.39  -0.04  -0.00
    22   6    -0.11  -0.00  -0.00     0.03  -0.00  -0.00     0.00   0.01   0.01
    23   1     0.20  -0.00   0.00    -0.05   0.00  -0.00    -0.00  -0.02   0.03
    24   1     0.12   0.30  -0.35    -0.03  -0.08   0.10    -0.01  -0.00  -0.02
    25   1     0.12  -0.30   0.35    -0.03   0.08  -0.10     0.01  -0.00  -0.02
    26   6     0.11   0.00  -0.00     0.03  -0.00   0.00     0.00   0.01  -0.01
    27   1    -0.12   0.30   0.35    -0.03   0.08   0.10     0.01  -0.00   0.02
    28   1    -0.12  -0.30  -0.35    -0.03  -0.08  -0.10    -0.01  -0.00   0.02
    29   1    -0.20   0.00   0.00    -0.05   0.00   0.00    -0.00  -0.02  -0.03
                     40                     41                     42
                      A                      A                      A
 Frequencies --   1106.8932              1122.0699              1145.1303
 Red. masses --      2.3717                 2.0437                 1.4976
 Frc consts  --      1.7120                 1.5160                 1.1571
 IR Inten    --      4.9991                 1.9961                 0.6646
  Atom  AN      X      Y      Z        X      Y      Z        X      Y      Z
     1   6    -0.00  -0.01   0.00    -0.06  -0.00   0.00    -0.06  -0.00   0.00
     2   6     0.04  -0.11  -0.00    -0.09   0.13   0.00    -0.04  -0.02   0.00
     3   6    -0.03  -0.07   0.00    -0.07   0.00  -0.00     0.04  -0.02  -0.00
     4   6     0.03  -0.07   0.00    -0.07  -0.00   0.00     0.04   0.02   0.00
     5   6    -0.04  -0.11  -0.00    -0.09  -0.13  -0.00    -0.04   0.02  -0.00
     6   6    -0.01   0.11  -0.00     0.03   0.00   0.00    -0.02  -0.06   0.00
     7   6     0.04  -0.04   0.00     0.04   0.01   0.00     0.02   0.04  -0.00
     8   6     0.00  -0.05   0.00     0.01  -0.02   0.00    -0.05   0.01  -0.00
     9   6    -0.04   0.13  -0.00    -0.00   0.08  -0.00     0.06  -0.04   0.00
    10   1    -0.07   0.13  -0.00     0.24   0.16  -0.00     0.29   0.03   0.00
    11   1     0.20  -0.23   0.00     0.09  -0.08   0.00    -0.29   0.22  -0.00
    12   1    -0.01  -0.27   0.00     0.04  -0.00   0.00     0.09   0.37  -0.00
    13   1     0.21   0.19  -0.00     0.37   0.11  -0.00    -0.23  -0.14   0.00
    14   6     0.04   0.13  -0.00    -0.00  -0.08   0.00     0.06   0.04  -0.00
    15   6    -0.00  -0.05   0.00     0.01   0.02  -0.00    -0.05  -0.01   0.00
    16   6    -0.04  -0.04   0.00     0.04  -0.01   0.00     0.02  -0.04   0.00
    17   6     0.01   0.11  -0.00     0.03  -0.00  -0.00    -0.02   0.06  -0.00
    18   1    -0.21   0.19  -0.00     0.37  -0.11   0.00    -0.23   0.14  -0.00
    19   1     0.01  -0.27   0.00     0.04   0.00  -0.00     0.09  -0.37   0.00
    20   1    -0.20  -0.23   0.00     0.09   0.08  -0.00    -0.29  -0.22   0.00
    21   1     0.07   0.13  -0.00     0.24  -0.16   0.00     0.29  -0.03  -0.00
    22   6     0.00   0.06   0.04     0.08   0.00   0.00     0.03  -0.00  -0.00
    23   1    -0.00  -0.20   0.21    -0.14  -0.00  -0.00    -0.07   0.00  -0.00
    24   1    -0.02   0.02  -0.20    -0.08  -0.20   0.22    -0.04  -0.09   0.09
    25   1     0.02   0.02  -0.20    -0.08   0.20  -0.22    -0.04   0.09  -0.09
    26   6     0.00   0.06  -0.04     0.08   0.00  -0.00     0.03  -0.00   0.00
    27   1     0.02   0.02   0.20    -0.08   0.20   0.22    -0.04   0.09   0.09
    28   1    -0.02   0.02   0.20    -0.08  -0.20  -0.22    -0.04  -0.09  -0.09
    29   1    -0.00  -0.20  -0.21    -0.14  -0.00   0.00    -0.07   0.00   0.00
                     43                     44                     45
                      A                      A                      A
 Frequencies --   1162.6314              1176.6179              1193.4461
 Red. masses --      1.7223                 3.8270                 1.1170
 Frc consts  --      1.3717                 3.1216                 0.9373
 IR Inten    --      0.0092                 1.6303                 0.0316
  Atom  AN      X      Y      Z        X      Y      Z        X      Y      Z
     1   6     0.00   0.06   0.00    -0.00   0.00   0.44    -0.00  -0.02   0.00
     2   6    -0.08   0.09  -0.00     0.00  -0.00  -0.07     0.00  -0.00  -0.00
     3   6    -0.02  -0.03   0.00     0.00   0.00   0.01    -0.02  -0.01   0.00
     4   6     0.02  -0.03   0.00    -0.00   0.00   0.01     0.01  -0.01   0.00
     5   6     0.08   0.09  -0.00    -0.00  -0.00  -0.07    -0.01  -0.00  -0.00
     6   6     0.03   0.06  -0.00    -0.00  -0.00   0.01    -0.02  -0.00   0.00
     7   6    -0.05  -0.04   0.00     0.00  -0.00   0.00     0.01   0.05  -0.00
     8   6     0.03  -0.01   0.00    -0.00   0.00  -0.00     0.03  -0.04   0.00
     9   6    -0.04  -0.01  -0.00     0.00   0.00   0.00    -0.01  -0.00   0.00
    10   1    -0.38  -0.12   0.00     0.00   0.00  -0.02    -0.19  -0.06  -0.00
    11   1     0.27  -0.22   0.00    -0.00   0.00   0.00     0.33  -0.31   0.00
    12   1    -0.10  -0.27   0.00     0.00  -0.00  -0.00     0.10   0.50  -0.00
    13   1     0.06   0.07  -0.00     0.00   0.00  -0.08    -0.27  -0.09  -0.00
    14   6     0.04  -0.01  -0.00    -0.00   0.00   0.00     0.01  -0.00   0.00
    15   6    -0.03  -0.01   0.00     0.00   0.00  -0.00    -0.02  -0.03   0.00
    16   6     0.05  -0.04   0.00    -0.00  -0.00   0.00    -0.01   0.04  -0.00
    17   6    -0.03   0.06  -0.00     0.00  -0.00   0.01     0.02  -0.00   0.00
    18   1    -0.06   0.07  -0.00    -0.00   0.00  -0.08     0.24  -0.08  -0.00
    19   1     0.10  -0.27   0.00    -0.00  -0.00  -0.00    -0.08   0.42  -0.00
    20   1    -0.27  -0.22   0.00     0.00   0.00   0.00    -0.26  -0.25   0.00
    21   1     0.38  -0.12   0.00    -0.00   0.00  -0.02     0.15  -0.05  -0.00
    22   6    -0.00  -0.05  -0.02    -0.00  -0.00  -0.16     0.00   0.01   0.00
    23   1     0.00   0.14  -0.15     0.00   0.37  -0.40    -0.00  -0.03   0.03
    24   1     0.02  -0.01   0.17     0.07   0.11   0.13    -0.01  -0.00  -0.03
    25   1    -0.02  -0.01   0.17    -0.07   0.11   0.13     0.01  -0.00  -0.03
    26   6    -0.00  -0.05   0.02     0.00   0.00  -0.16     0.00   0.01  -0.00
    27   1    -0.02  -0.01  -0.17     0.07  -0.11   0.13     0.01  -0.00   0.03
    28   1     0.02  -0.01  -0.17    -0.07  -0.11   0.13    -0.01  -0.00   0.03
    29   1     0.00   0.14   0.15    -0.00  -0.37  -0.40    -0.00  -0.03  -0.03
                     46                     47                     48
                      A                      A                      A
 Frequencies --   1193.4645              1243.4475              1256.3150
 Red. masses --      1.1222                 2.4643                 2.3067
 Frc consts  --      0.9418                 2.2449                 2.1450
 IR Inten    --      2.4298                 0.0505                 5.5352
  Atom  AN      X      Y      Z        X      Y      Z        X      Y      Z
     1   6     0.02  -0.00   0.00     0.22  -0.00   0.00     0.00  -0.09   0.00
     2   6     0.01  -0.00  -0.00    -0.01   0.15  -0.00     0.05  -0.00  -0.00
     3   6     0.01  -0.00   0.00    -0.04   0.02  -0.00     0.11   0.15  -0.00
     4   6     0.01   0.00  -0.00    -0.04  -0.02   0.00    -0.11   0.15  -0.00
     5   6     0.01  -0.00  -0.00    -0.01  -0.15   0.00    -0.05  -0.00  -0.00
     6   6     0.01   0.00   0.00    -0.08  -0.00  -0.00     0.01  -0.06   0.00
     7   6    -0.00  -0.04   0.00     0.04   0.05  -0.00     0.01   0.02  -0.00
     8   6    -0.03   0.03  -0.00     0.02  -0.01   0.00     0.07  -0.02   0.00
     9   6     0.01   0.01   0.00    -0.02   0.05  -0.00    -0.07  -0.06   0.00
    10   1     0.19   0.06   0.00     0.39   0.19  -0.00    -0.32  -0.14  -0.00
    11   1    -0.31   0.28  -0.00    -0.01   0.03  -0.00     0.12  -0.06   0.00
    12   1    -0.07  -0.39   0.00     0.05   0.11  -0.00     0.01  -0.02   0.00
    13   1     0.14   0.05  -0.00    -0.28  -0.07   0.00     0.51   0.11   0.00
    14   6     0.02  -0.01   0.00    -0.02  -0.05   0.00     0.07  -0.06   0.00
    15   6    -0.04  -0.04   0.00     0.02   0.01  -0.00    -0.07  -0.02   0.00
    16   6    -0.01   0.05  -0.00     0.04  -0.05   0.00    -0.01   0.02  -0.00
    17   6     0.01  -0.01  -0.00    -0.08   0.00   0.00    -0.01  -0.06   0.00
    18   1     0.19  -0.07   0.00    -0.28   0.07  -0.00    -0.51   0.11   0.00
    19   1    -0.09   0.48  -0.00     0.05  -0.12   0.00    -0.01  -0.02   0.00
    20   1    -0.37  -0.34   0.00    -0.01  -0.03   0.00    -0.12  -0.06   0.00
    21   1     0.22  -0.07  -0.00     0.39  -0.19   0.00     0.32  -0.14   0.00
    22   6    -0.01   0.00   0.00    -0.07   0.00   0.00    -0.00   0.03   0.01
    23   1     0.02  -0.00   0.00     0.18  -0.00   0.00    -0.00  -0.05   0.06
    24   1     0.01   0.02  -0.03     0.07   0.18  -0.14    -0.01   0.01  -0.10
    25   1     0.01  -0.02   0.02     0.07  -0.18   0.14     0.01   0.01  -0.10
    26   6    -0.01   0.00  -0.00    -0.07   0.00  -0.00    -0.00   0.03  -0.01
    27   1     0.01  -0.02  -0.02     0.07  -0.18  -0.14     0.01   0.01   0.10
    28   1     0.01   0.02   0.03     0.07   0.18   0.14    -0.01   0.01   0.10
    29   1     0.02  -0.00  -0.00     0.18  -0.00  -0.00    -0.00  -0.05  -0.06
                     49                     50                     51
                      A                      A                      A
 Frequencies --   1289.8834              1332.9431              1334.6857
 Red. masses --      3.1694                 1.6123                 1.9508
 Frc consts  --      3.1069                 1.6878                 2.0474
 IR Inten    --      1.8018                 3.2483                 0.1065
  Atom  AN      X      Y      Z        X      Y      Z        X      Y      Z
     1   6     0.00   0.32  -0.00     0.11   0.00   0.00    -0.00  -0.06   0.00
     2   6     0.12  -0.10   0.00    -0.09  -0.01   0.00     0.05   0.04  -0.00
     3   6    -0.01   0.00  -0.00     0.02  -0.07   0.00    -0.14   0.01   0.00
     4   6     0.01   0.00  -0.00     0.02   0.07  -0.00     0.14   0.01  -0.00
     5   6    -0.12  -0.10   0.00    -0.09   0.01  -0.00    -0.05   0.04  -0.00
     6   6    -0.05  -0.03  -0.00    -0.04  -0.04   0.00     0.00   0.01  -0.00
     7   6     0.07   0.02  -0.00     0.03  -0.02   0.00    -0.00  -0.06   0.00
     8   6     0.01  -0.03   0.00     0.01  -0.03   0.00    -0.05  -0.02  -0.00
     9   6    -0.01   0.03  -0.00     0.03  -0.00   0.00     0.10   0.01   0.00
    10   1    -0.04   0.02  -0.00    -0.32  -0.12  -0.00    -0.49  -0.19   0.00
    11   1    -0.01  -0.00   0.00    -0.17   0.14  -0.00    -0.27   0.16  -0.00
    12   1     0.11   0.22  -0.00     0.08   0.25  -0.00     0.05   0.19  -0.00
    13   1     0.32   0.10   0.00     0.45   0.13   0.00     0.19   0.08  -0.00
    14   6     0.01   0.03  -0.00     0.03   0.00  -0.00    -0.10   0.01   0.00
    15   6    -0.01  -0.03   0.00     0.01   0.03  -0.00     0.05  -0.02   0.00
    16   6    -0.07   0.02  -0.00     0.03   0.02  -0.00     0.00  -0.06   0.00
    17   6     0.05  -0.03  -0.00    -0.04   0.04  -0.00    -0.00   0.01   0.00
    18   1    -0.32   0.10   0.00     0.45  -0.13  -0.00    -0.19   0.08  -0.00
    19   1    -0.11   0.22  -0.00     0.08  -0.25   0.00    -0.05   0.19  -0.00
    20   1     0.01  -0.00   0.00    -0.17  -0.13   0.00     0.27   0.16  -0.00
    21   1     0.04   0.02  -0.00    -0.32   0.12  -0.00     0.49  -0.19   0.00
    22   6    -0.00  -0.11  -0.01    -0.03  -0.00   0.00     0.00   0.01   0.00
    23   1     0.00   0.20  -0.21     0.09   0.00  -0.00    -0.00  -0.01   0.01
    24   1     0.11   0.06   0.24     0.03   0.07  -0.04    -0.01  -0.00  -0.05
    25   1    -0.11   0.06   0.24     0.03  -0.07   0.04     0.01  -0.00  -0.05
    26   6    -0.00  -0.11   0.01    -0.03  -0.00  -0.00     0.00   0.01  -0.00
    27   1    -0.11   0.06  -0.24     0.03  -0.07  -0.04     0.01  -0.00   0.05
    28   1     0.11   0.06  -0.24     0.03   0.07   0.04    -0.01  -0.00   0.05
    29   1     0.00   0.20   0.21     0.09   0.00   0.00    -0.00  -0.01  -0.01
                     52                     53                     54
                      A                      A                      A
 Frequencies --   1358.6644              1403.4381              1422.4270
 Red. masses --      6.7748                 4.6717                 1.2092
 Frc consts  --      7.3683                 5.4215                 1.4414
 IR Inten    --     12.9967                 0.7544                 2.3286
  Atom  AN      X      Y      Z        X      Y      Z        X      Y      Z
     1   6    -0.14  -0.00   0.00    -0.00  -0.03  -0.00    -0.00  -0.00   0.01
     2   6     0.19   0.09  -0.00     0.18   0.13  -0.00    -0.00  -0.00  -0.00
     3   6     0.06  -0.24   0.00     0.16  -0.14   0.00     0.00   0.00   0.00
     4   6     0.06   0.24  -0.00    -0.16  -0.14   0.00     0.00   0.00   0.00
     5   6     0.19  -0.09   0.00    -0.18   0.13  -0.00     0.00  -0.00  -0.00
     6   6    -0.17  -0.06  -0.00     0.11   0.00   0.00     0.00   0.00   0.00
     7   6     0.01   0.20  -0.00     0.01  -0.17   0.00    -0.00   0.00   0.00
     8   6     0.14  -0.15   0.00    -0.07   0.15  -0.00    -0.00  -0.00  -0.00
     9   6    -0.17  -0.08   0.00     0.06   0.01  -0.00     0.00  -0.00   0.00
    10   1    -0.01  -0.03  -0.00     0.18   0.06   0.00    -0.00  -0.00  -0.00
    11   1    -0.24   0.18  -0.00     0.32  -0.18   0.00    -0.00  -0.00  -0.00
    12   1    -0.09  -0.29   0.00     0.11   0.30  -0.00    -0.00  -0.00   0.00
    13   1     0.11   0.04   0.00     0.21   0.04  -0.00    -0.00  -0.00  -0.01
    14   6    -0.17   0.08  -0.00    -0.06   0.01  -0.00    -0.00  -0.00   0.00
    15   6     0.14   0.15  -0.00     0.07   0.15  -0.00     0.00   0.00  -0.00
    16   6     0.01  -0.20   0.00    -0.01  -0.17   0.00     0.00  -0.00   0.00
    17   6    -0.17   0.06   0.00    -0.11   0.00   0.00    -0.00   0.00   0.00
    18   1     0.11  -0.04  -0.00    -0.21   0.04  -0.00     0.00  -0.00  -0.01
    19   1    -0.09   0.29  -0.00    -0.11   0.30  -0.00     0.00  -0.00   0.00
    20   1    -0.24  -0.18   0.00    -0.32  -0.18   0.00     0.00  -0.00  -0.00
    21   1    -0.01   0.03   0.00    -0.18   0.06   0.00     0.00  -0.00  -0.00
    22   6     0.04   0.00   0.00     0.00  -0.01   0.01     0.00   0.05  -0.08
    23   1    -0.13  -0.00  -0.00    -0.00   0.05  -0.03     0.00  -0.35   0.21
    24   1    -0.03  -0.09   0.04     0.02   0.02  -0.05    -0.13  -0.14   0.35
    25   1    -0.03   0.09  -0.04    -0.02   0.02  -0.05     0.13  -0.14   0.35
    26   6     0.04   0.00  -0.00     0.00  -0.01  -0.01    -0.00  -0.05  -0.08
    27   1    -0.03   0.09   0.04    -0.02   0.02   0.05    -0.13   0.14   0.35
    28   1    -0.03  -0.09  -0.04     0.02   0.02   0.05     0.13   0.14   0.35
    29   1    -0.13  -0.00   0.00    -0.00   0.05   0.03    -0.00   0.35   0.21
                     55                     56                     57
                      A                      A                      A
 Frequencies --   1444.3463              1494.6924              1498.0428
 Red. masses --      1.2166                 2.4283                 2.2408
 Frc consts  --      1.4953                 3.1963                 2.9628
 IR Inten    --      0.5052                 9.9439                23.8852
  Atom  AN      X      Y      Z        X      Y      Z        X      Y      Z
     1   6    -0.00   0.00   0.00    -0.00  -0.03   0.00     0.03   0.00   0.00
     2   6     0.01   0.00  -0.00    -0.08   0.08  -0.00    -0.07  -0.08   0.00
     3   6     0.01  -0.01   0.00    -0.00  -0.09   0.00     0.08   0.00  -0.00
     4   6    -0.01  -0.01   0.00     0.00  -0.09   0.00     0.08  -0.00   0.00
     5   6    -0.01   0.00  -0.00     0.08   0.08  -0.00    -0.07   0.08  -0.00
     6   6    -0.01  -0.00   0.00    -0.11   0.00  -0.00    -0.04  -0.08   0.00
     7   6     0.00  -0.01   0.00    -0.02  -0.06   0.00     0.08   0.07  -0.00
     8   6     0.01   0.00   0.00     0.13  -0.04   0.00    -0.07   0.06  -0.00
     9   6    -0.00   0.01  -0.00    -0.09   0.04  -0.00    -0.07  -0.07   0.00
    10   1     0.01   0.01  -0.00     0.17   0.14  -0.00     0.32   0.05   0.00
    11   1    -0.01   0.01  -0.00    -0.18   0.26  -0.00     0.34  -0.30   0.00
    12   1     0.02   0.05  -0.00     0.07   0.40  -0.00     0.03  -0.25   0.00
    13   1     0.07   0.03  -0.00     0.30   0.15   0.00     0.24   0.01   0.00
    14   6     0.00   0.01  -0.00     0.09   0.04  -0.00    -0.07   0.07  -0.00
    15   6    -0.01   0.00   0.00    -0.13  -0.04   0.00    -0.07  -0.06   0.00
    16   6    -0.00  -0.01   0.00     0.02  -0.06   0.00     0.08  -0.07   0.00
    17   6     0.01  -0.00   0.00     0.11   0.00  -0.00    -0.04   0.08  -0.00
    18   1    -0.07   0.03  -0.00    -0.30   0.15   0.00     0.24  -0.01  -0.00
    19   1    -0.02   0.05  -0.00    -0.07   0.40  -0.00     0.03   0.25  -0.00
    20   1     0.01   0.01  -0.00     0.18   0.26  -0.00     0.34   0.30  -0.00
    21   1    -0.01   0.01  -0.00    -0.17   0.14  -0.00     0.32  -0.05  -0.00
    22   6     0.00   0.06  -0.08     0.00  -0.00   0.01    -0.02  -0.00  -0.00
    23   1     0.00  -0.34   0.21    -0.00   0.06  -0.03     0.11   0.00   0.00
    24   1    -0.15  -0.15   0.34     0.00  -0.00  -0.06     0.01   0.03   0.04
    25   1     0.15  -0.15   0.34    -0.00  -0.00  -0.06     0.01  -0.04  -0.04
    26   6     0.00   0.06   0.08     0.00  -0.00  -0.01    -0.02  -0.00   0.00
    27   1     0.15  -0.15  -0.34    -0.00  -0.00   0.06     0.01  -0.03   0.04
    28   1    -0.15  -0.15  -0.34     0.00  -0.00   0.06     0.01   0.03  -0.04
    29   1     0.00  -0.34  -0.21    -0.00   0.06   0.03     0.11   0.00  -0.00
                     58                     59                     60
                      A                      A                      A
 Frequencies --   1512.7604              1516.9956              1523.2943
 Red. masses --      1.0465                 1.0488                 1.7955
 Frc consts  --      1.4110                 1.4221                 2.4547
 IR Inten    --      0.0000                 3.3835                 1.5440
  Atom  AN      X      Y      Z        X      Y      Z        X      Y      Z
     1   6     0.00  -0.00  -0.00    -0.00  -0.00   0.02     0.00  -0.00  -0.00
     2   6    -0.00  -0.00   0.00    -0.00  -0.00  -0.00    -0.05   0.05   0.00
     3   6     0.00  -0.00  -0.00     0.00  -0.00  -0.00    -0.02  -0.08   0.00
     4   6     0.00   0.00   0.00    -0.00   0.00  -0.00    -0.02   0.08  -0.00
     5   6    -0.00   0.00  -0.00     0.00  -0.00  -0.00    -0.05  -0.05   0.00
     6   6    -0.00  -0.00   0.00     0.00   0.00   0.00     0.08  -0.01   0.00
     7   6     0.00   0.00   0.00    -0.00  -0.00   0.00     0.00   0.08  -0.00
     8   6    -0.00   0.00  -0.00     0.00  -0.00  -0.00    -0.06  -0.02  -0.00
     9   6     0.00  -0.00   0.00     0.00   0.00   0.00     0.08  -0.01   0.00
    10   1     0.00  -0.00  -0.00    -0.00  -0.00   0.00    -0.22  -0.11   0.00
    11   1     0.00  -0.00   0.00    -0.00   0.00  -0.00     0.00  -0.09   0.00
    12   1    -0.00  -0.00  -0.00    -0.00   0.00   0.00    -0.08  -0.29   0.00
    13   1     0.00  -0.00  -0.00    -0.00   0.00  -0.01    -0.22  -0.12   0.00
    14   6    -0.00   0.00  -0.00     0.00   0.00   0.00     0.08   0.01  -0.00
    15   6    -0.00  -0.00   0.00    -0.00  -0.00  -0.00    -0.06   0.02  -0.00
    16   6     0.00  -0.00  -0.00     0.00  -0.00   0.00     0.00  -0.08   0.00
    17   6    -0.00   0.00  -0.00    -0.00   0.00   0.00     0.08   0.01  -0.00
    18   1     0.00   0.00   0.00     0.00   0.00  -0.01    -0.22   0.12  -0.00
    19   1     0.00   0.00   0.00    -0.00   0.00   0.00    -0.08   0.29  -0.00
    20   1     0.00   0.00  -0.00     0.00   0.00  -0.00     0.00   0.09  -0.00
    21   1     0.00   0.00   0.00     0.00   0.00   0.00    -0.22   0.11  -0.00
    22   6     0.04  -0.00  -0.00     0.00   0.04   0.02    -0.03  -0.00   0.00
    23   1    -0.51  -0.00  -0.00    -0.00   0.23  -0.13     0.35   0.00   0.00
    24   1    -0.04  -0.10  -0.33    -0.27  -0.36  -0.10     0.03   0.07   0.23
    25   1    -0.04   0.10   0.33     0.27  -0.36  -0.10     0.03  -0.07  -0.23
    26   6    -0.04   0.00   0.00    -0.00  -0.04   0.02    -0.03  -0.00  -0.00
    27   1     0.04  -0.10   0.33    -0.27   0.36  -0.10     0.03  -0.07   0.23
    28   1     0.04   0.10  -0.33     0.27   0.36  -0.10     0.03   0.07  -0.23
    29   1     0.51   0.00  -0.00     0.00  -0.23  -0.13     0.35   0.00  -0.00
                     61                     62                     63
                      A                      A                      A
 Frequencies --   1526.7905              1532.7845              1538.2266
 Red. masses --      2.2946                 1.2013                 1.3010
 Frc consts  --      3.1515                 1.6629                 1.8137
 IR Inten    --      0.7876                 4.7126                 8.8859
  Atom  AN      X      Y      Z        X      Y      Z        X      Y      Z
     1   6     0.00  -0.02   0.00     0.00  -0.05  -0.00    -0.05  -0.00  -0.00
     2   6     0.04   0.09  -0.00     0.00   0.04  -0.00     0.04  -0.03  -0.00
     3   6    -0.13  -0.02   0.00    -0.04  -0.01   0.00     0.01   0.04  -0.00
     4   6     0.13  -0.02   0.00     0.04  -0.01   0.00     0.01  -0.04   0.00
     5   6    -0.04   0.09  -0.00    -0.00   0.04  -0.00     0.04   0.03   0.00
     6   6    -0.07  -0.08   0.00    -0.02  -0.02   0.00    -0.02   0.01  -0.00
     7   6     0.07   0.07  -0.00     0.02   0.02  -0.00    -0.02  -0.04   0.00
     8   6    -0.06   0.03  -0.00    -0.02   0.01  -0.00     0.05  -0.00   0.00
     9   6    -0.05  -0.05   0.00    -0.02  -0.01   0.00    -0.05   0.01  -0.00
    10   1     0.24   0.04   0.00     0.08   0.01   0.00     0.09   0.06  -0.00
    11   1     0.22  -0.21   0.00     0.06  -0.06   0.00    -0.04   0.09  -0.00
    12   1     0.03  -0.20   0.00     0.01  -0.06   0.00     0.02   0.16  -0.00
    13   1     0.25   0.02  -0.00     0.07   0.00   0.00     0.08   0.05   0.00
    14   6     0.05  -0.05   0.00     0.02  -0.01   0.00    -0.05  -0.01   0.00
    15   6     0.06   0.03  -0.00     0.02   0.01  -0.00     0.05   0.00  -0.00
    16   6    -0.07   0.07  -0.00    -0.02   0.02  -0.00    -0.02   0.04  -0.00
    17   6     0.07  -0.08   0.00     0.02  -0.02   0.00    -0.02  -0.01   0.00
    18   1    -0.25   0.02   0.00    -0.07   0.00   0.00     0.08  -0.05  -0.00
    19   1    -0.03  -0.20   0.00    -0.01  -0.06   0.00     0.02  -0.16   0.00
    20   1    -0.22  -0.21   0.00    -0.06  -0.06   0.00    -0.04  -0.09   0.00
    21   1    -0.24   0.04   0.00    -0.08   0.01  -0.00     0.09  -0.06   0.00
    22   6     0.00   0.02   0.02     0.00  -0.02  -0.02    -0.03  -0.00  -0.00
    23   1    -0.00   0.15  -0.09    -0.00  -0.25   0.14     0.46  -0.00   0.00
    24   1    -0.16  -0.22  -0.07     0.26   0.35   0.09     0.03   0.08   0.32
    25   1     0.16  -0.22  -0.07    -0.26   0.35   0.09     0.03  -0.08  -0.32
    26   6     0.00   0.02  -0.02     0.00  -0.02   0.02    -0.03  -0.00   0.00
    27   1     0.16  -0.22   0.07    -0.26   0.35  -0.09     0.03  -0.08   0.32
    28   1    -0.16  -0.22   0.07     0.26   0.35  -0.09     0.03   0.08  -0.32
    29   1    -0.00   0.15   0.09    -0.00  -0.25  -0.14     0.46  -0.00  -0.00
                     64                     65                     66
                      A                      A                      A
 Frequencies --   1642.0526              1642.5435              1666.9888
 Red. masses --      5.6568                 6.4199                 6.2948
 Frc consts  --      8.9865                10.2049                10.3062
 IR Inten    --      0.5240                 0.1046                 0.0017
  Atom  AN      X      Y      Z        X      Y      Z        X      Y      Z
     1   6     0.00  -0.02   0.00     0.04   0.00  -0.00    -0.00  -0.00  -0.00
     2   6     0.16   0.14  -0.00    -0.13  -0.16   0.00    -0.20   0.00   0.00
     3   6     0.08  -0.17   0.00     0.00   0.24  -0.00     0.20  -0.08   0.00
     4   6    -0.08  -0.17   0.00     0.00  -0.24   0.00    -0.20  -0.08   0.00
     5   6    -0.16   0.14  -0.00    -0.13   0.16  -0.00     0.20   0.00   0.00
     6   6     0.09  -0.09   0.00     0.08  -0.09   0.00    -0.23  -0.06  -0.00
     7   6    -0.02   0.23  -0.00    -0.03   0.22  -0.00     0.10   0.07  -0.00
     8   6     0.10  -0.19   0.00     0.15  -0.20   0.00    -0.14   0.02  -0.00
     9   6     0.04   0.12  -0.00    -0.03   0.12  -0.00     0.23   0.07   0.00
    10   1    -0.22   0.05  -0.00    -0.07   0.13  -0.00    -0.32  -0.11   0.00
    11   1    -0.27   0.13  -0.00    -0.30   0.18  -0.00     0.04  -0.16   0.00
    12   1    -0.14  -0.31   0.00    -0.14  -0.25   0.00     0.07  -0.12   0.00
    13   1    -0.08  -0.17   0.00    -0.05  -0.14   0.00     0.29   0.12   0.00
    14   6    -0.04   0.12  -0.00    -0.03  -0.12   0.00    -0.23   0.07  -0.00
    15   6    -0.10  -0.19   0.00     0.15   0.21  -0.00     0.14   0.02  -0.00
    16   6     0.02   0.23  -0.00    -0.03  -0.22   0.00    -0.10   0.07  -0.00
    17   6    -0.09  -0.09   0.00     0.08   0.09  -0.00     0.23  -0.06  -0.00
    18   1     0.08  -0.17   0.00    -0.05   0.14  -0.00    -0.29   0.12   0.00
    19   1     0.14  -0.31   0.00    -0.14   0.25  -0.00    -0.07  -0.12   0.00
    20   1     0.27   0.12  -0.00    -0.30  -0.18   0.00    -0.04  -0.16   0.00
    21   1     0.21   0.04  -0.00    -0.07  -0.13   0.00     0.32  -0.11   0.00
    22   6    -0.00  -0.00   0.00    -0.01   0.00  -0.00     0.00  -0.00   0.01
    23   1    -0.00   0.00  -0.00    -0.03  -0.00   0.00     0.00   0.02  -0.01
    24   1     0.01   0.00  -0.00     0.00   0.01  -0.05     0.01   0.00  -0.02
    25   1    -0.01   0.00  -0.00     0.00  -0.01   0.05    -0.01   0.00  -0.02
    26   6    -0.00  -0.00  -0.00    -0.01   0.00   0.00     0.00  -0.00  -0.01
    27   1    -0.01   0.00   0.00     0.00  -0.01  -0.05    -0.01   0.00   0.02
    28   1     0.01   0.00   0.00     0.00   0.01   0.05     0.01   0.00   0.02
    29   1    -0.00   0.00   0.00    -0.03  -0.00  -0.00     0.00   0.02   0.01
                     67                     68                     69
                      A                      A                      A
 Frequencies --   1668.8873              3046.9518              3051.2877
 Red. masses --      6.6252                 1.0343                 1.0348
 Frc consts  --     10.8719                 5.6578                 5.6762
 IR Inten    --      2.5011                20.0217                39.7129
  Atom  AN      X      Y      Z        X      Y      Z        X      Y      Z
     1   6     0.07   0.00  -0.00     0.00  -0.00   0.00    -0.00   0.00   0.00
     2   6    -0.20   0.02   0.00     0.00  -0.00  -0.00     0.00  -0.00   0.00
     3   6     0.14  -0.15   0.00    -0.00   0.00  -0.00    -0.00   0.00   0.00
     4   6     0.14   0.15  -0.00     0.00   0.00  -0.00     0.00   0.00  -0.00
     5   6    -0.20  -0.02  -0.00    -0.00  -0.00  -0.00    -0.00  -0.00   0.00
     6   6     0.25   0.07   0.00     0.00  -0.00   0.00     0.00  -0.00   0.00
     7   6    -0.10  -0.10   0.00     0.00   0.00   0.00     0.00  -0.00  -0.00
     8   6     0.13   0.00   0.00     0.00  -0.00  -0.00     0.00   0.00   0.00
     9   6    -0.23  -0.10   0.00    -0.00   0.00   0.00    -0.00   0.00  -0.00
    10   1     0.28   0.07  -0.00     0.00  -0.00   0.00     0.00  -0.00   0.00
    11   1    -0.01   0.14  -0.00     0.00  -0.00  -0.00    -0.00  -0.00   0.00
    12   1    -0.07   0.13  -0.00     0.00   0.00   0.00    -0.00   0.00  -0.00
    13   1    -0.31  -0.12  -0.00    -0.00   0.00  -0.00    -0.00   0.01  -0.00
    14   6    -0.23   0.10  -0.00     0.00   0.00   0.00     0.00   0.00  -0.00
    15   6     0.13  -0.00  -0.00    -0.00  -0.00  -0.00    -0.00   0.00   0.00
    16   6    -0.10   0.10  -0.00    -0.00   0.00   0.00    -0.00  -0.00  -0.00
    17   6     0.25  -0.07  -0.00    -0.00  -0.00   0.00    -0.00  -0.00   0.00
    18   1    -0.31   0.12   0.00     0.00   0.00  -0.00     0.00   0.01  -0.00
    19   1    -0.07  -0.13   0.00    -0.00   0.00   0.00     0.00   0.00  -0.00
    20   1    -0.01  -0.14   0.00    -0.00  -0.00  -0.00     0.00  -0.00   0.00
    21   1     0.28  -0.07   0.00    -0.00  -0.00   0.00    -0.00  -0.00   0.00
    22   6    -0.00  -0.00   0.00    -0.00   0.03  -0.02    -0.00   0.03  -0.02
    23   1    -0.05  -0.00  -0.00    -0.00   0.20   0.27    -0.00   0.20   0.28
    24   1     0.00   0.01  -0.06     0.36  -0.25  -0.00     0.36  -0.25   0.00
    25   1     0.00  -0.01   0.06    -0.36  -0.25  -0.00    -0.36  -0.25   0.00
    26   6    -0.00  -0.00  -0.00     0.00  -0.03  -0.02    -0.00   0.03   0.02
    27   1     0.00  -0.01  -0.06     0.36   0.25  -0.00    -0.36  -0.25  -0.00
    28   1     0.00   0.01   0.06    -0.36   0.25  -0.00     0.36  -0.25  -0.00
    29   1    -0.05  -0.00   0.00     0.00  -0.20   0.27    -0.00   0.20  -0.28
                     70                     71                     72
                      A                      A                      A
 Frequencies --   3112.2580              3117.6129              3131.1544
 Red. masses --      1.1031                 1.1023                 1.1027
 Frc consts  --      6.2955                 6.3127                 6.3694
 IR Inten    --      0.0000                46.7834                18.6478
  Atom  AN      X      Y      Z        X      Y      Z        X      Y      Z
     1   6    -0.00   0.00  -0.00    -0.00   0.00  -0.00    -0.00  -0.00  -0.00
     2   6     0.00  -0.00   0.00     0.00  -0.00  -0.00    -0.00   0.00   0.00
     3   6    -0.00  -0.00  -0.00    -0.00  -0.00   0.00    -0.00   0.00   0.00
     4   6    -0.00   0.00   0.00    -0.00   0.00  -0.00     0.00   0.00   0.00
     5   6     0.00   0.00  -0.00     0.00   0.00   0.00     0.00   0.00   0.00
     6   6     0.00  -0.00   0.00     0.00  -0.00   0.00    -0.00   0.00   0.00
     7   6    -0.00   0.00   0.00    -0.00   0.00  -0.00     0.00  -0.00  -0.00
     8   6    -0.00  -0.00   0.00     0.00  -0.00  -0.00    -0.00  -0.00   0.00
     9   6     0.00  -0.00  -0.00     0.00  -0.00   0.00    -0.00   0.00  -0.00
    10   1    -0.00   0.00  -0.00    -0.00   0.00   0.00     0.00  -0.00  -0.00
    11   1     0.00   0.00  -0.00     0.00  -0.00   0.00     0.00   0.00   0.00
    12   1     0.00  -0.00  -0.00     0.01  -0.00   0.00    -0.00   0.00  -0.00
    13   1    -0.00   0.00  -0.00    -0.01   0.03  -0.00     0.00  -0.00   0.00
    14   6     0.00   0.00   0.00     0.00   0.00  -0.00     0.00   0.00  -0.00
    15   6    -0.00   0.00  -0.00     0.00   0.00   0.00     0.00  -0.00   0.00
    16   6    -0.00  -0.00  -0.00    -0.00  -0.00   0.00    -0.00  -0.00  -0.00
    17   6     0.00   0.00  -0.00     0.00   0.00  -0.00     0.00   0.00   0.00
    18   1    -0.00  -0.00   0.00    -0.01  -0.03   0.00    -0.00  -0.00   0.00
    19   1     0.00   0.00   0.00     0.01   0.00  -0.00     0.00   0.00  -0.00
    20   1     0.00  -0.00   0.00     0.00   0.00  -0.00    -0.00   0.00   0.00
    21   1    -0.00  -0.00   0.00    -0.00  -0.00  -0.00    -0.00  -0.00  -0.00
    22   6    -0.07  -0.00   0.00    -0.07   0.00   0.00    -0.00  -0.05  -0.04
    23   1    -0.02  -0.00  -0.00    -0.01  -0.00  -0.00    -0.00   0.35   0.51
    24   1     0.40  -0.30   0.00     0.40  -0.30   0.00    -0.20   0.13  -0.01
    25   1     0.40   0.30  -0.00     0.40   0.30  -0.00     0.20   0.13  -0.01
    26   6     0.07   0.00   0.00    -0.07   0.00  -0.00     0.00   0.05  -0.04
    27   1    -0.40  -0.30  -0.00     0.40   0.30   0.00    -0.20  -0.13  -0.01
    28   1    -0.40   0.30   0.00     0.40  -0.30  -0.01     0.19  -0.13  -0.01
    29   1     0.02   0.00  -0.00    -0.01  -0.00   0.00     0.00  -0.35   0.51
                     73                     74                     75
                      A                      A                      A
 Frequencies --   3132.4935              3177.8409              3178.3705
 Red. masses --      1.1026                 1.0856                 1.0858
 Frc consts  --      6.3744                 6.4594                 6.4624
 IR Inten    --     26.8225                 2.0171                 9.7602
  Atom  AN      X      Y      Z        X      Y      Z        X      Y      Z
     1   6     0.00   0.00  -0.00    -0.00  -0.00  -0.00     0.00  -0.00  -0.00
     2   6     0.00  -0.00   0.00     0.00  -0.00  -0.00     0.00  -0.00  -0.00
     3   6     0.00  -0.00   0.00    -0.00   0.00  -0.00    -0.00   0.00  -0.00
     4   6    -0.00  -0.00   0.00    -0.00  -0.00   0.00     0.00   0.00  -0.00
     5   6    -0.00  -0.00   0.00     0.00   0.00   0.00    -0.00  -0.00  -0.00
     6   6     0.00  -0.00   0.00    -0.01   0.04  -0.00     0.02  -0.04   0.00
     7   6    -0.00   0.00  -0.00     0.03  -0.01   0.00    -0.03   0.01  -0.00
     8   6     0.00   0.00   0.00    -0.02  -0.02   0.00     0.01   0.02  -0.00
     9   6     0.00  -0.00  -0.00    -0.01   0.02  -0.00     0.00  -0.02   0.00
    10   1    -0.00   0.00  -0.00     0.07  -0.22   0.00    -0.06   0.18  -0.00
    11   1    -0.00  -0.00   0.00     0.18   0.20  -0.00    -0.18  -0.20   0.00
    12   1     0.00  -0.00  -0.00    -0.34   0.07  -0.00     0.37  -0.07   0.00
    13   1    -0.01   0.02  -0.00     0.16  -0.45   0.00    -0.17   0.49  -0.00
    14   6    -0.00  -0.00  -0.00    -0.01  -0.02   0.00    -0.00  -0.01   0.00
    15   6    -0.00   0.00   0.00    -0.02   0.02  -0.00    -0.01   0.02  -0.00
    16   6     0.00   0.00  -0.00     0.03   0.01  -0.00     0.03   0.01  -0.00
    17   6    -0.00  -0.00   0.00    -0.01  -0.04   0.00    -0.01  -0.04   0.00
    18   1     0.01   0.02  -0.00     0.16   0.47  -0.00     0.16   0.47  -0.00
    19   1    -0.00  -0.00  -0.00    -0.35  -0.07   0.00    -0.36  -0.07   0.00
    20   1     0.00  -0.00   0.00     0.19  -0.21   0.00     0.17  -0.19   0.00
    21   1     0.00   0.00  -0.00     0.07   0.22  -0.00     0.06   0.17  -0.00
    22   6     0.00   0.05   0.04    -0.00  -0.00  -0.00     0.00  -0.00  -0.00
    23   1     0.00  -0.35  -0.51    -0.00   0.00   0.00     0.00   0.01   0.01
    24   1     0.20  -0.13   0.01     0.01  -0.01   0.00    -0.01   0.01  -0.00
    25   1    -0.20  -0.13   0.01     0.01   0.01  -0.00     0.01   0.01  -0.00
    26   6     0.00   0.05  -0.04    -0.00  -0.00   0.00     0.00  -0.00   0.00
    27   1    -0.20  -0.13  -0.01     0.01   0.01   0.00     0.01   0.01   0.00
    28   1     0.20  -0.13  -0.01     0.01  -0.01  -0.00    -0.01   0.01   0.00
    29   1     0.00  -0.35   0.51    -0.00   0.00  -0.00     0.00   0.01  -0.01
                     76                     77                     78
                      A                      A                      A
 Frequencies --   3183.8663              3185.6682              3195.1062
 Red. masses --      1.0881                 1.0881                 1.0926
 Frc consts  --      6.4987                 6.5063                 6.5717
 IR Inten    --      3.3490                 4.1193                 8.4829
  Atom  AN      X      Y      Z        X      Y      Z        X      Y      Z
     1   6     0.00   0.00  -0.00    -0.00   0.00   0.00    -0.00  -0.00  -0.00
     2   6     0.00  -0.00  -0.00    -0.00   0.00   0.00     0.00   0.00  -0.00
     3   6     0.00  -0.00   0.00    -0.00   0.00  -0.00    -0.00   0.00  -0.00
     4   6     0.00   0.00  -0.00     0.00   0.00  -0.00    -0.00  -0.00   0.00
     5   6     0.00   0.00   0.00     0.00   0.00   0.00     0.00  -0.00   0.00
     6   6    -0.01   0.03  -0.00    -0.01   0.03  -0.00    -0.01   0.02  -0.00
     7   6     0.00  -0.00   0.00    -0.00  -0.00   0.00    -0.03   0.01  -0.00
     8   6     0.02   0.02  -0.00     0.02   0.03  -0.00     0.02   0.02  -0.00
     9   6     0.01  -0.04   0.00     0.01  -0.04   0.00    -0.01   0.03  -0.00
    10   1    -0.15   0.47  -0.00    -0.14   0.42  -0.00     0.12  -0.37   0.00
    11   1    -0.22  -0.24   0.00    -0.26  -0.30   0.00    -0.21  -0.23   0.00
    12   1    -0.04   0.01  -0.00     0.01  -0.00   0.00     0.40  -0.08   0.00
    13   1     0.12  -0.36   0.00     0.12  -0.35   0.00     0.09  -0.27   0.00
    14   6     0.01   0.04  -0.00    -0.01  -0.04   0.00    -0.01  -0.03   0.00
    15   6     0.02  -0.02   0.00    -0.02   0.03  -0.00     0.02  -0.02   0.00
    16   6     0.00   0.00  -0.00     0.00  -0.00   0.00    -0.03  -0.01   0.00
    17   6    -0.01  -0.03   0.00     0.01   0.03  -0.00    -0.01  -0.02   0.00
    18   1     0.12   0.36  -0.00    -0.12  -0.35   0.00     0.09   0.27  -0.00
    19   1    -0.04  -0.01   0.00    -0.01  -0.00   0.00     0.40   0.08  -0.00
    20   1    -0.22   0.24  -0.00     0.26  -0.30   0.00    -0.21   0.23  -0.00
    21   1    -0.15  -0.47   0.00     0.14   0.42  -0.00     0.12   0.37  -0.00
    22   6    -0.00   0.00   0.00    -0.00   0.00   0.00    -0.00  -0.00  -0.00
    23   1    -0.00  -0.00  -0.00     0.00  -0.00  -0.01    -0.00  -0.00   0.00
    24   1     0.01  -0.01  -0.00     0.01  -0.01   0.00     0.01  -0.00  -0.00
    25   1     0.01   0.01   0.00    -0.01  -0.01   0.00     0.01   0.00   0.00
    26   6    -0.00   0.00  -0.00    -0.00   0.00  -0.00    -0.00  -0.00   0.00
    27   1     0.01   0.01  -0.00    -0.01  -0.01  -0.00     0.01   0.00  -0.00
    28   1     0.01  -0.01   0.00     0.01  -0.01  -0.00     0.01  -0.00   0.00
    29   1    -0.00  -0.00   0.00     0.00  -0.00   0.01    -0.00  -0.00  -0.00
                     79                     80                     81
                      A                      A                      A
 Frequencies --   3196.3864              3208.0355              3208.8377
 Red. masses --      1.0925                 1.0971                 1.0970
 Frc consts  --      6.5767                 6.6522                 6.6551
 IR Inten    --     49.5609                64.0064                 9.6913
  Atom  AN      X      Y      Z        X      Y      Z        X      Y      Z
     1   6     0.00  -0.00   0.00     0.00   0.00  -0.00    -0.00   0.00   0.00
     2   6     0.00   0.00  -0.00     0.00  -0.00  -0.00    -0.00   0.00  -0.00
     3   6    -0.00   0.00  -0.00     0.00  -0.00   0.00    -0.00   0.00  -0.00
     4   6     0.00   0.00  -0.00     0.00   0.00  -0.00     0.00   0.00  -0.00
     5   6    -0.00   0.00  -0.00     0.00   0.00   0.00     0.00   0.00  -0.00
     6   6     0.01  -0.02   0.00    -0.00   0.02  -0.00    -0.00   0.02  -0.00
     7   6     0.04  -0.01   0.00    -0.04   0.01  -0.00    -0.04   0.01  -0.00
     8   6    -0.02  -0.01   0.00    -0.03  -0.03   0.00    -0.03  -0.03   0.00
     9   6     0.01  -0.04   0.00     0.01  -0.02   0.00     0.01  -0.02   0.00
    10   1    -0.14   0.42  -0.00    -0.07   0.21  -0.00    -0.08   0.24  -0.00
    11   1     0.16   0.18  -0.00     0.31   0.35  -0.00     0.31   0.35  -0.00
    12   1    -0.41   0.08  -0.00     0.44  -0.09   0.00     0.43  -0.09   0.00
    13   1    -0.08   0.25  -0.00     0.05  -0.16   0.00     0.05  -0.16   0.00
    14   6    -0.01  -0.04   0.00     0.01   0.02  -0.00    -0.01  -0.02   0.00
    15   6     0.02  -0.01   0.00    -0.03   0.03  -0.00     0.03  -0.03   0.00
    16   6    -0.04  -0.01   0.00    -0.04  -0.01   0.00     0.04   0.01  -0.00
    17   6    -0.01  -0.02   0.00    -0.00  -0.02   0.00     0.00   0.02  -0.00
    18   1     0.08   0.25  -0.00     0.05   0.16  -0.00    -0.05  -0.16   0.00
    19   1     0.41   0.08  -0.00     0.44   0.09  -0.00    -0.43  -0.09   0.00
    20   1    -0.16   0.18  -0.00     0.31  -0.35   0.00    -0.31   0.35  -0.00
    21   1     0.14   0.42  -0.00    -0.07  -0.21   0.00     0.08   0.24  -0.00
    22   6     0.00  -0.00  -0.00    -0.00   0.00   0.00    -0.00   0.00   0.00
    23   1    -0.00   0.00   0.00     0.00  -0.00  -0.00     0.00  -0.00  -0.00
    24   1    -0.00   0.00  -0.00     0.00  -0.00  -0.00     0.00  -0.00   0.00
    25   1     0.00   0.00  -0.00     0.00   0.00   0.00    -0.00  -0.00   0.00
    26   6     0.00  -0.00   0.00    -0.00   0.00  -0.00    -0.00   0.00  -0.00
    27   1     0.00   0.00   0.00     0.00   0.00  -0.00    -0.00  -0.00  -0.00
    28   1    -0.00   0.00   0.00     0.00  -0.00   0.00     0.00  -0.00  -0.00
    29   1    -0.00   0.00  -0.00     0.00  -0.00   0.00     0.00  -0.00   0.00

 -------------------
 - Thermochemistry -
 -------------------
 Temperature   298.150 Kelvin.  Pressure   1.00000 Atm.
 Atom     1 has atomic number  6 and mass  12.00000
 Atom     2 has atomic number  6 and mass  12.00000
 Atom     3 has atomic number  6 and mass  12.00000
 Atom     4 has atomic number  6 and mass  12.00000
 Atom     5 has atomic number  6 and mass  12.00000
 Atom     6 has atomic number  6 and mass  12.00000
 Atom     7 has atomic number  6 and mass  12.00000
 Atom     8 has atomic number  6 and mass  12.00000
 Atom     9 has atomic number  6 and mass  12.00000
 Atom    10 has atomic number  1 and mass   1.00783
 Atom    11 has atomic number  1 and mass   1.00783
 Atom    12 has atomic number  1 and mass   1.00783
 Atom    13 has atomic number  1 and mass   1.00783
 Atom    14 has atomic number  6 and mass  12.00000
 Atom    15 has atomic number  6 and mass  12.00000
 Atom    16 has atomic number  6 and mass  12.00000
 Atom    17 has atomic number  6 and mass  12.00000
 Atom    18 has atomic number  1 and mass   1.00783
 Atom    19 has atomic number  1 and mass   1.00783
 Atom    20 has atomic number  1 and mass   1.00783
 Atom    21 has atomic number  1 and mass   1.00783
 Atom    22 has atomic number  6 and mass  12.00000
 Atom    23 has atomic number  1 and mass   1.00783
 Atom    24 has atomic number  1 and mass   1.00783
 Atom    25 has atomic number  1 and mass   1.00783
 Atom    26 has atomic number  6 and mass  12.00000
 Atom    27 has atomic number  1 and mass   1.00783
 Atom    28 has atomic number  1 and mass   1.00783
 Atom    29 has atomic number  1 and mass   1.00783
 Molecular mass:   194.10955 amu.
 Principal axes and moments of inertia in atomic units:
                           1         2         3
     Eigenvalues --  1702.543073280.141714593.58757
           X            1.00000   0.00000   0.00000
           Y           -0.00000   1.00000  -0.00000
           Z           -0.00000   0.00000   1.00000
 This molecule is an asymmetric top.
 Rotational symmetry number  1.
 Warning -- assumption of classical behavior for rotation
           may cause significant error
 Rotational temperatures (Kelvin)      0.05087     0.02641     0.01886
 Rotational constants (GHZ):           1.06003     0.55020     0.39288
 Zero-point vibrational energy     643373.5 (Joules/Mol)
                                  153.76995 (Kcal/Mol)
 Warning -- explicit consideration of  19 degrees of freedom as
           vibrations may cause significant error
 Vibrational temperatures:    112.89   166.43   178.16   279.83   294.90
          (Kelvin)            348.99   362.85   414.97   461.93   470.96
                              511.26   612.40   630.11   712.58   754.37
                              806.95   832.81   837.85   873.72   919.71
                             1043.74  1081.96  1101.74  1120.53  1124.98
                             1160.69  1163.96  1270.76  1280.40  1350.14
                             1351.21  1370.56  1383.76  1405.34  1408.89
                             1482.93  1503.98  1520.78  1521.77  1592.57
                             1614.41  1647.59  1672.77  1692.89  1717.10
                             1717.13  1789.04  1807.56  1855.85  1917.81
                             1920.32  1954.82  2019.23  2046.56  2078.09
                             2150.53  2155.35  2176.52  2182.62  2191.68
                             2196.71  2205.33  2213.16  2362.55  2363.25
                             2398.43  2401.16  4383.88  4390.12  4477.85
                             4485.55  4505.03  4506.96  4572.20  4572.97
                             4580.87  4583.47  4597.05  4598.89  4615.65
                             4616.80
 
 Zero-point correction=                           0.245048 (Hartree/Particle)
 Thermal correction to Energy=                    0.256918
 Thermal correction to Enthalpy=                  0.257863
 Thermal correction to Gibbs Free Energy=         0.207842
 Sum of electronic and zero-point Energies=           -579.870976
 Sum of electronic and thermal Energies=              -579.859106
 Sum of electronic and thermal Enthalpies=            -579.858161
 Sum of electronic and thermal Free Energies=         -579.908182
 
                     E (Thermal)             CV                S
                      KCal/Mol        Cal/Mol-Kelvin    Cal/Mol-Kelvin
 Total                  161.219             49.346            105.276
 Electronic               0.000              0.000              0.000
 Translational            0.889              2.981             41.695
 Rotational               0.889              2.981             31.617
 Vibrational            159.441             43.384             31.964
 Vibration     1          0.600              1.964              3.929
 Vibration     2          0.608              1.936              3.171
 Vibration     3          0.610              1.929              3.040
 Vibration     4          0.635              1.848              2.185
 Vibration     5          0.640              1.833              2.088
 Vibration     6          0.659              1.775              1.784
 Vibration     7          0.664              1.759              1.715
 Vibration     8          0.685              1.695              1.483
 Vibration     9          0.707              1.633              1.305
 Vibration    10          0.711              1.621              1.273
 Vibration    11          0.731              1.564              1.142
 Vibration    12          0.787              1.414              0.873
 Vibration    13          0.798              1.387              0.833
 Vibration    14          0.851              1.261              0.670
 Vibration    15          0.879              1.196              0.600
 Vibration    16          0.917              1.116              0.522
 Vibration    17          0.935              1.077              0.488
 Vibration    18          0.939              1.070              0.481
 Vibration    19          0.966              1.016              0.437
                       Q            Log10(Q)             Ln(Q)
 Total Bot       0.250719D-95        -95.600813       -220.129007
 Total V=0       0.129822D+18         17.113347         39.404938
 Vib (Bot)       0.130091-109       -109.885754       -253.021300
 Vib (Bot)    1  0.262539D+01          0.419193          0.965228
 Vib (Bot)    2  0.176838D+01          0.247576          0.570065
 Vib (Bot)    3  0.164881D+01          0.217170          0.500052
 Vib (Bot)    4  0.102732D+01          0.011708          0.026958
 Vib (Bot)    5  0.970967D+00         -0.012796         -0.029463
 Vib (Bot)    6  0.807420D+00         -0.092901         -0.213911
 Vib (Bot)    7  0.773091D+00         -0.111770         -0.257359
 Vib (Bot)    8  0.663619D+00         -0.178081         -0.410047
 Vib (Bot)    9  0.585142D+00         -0.232739         -0.535901
 Vib (Bot)   10  0.571750D+00         -0.242793         -0.559053
 Vib (Bot)   11  0.517409D+00         -0.286166         -0.658922
 Vib (Bot)   12  0.410748D+00         -0.386425         -0.889777
 Vib (Bot)   13  0.395372D+00         -0.402994         -0.927928
 Vib (Bot)   14  0.333236D+00         -0.477248         -1.098904
 Vib (Bot)   15  0.306637D+00         -0.513375         -1.182090
 Vib (Bot)   16  0.276882D+00         -0.557705         -1.284162
 Vib (Bot)   17  0.263568D+00         -0.579107         -1.333444
 Vib (Bot)   18  0.261063D+00         -0.583254         -1.342992
 Vib (Bot)   19  0.244049D+00         -0.612523         -1.410387
 Vib (V=0)       0.673606D+03          2.828406          6.512645
 Vib (V=0)    1  0.317257D+01          0.501412          1.154543
 Vib (V=0)    2  0.233771D+01          0.368790          0.849171
 Vib (V=0)    3  0.222295D+01          0.346930          0.798836
 Vib (V=0)    4  0.164254D+01          0.215516          0.496243
 Vib (V=0)    5  0.159214D+01          0.201982          0.465081
 Vib (V=0)    6  0.144970D+01          0.161278          0.371355
 Vib (V=0)    7  0.142069D+01          0.152499          0.351142
 Vib (V=0)    8  0.133090D+01          0.124145          0.285853
 Vib (V=0)    9  0.126967D+01          0.103691          0.238757
 Vib (V=0)   10  0.125954D+01          0.100211          0.230745
 Vib (V=0)   11  0.121952D+01          0.086190          0.198459
 Vib (V=0)   12  0.114708D+01          0.059594          0.137220
 Vib (V=0)   13  0.113743D+01          0.055925          0.128773
 Vib (V=0)   14  0.110087D+01          0.041737          0.096102
 Vib (V=0)   15  0.108654D+01          0.036045          0.082996
 Vib (V=0)   16  0.107155D+01          0.030010          0.069102
 Vib (V=0)   17  0.106522D+01          0.027437          0.063177
 Vib (V=0)   18  0.106405D+01          0.026963          0.062084
 Vib (V=0)   19  0.105638D+01          0.023821          0.054849
 Electronic      0.100000D+01          0.000000          0.000000
 Translational   0.106298D+09          8.026524         18.481755
 Rotational      0.181308D+07          6.258417         14.410538
 ***** Axes restored to original set *****
 -------------------------------------------------------------------
 Center     Atomic                   Forces (Hartrees/Bohr)
 Number     Number              X              Y              Z
 -------------------------------------------------------------------
      1        6          -0.000066386    0.000025761   -0.000006806
      2        6          -0.000065526   -0.000049023    0.000002511
      3        6           0.000088930   -0.000015596   -0.000002192
      4        6           0.000019955   -0.000068971    0.000001338
      5        6           0.000042727    0.000088689   -0.000001150
      6        6          -0.000036343   -0.000015077    0.000000068
      7        6           0.000053785   -0.000027039   -0.000000143
      8        6          -0.000019036    0.000059752   -0.000000406
      9        6          -0.000030994   -0.000022110    0.000001078
     10        1           0.000002449   -0.000002851   -0.000000030
     11        1           0.000007215    0.000007807   -0.000000301
     12        1           0.000012921   -0.000000697   -0.000000194
     13        1          -0.000009211    0.000001202    0.000000098
     14        6           0.000011893    0.000038345   -0.000000205
     15        6          -0.000062931    0.000013282    0.000001042
     16        6           0.000030423   -0.000053490   -0.000000127
     17        6          -0.000000452    0.000040725   -0.000000025
     18        1           0.000001470    0.000012894   -0.000000468
     19        1           0.000003521   -0.000013248    0.000000065
     20        1          -0.000003453   -0.000008237    0.000000262
     21        1           0.000001324   -0.000008126   -0.000000051
     22        6           0.000012377   -0.000003887   -0.000002191
     23        1           0.000013548   -0.000011082   -0.000010111
     24        1          -0.000008657    0.000008071    0.000007320
     25        1          -0.000008888    0.000005282    0.000008760
     26        6           0.000013158   -0.000004843    0.000006124
     27        1          -0.000009556    0.000005129   -0.000007983
     28        1          -0.000008434    0.000008006   -0.000006361
     29        1           0.000014169   -0.000010668    0.000010076
 -------------------------------------------------------------------
 Cartesian Forces:  Max     0.000088930 RMS     0.000026136
 FormGI is forming the generalized inverse of G from B-inverse, IUseBI=4.
 Leave Link  716 at Thu Aug 20 10:14:45 2026, MaxMem=   104857600 cpu:               0.0 elap:               0.1
 (Enter /sw/cluster/pub/apps//g16/l103.exe)

 GradGradGradGradGradGradGradGradGradGradGradGradGradGradGradGradGradGrad
 Berny optimization.
 Red2BG is reusing G-inverse.
 Internal  Forces:  Max     0.000059915 RMS     0.000014190
 Search for a local minimum.
 Step number   1 out of a maximum of    2
 All quantities printed in internal units (Hartrees-Bohrs-Radians)
 Second derivative matrix not updated -- analytic derivatives used.
 ITU=  0
     Eigenvalues ---    0.00296   0.00375   0.00577   0.01040   0.01324
     Eigenvalues ---    0.01553   0.01669   0.01698   0.01755   0.01832
     Eigenvalues ---    0.01971   0.02151   0.02198   0.02427   0.02481
     Eigenvalues ---    0.02517   0.02780   0.02783   0.02819   0.02822
     Eigenvalues ---    0.04153   0.04694   0.04702   0.04777   0.04820
     Eigenvalues ---    0.04881   0.06528   0.09418   0.11022   0.11120
     Eigenvalues ---    0.11386   0.11614   0.12380   0.12488   0.12509
     Eigenvalues ---    0.12510   0.12573   0.12790   0.14767   0.14784
     Eigenvalues ---    0.15427   0.15826   0.16652   0.18054   0.19366
     Eigenvalues ---    0.19377   0.19532   0.19558   0.20001   0.20673
     Eigenvalues ---    0.23931   0.24017   0.27355   0.28675   0.29710
     Eigenvalues ---    0.29964   0.32118   0.33625   0.33775   0.33889
     Eigenvalues ---    0.34069   0.34740   0.34813   0.35355   0.35682
     Eigenvalues ---    0.35713   0.35951   0.35972   0.36038   0.36209
     Eigenvalues ---    0.36222   0.36771   0.40328   0.41863   0.41905
     Eigenvalues ---    0.45441   0.46026   0.47299   0.47783   0.51452
     Eigenvalues ---    0.51823
 Angle between quadratic step and forces=  48.81 degrees.
 Linear search not attempted -- first point.
 Iteration  1 RMS(Cart)=  0.00023949 RMS(Int)=  0.00000004
 Iteration  2 RMS(Cart)=  0.00000005 RMS(Int)=  0.00000001
 ITry= 1 IFail=0 DXMaxC= 1.27D-03 DCOld= 1.00D+10 DXMaxT= 3.00D-01 DXLimC= 3.00D+00 Rises=F
 Variable       Old X    -DE/DX   Delta X   Delta X   Delta X     New X
                                 (Linear)    (Quad)   (Total)
    R1        2.88365   0.00004   0.00000   0.00016   0.00016   2.88381
    R2        2.88359   0.00005   0.00000   0.00023   0.00023   2.88381
    R3        2.91348  -0.00000   0.00000  -0.00004  -0.00004   2.91344
    R4        2.91352  -0.00001   0.00000  -0.00008  -0.00008   2.91344
    R5        2.66252   0.00006   0.00000   0.00018   0.00018   2.66270
    R6        2.62392  -0.00001   0.00000  -0.00008  -0.00008   2.62384
    R7        2.77417   0.00000   0.00000  -0.00005  -0.00005   2.77411
    R8        2.63615  -0.00001   0.00000  -0.00006  -0.00006   2.63609
    R9        2.66251   0.00006   0.00000   0.00018   0.00018   2.66270
   R10        2.63615  -0.00001   0.00000  -0.00006  -0.00006   2.63609
   R11        2.62393  -0.00001   0.00000  -0.00009  -0.00009   2.62384
   R12        2.64530   0.00004   0.00000   0.00013   0.00013   2.64543
   R13        2.05459   0.00001   0.00000   0.00001   0.00001   2.05461
   R14        2.64291  -0.00004   0.00000  -0.00014  -0.00014   2.64278
   R15        2.05296   0.00001   0.00000   0.00001   0.00001   2.05298
   R16        2.63919   0.00004   0.00000   0.00012   0.00012   2.63930
   R17        2.05307   0.00001   0.00000   0.00002   0.00002   2.05309
   R18        2.05366   0.00000   0.00000   0.00001   0.00001   2.05367
   R19        2.63918   0.00004   0.00000   0.00012   0.00012   2.63930
   R20        2.05366   0.00000   0.00000   0.00001   0.00001   2.05367
   R21        2.64291  -0.00004   0.00000  -0.00013  -0.00013   2.64278
   R22        2.05307   0.00001   0.00000   0.00002   0.00002   2.05309
   R23        2.64530   0.00004   0.00000   0.00013   0.00013   2.64543
   R24        2.05296   0.00001   0.00000   0.00001   0.00001   2.05298
   R25        2.05460   0.00000   0.00000   0.00001   0.00001   2.05461
   R26        2.06776   0.00000   0.00000   0.00001   0.00001   2.06777
   R27        2.07081   0.00001   0.00000   0.00002   0.00002   2.07083
   R28        2.07080   0.00001   0.00000   0.00003   0.00003   2.07083
   R29        2.07080   0.00001   0.00000   0.00003   0.00003   2.07083
   R30        2.07081   0.00001   0.00000   0.00002   0.00002   2.07083
   R31        2.06776   0.00000   0.00000   0.00001   0.00001   2.06777
    A1        1.76945   0.00001   0.00000  -0.00002  -0.00002   1.76943
    A2        1.94203  -0.00001   0.00000  -0.00011  -0.00011   1.94192
    A3        1.94195  -0.00001   0.00000  -0.00004  -0.00004   1.94192
    A4        1.94208  -0.00001   0.00000  -0.00017  -0.00017   1.94192
    A5        1.94202  -0.00001   0.00000  -0.00010  -0.00010   1.94192
    A6        1.92219   0.00003   0.00000   0.00039   0.00039   1.92259
    A7        1.93425  -0.00001   0.00000  -0.00001  -0.00001   1.93424
    A8        2.24805  -0.00001   0.00000  -0.00012  -0.00012   2.24793
    A9        2.10089   0.00002   0.00000   0.00013   0.00013   2.10102
   A10        1.89341   0.00001   0.00000   0.00002   0.00002   1.89343
   A11        2.10450  -0.00003   0.00000  -0.00015  -0.00015   2.10435
   A12        2.28527   0.00002   0.00000   0.00013   0.00013   2.28540
   A13        1.89338   0.00001   0.00000   0.00006   0.00006   1.89343
   A14        2.28537   0.00001   0.00000   0.00004   0.00004   2.28540
   A15        2.10444  -0.00002   0.00000  -0.00009  -0.00009   2.10435
   A16        1.93429  -0.00002   0.00000  -0.00005  -0.00005   1.93424
   A17        2.24795   0.00001   0.00000  -0.00002  -0.00002   2.24793
   A18        2.10095   0.00001   0.00000   0.00007   0.00007   2.10102
   A19        2.07847  -0.00000   0.00000  -0.00002  -0.00002   2.07845
   A20        2.10799  -0.00001   0.00000  -0.00005  -0.00005   2.10794
   A21        2.09672   0.00001   0.00000   0.00007   0.00007   2.09679
   A22        2.10347  -0.00000   0.00000  -0.00004  -0.00004   2.10344
   A23        2.08999   0.00001   0.00000   0.00009   0.00009   2.09008
   A24        2.08973  -0.00001   0.00000  -0.00006  -0.00006   2.08967
   A25        2.10510   0.00001   0.00000   0.00007   0.00007   2.10517
   A26        2.08889  -0.00002   0.00000  -0.00007  -0.00007   2.08882
   A27        2.08920   0.00000   0.00000   0.00000   0.00000   2.08920
   A28        2.07394   0.00000   0.00000   0.00001   0.00001   2.07395
   A29        2.10797  -0.00000   0.00000   0.00003   0.00003   2.10800
   A30        2.10127  -0.00000   0.00000  -0.00003  -0.00003   2.10124
   A31        2.07392   0.00001   0.00000   0.00003   0.00003   2.07395
   A32        2.10792   0.00000   0.00000   0.00008   0.00008   2.10800
   A33        2.10135  -0.00001   0.00000  -0.00011  -0.00011   2.10124
   A34        2.10507   0.00002   0.00000   0.00010   0.00010   2.10517
   A35        2.08925  -0.00000   0.00000  -0.00005  -0.00005   2.08920
   A36        2.08887  -0.00001   0.00000  -0.00005  -0.00005   2.08882
   A37        2.10351  -0.00001   0.00000  -0.00007  -0.00007   2.10344
   A38        2.08972  -0.00001   0.00000  -0.00006  -0.00006   2.08967
   A39        2.08996   0.00002   0.00000   0.00013   0.00013   2.09008
   A40        2.07848  -0.00000   0.00000  -0.00003  -0.00003   2.07845
   A41        2.10804  -0.00001   0.00000  -0.00010  -0.00010   2.10794
   A42        2.09667   0.00002   0.00000   0.00013   0.00013   2.09679
   A43        1.93491  -0.00004   0.00000  -0.00028  -0.00028   1.93463
   A44        1.93034   0.00002   0.00000   0.00015   0.00015   1.93049
   A45        1.93034   0.00002   0.00000   0.00016   0.00016   1.93049
   A46        1.89058   0.00001   0.00000   0.00002   0.00002   1.89061
   A47        1.89060   0.00001   0.00000   0.00001   0.00001   1.89061
   A48        1.88560  -0.00001   0.00000  -0.00006  -0.00006   1.88554
   A49        1.93033   0.00002   0.00000   0.00016   0.00016   1.93049
   A50        1.93035   0.00002   0.00000   0.00014   0.00014   1.93049
   A51        1.93490  -0.00004   0.00000  -0.00027  -0.00027   1.93463
   A52        1.88561  -0.00001   0.00000  -0.00007  -0.00007   1.88554
   A53        1.89059   0.00001   0.00000   0.00002   0.00002   1.89061
   A54        1.89059   0.00001   0.00000   0.00002   0.00002   1.89061
    D1       -0.00006  -0.00000   0.00000   0.00006   0.00006  -0.00000
    D2        3.14157  -0.00000   0.00000   0.00003   0.00003   3.14159
    D3       -2.06640   0.00001   0.00000   0.00031   0.00031  -2.06609
    D4        1.07522   0.00001   0.00000   0.00028   0.00028   1.07550
    D5        2.06618  -0.00001   0.00000  -0.00009  -0.00009   2.06609
    D6       -1.07538  -0.00001   0.00000  -0.00012  -0.00012  -1.07550
    D7        0.00006   0.00000   0.00000  -0.00006  -0.00006   0.00000
    D8       -3.14156   0.00000   0.00000  -0.00003  -0.00003  -3.14159
    D9        2.06637  -0.00001   0.00000  -0.00028  -0.00028   2.06609
   D10       -1.07526  -0.00001   0.00000  -0.00025  -0.00025  -1.07550
   D11       -2.06613   0.00001   0.00000   0.00004   0.00004  -2.06609
   D12        1.07544   0.00001   0.00000   0.00007   0.00007   1.07550
   D13        0.97949  -0.00000   0.00000   0.00008   0.00008   0.97957
   D14        3.07695  -0.00000   0.00000   0.00003   0.00003   3.07698
   D15       -1.11799   0.00000   0.00000   0.00015   0.00015  -1.11784
   D16       -0.97984   0.00000   0.00000   0.00026   0.00026  -0.97957
   D17        1.11763  -0.00000   0.00000   0.00021   0.00021   1.11784
   D18       -3.07731   0.00000   0.00000   0.00033   0.00033  -3.07698
   D19        3.14136   0.00000   0.00000   0.00023   0.00023   3.14159
   D20       -1.04436  -0.00000   0.00000   0.00018   0.00018  -1.04418
   D21        1.04388   0.00001   0.00000   0.00030   0.00030   1.04418
   D22        1.11802  -0.00000   0.00000  -0.00018  -0.00018   1.11784
   D23       -3.07691   0.00000   0.00000  -0.00007  -0.00007  -3.07698
   D24       -0.97944   0.00000   0.00000  -0.00013  -0.00013  -0.97957
   D25        3.07727  -0.00000   0.00000  -0.00029  -0.00029   3.07698
   D26       -1.11766   0.00000   0.00000  -0.00018  -0.00018  -1.11784
   D27        0.97980  -0.00000   0.00000  -0.00023  -0.00023   0.97957
   D28       -1.04389  -0.00001   0.00000  -0.00029  -0.00029  -1.04418
   D29        1.04437   0.00000   0.00000  -0.00018  -0.00018   1.04418
   D30       -3.14135  -0.00000   0.00000  -0.00024  -0.00024  -3.14159
   D31        0.00004   0.00000   0.00000  -0.00004  -0.00004   0.00000
   D32       -3.14155  -0.00000   0.00000  -0.00004  -0.00004  -3.14159
   D33       -3.14159   0.00000   0.00000  -0.00001  -0.00001   3.14159
   D34        0.00001  -0.00000   0.00000  -0.00001  -0.00001   0.00000
   D35        3.14155   0.00000   0.00000   0.00004   0.00004   3.14159
   D36       -0.00004   0.00000   0.00000   0.00004   0.00004  -0.00000
   D37       -0.00001   0.00000   0.00000   0.00001   0.00001  -0.00000
   D38        3.14158   0.00000   0.00000   0.00001   0.00001   3.14159
   D39        0.00001  -0.00000   0.00000  -0.00001  -0.00001   0.00000
   D40        3.14158  -0.00000   0.00000   0.00001   0.00001  -3.14159
   D41       -3.14159   0.00000   0.00000  -0.00000  -0.00000   3.14159
   D42       -0.00001   0.00000   0.00000   0.00001   0.00001   0.00000
   D43       -0.00001  -0.00000   0.00000   0.00001   0.00001  -0.00000
   D44        3.14159   0.00000   0.00000   0.00000   0.00000   3.14159
   D45        3.14159  -0.00000   0.00000   0.00000   0.00000  -3.14159
   D46        0.00000  -0.00000   0.00000  -0.00000  -0.00000   0.00000
   D47       -0.00005   0.00000   0.00000   0.00005   0.00005  -0.00000
   D48        3.14157  -0.00000   0.00000   0.00002   0.00002   3.14159
   D49        3.14156   0.00000   0.00000   0.00003   0.00003   3.14159
   D50       -0.00001  -0.00000   0.00000   0.00001   0.00001  -0.00000
   D51       -3.14157   0.00000   0.00000  -0.00002  -0.00002   3.14159
   D52        0.00001   0.00000   0.00000  -0.00001  -0.00001  -0.00000
   D53        0.00000   0.00000   0.00000  -0.00000  -0.00000   0.00000
   D54        3.14159   0.00000   0.00000   0.00000   0.00000  -3.14159
   D55       -3.14155  -0.00000   0.00000  -0.00004  -0.00004  -3.14159
   D56        0.00003  -0.00000   0.00000  -0.00003  -0.00003   0.00000
   D57        0.00001   0.00000   0.00000  -0.00001  -0.00001   0.00000
   D58       -3.14159   0.00000   0.00000  -0.00000  -0.00000  -3.14159
   D59       -0.00000   0.00000   0.00000   0.00000   0.00000  -0.00000
   D60       -3.14159   0.00000   0.00000  -0.00000  -0.00000   3.14159
   D61       -3.14159   0.00000   0.00000  -0.00000  -0.00000   3.14159
   D62        0.00001  -0.00000   0.00000  -0.00001  -0.00001  -0.00000
   D63        0.00000  -0.00000   0.00000  -0.00000  -0.00000  -0.00000
   D64       -3.14159  -0.00000   0.00000  -0.00000  -0.00000   3.14159
   D65        3.14159  -0.00000   0.00000   0.00000   0.00000   3.14159
   D66       -0.00000  -0.00000   0.00000   0.00000   0.00000  -0.00000
   D67       -0.00000   0.00000   0.00000   0.00000   0.00000   0.00000
   D68       -3.14159   0.00000   0.00000  -0.00000  -0.00000   3.14159
   D69        3.14159   0.00000   0.00000   0.00000   0.00000  -3.14159
   D70        0.00000   0.00000   0.00000  -0.00000  -0.00000   0.00000
   D71       -0.00000   0.00000   0.00000   0.00000   0.00000  -0.00000
   D72        3.14159   0.00000   0.00000   0.00000   0.00000   3.14159
   D73        3.14159  -0.00000   0.00000   0.00001   0.00001  -3.14159
   D74       -0.00001  -0.00000   0.00000   0.00001   0.00001   0.00000
   D75        0.00001  -0.00000   0.00000  -0.00001  -0.00001   0.00000
   D76       -3.14159  -0.00000   0.00000  -0.00000  -0.00000  -3.14159
   D77       -3.14159  -0.00000   0.00000  -0.00001  -0.00001  -3.14159
   D78        0.00000  -0.00000   0.00000  -0.00000  -0.00000   0.00000
   D79       -0.00000   0.00000   0.00000   0.00000   0.00000   0.00000
   D80       -3.14159  -0.00000   0.00000  -0.00000  -0.00000  -3.14159
   D81        3.14159  -0.00000   0.00000   0.00000   0.00000  -3.14159
   D82        0.00000  -0.00000   0.00000  -0.00000  -0.00000   0.00000
         Item               Value     Threshold  Converged?
 Maximum Force            0.000060     0.000450     YES
 RMS     Force            0.000014     0.000300     YES
 Maximum Displacement     0.001272     0.001800     YES
 RMS     Displacement     0.000239     0.001200     YES
 Predicted change in Energy=-8.823673D-08
 Optimization completed.
    -- Stationary point found.
                           ----------------------------
                           !   Optimized Parameters   !
                           ! (Angstroms and Degrees)  !
 --------------------------                            --------------------------
 ! Name  Definition              Value          Derivative Info.                !
 --------------------------------------------------------------------------------
 ! R1    R(1,2)                  1.526          -DE/DX =    0.0                 !
 ! R2    R(1,5)                  1.5259         -DE/DX =    0.0                 !
 ! R3    R(1,22)                 1.5417         -DE/DX =    0.0                 !
 ! R4    R(1,26)                 1.5418         -DE/DX =    0.0                 !
 ! R5    R(2,3)                  1.4089         -DE/DX =    0.0001              !
 ! R6    R(2,17)                 1.3885         -DE/DX =    0.0                 !
 ! R7    R(3,4)                  1.468          -DE/DX =    0.0                 !
 ! R8    R(3,14)                 1.395          -DE/DX =    0.0                 !
 ! R9    R(4,5)                  1.4089         -DE/DX =    0.0001              !
 ! R10   R(4,9)                  1.395          -DE/DX =    0.0                 !
 ! R11   R(5,6)                  1.3885         -DE/DX =    0.0                 !
 ! R12   R(6,7)                  1.3998         -DE/DX =    0.0                 !
 ! R13   R(6,13)                 1.0872         -DE/DX =    0.0                 !
 ! R14   R(7,8)                  1.3986         -DE/DX =    0.0                 !
 ! R15   R(7,12)                 1.0864         -DE/DX =    0.0                 !
 ! R16   R(8,9)                  1.3966         -DE/DX =    0.0                 !
 ! R17   R(8,11)                 1.0864         -DE/DX =    0.0                 !
 ! R18   R(9,10)                 1.0868         -DE/DX =    0.0                 !
 ! R19   R(14,15)                1.3966         -DE/DX =    0.0                 !
 ! R20   R(14,21)                1.0867         -DE/DX =    0.0                 !
 ! R21   R(15,16)                1.3986         -DE/DX =    0.0                 !
 ! R22   R(15,20)                1.0864         -DE/DX =    0.0                 !
 ! R23   R(16,17)                1.3998         -DE/DX =    0.0                 !
 ! R24   R(16,19)                1.0864         -DE/DX =    0.0                 !
 ! R25   R(17,18)                1.0872         -DE/DX =    0.0                 !
 ! R26   R(22,23)                1.0942         -DE/DX =    0.0                 !
 ! R27   R(22,24)                1.0958         -DE/DX =    0.0                 !
 ! R28   R(22,25)                1.0958         -DE/DX =    0.0                 !
 ! R29   R(26,27)                1.0958         -DE/DX =    0.0                 !
 ! R30   R(26,28)                1.0958         -DE/DX =    0.0                 !
 ! R31   R(26,29)                1.0942         -DE/DX =    0.0                 !
 ! A1    A(2,1,5)              101.3822         -DE/DX =    0.0                 !
 ! A2    A(2,1,22)             111.2699         -DE/DX =    0.0                 !
 ! A3    A(2,1,26)             111.2657         -DE/DX =    0.0                 !
 ! A4    A(5,1,22)             111.273          -DE/DX =    0.0                 !
 ! A5    A(5,1,26)             111.2695         -DE/DX =    0.0                 !
 ! A6    A(22,1,26)            110.1336         -DE/DX =    0.0                 !
 ! A7    A(1,2,3)              110.8244         -DE/DX =    0.0                 !
 ! A8    A(1,2,17)             128.8035         -DE/DX =    0.0                 !
 ! A9    A(3,2,17)             120.3721         -DE/DX =    0.0                 !
 ! A10   A(2,3,4)              108.4843         -DE/DX =    0.0                 !
 ! A11   A(2,3,14)             120.5792         -DE/DX =    0.0                 !
 ! A12   A(4,3,14)             130.9365         -DE/DX =    0.0                 !
 ! A13   A(3,4,5)              108.4824         -DE/DX =    0.0                 !
 ! A14   A(3,4,9)              130.9419         -DE/DX =    0.0                 !
 ! A15   A(5,4,9)              120.5757         -DE/DX =    0.0                 !
 ! A16   A(1,5,4)              110.8267         -DE/DX =    0.0                 !
 ! A17   A(1,5,6)              128.7978         -DE/DX =    0.0                 !
 ! A18   A(4,5,6)              120.3754         -DE/DX =    0.0                 !
 ! A19   A(5,6,7)              119.0874         -DE/DX =    0.0                 !
 ! A20   A(5,6,13)             120.7791         -DE/DX =    0.0                 !
 ! A21   A(7,6,13)             120.1335         -DE/DX =    0.0                 !
 ! A22   A(6,7,8)              120.5201         -DE/DX =    0.0                 !
 ! A23   A(6,7,12)             119.7475         -DE/DX =    0.0                 !
 ! A24   A(8,7,12)             119.7325         -DE/DX =    0.0                 !
 ! A25   A(7,8,9)              120.6133         -DE/DX =    0.0                 !
 ! A26   A(7,8,11)             119.6843         -DE/DX =    0.0                 !
 ! A27   A(9,8,11)             119.7024         -DE/DX =    0.0                 !
 ! A28   A(4,9,8)              118.828          -DE/DX =    0.0                 !
 ! A29   A(4,9,10)             120.7779         -DE/DX =    0.0                 !
 ! A30   A(8,9,10)             120.3941         -DE/DX =    0.0                 !
 ! A31   A(3,14,15)            118.827          -DE/DX =    0.0                 !
 ! A32   A(3,14,21)            120.7747         -DE/DX =    0.0                 !
 ! A33   A(15,14,21)           120.3983         -DE/DX =    0.0                 !
 ! A34   A(14,15,16)           120.6115         -DE/DX =    0.0                 !
 ! A35   A(14,15,20)           119.7052         -DE/DX =    0.0                 !
 ! A36   A(16,15,20)           119.6833         -DE/DX =    0.0                 !
 ! A37   A(15,16,17)           120.5221         -DE/DX =    0.0                 !
 ! A38   A(15,16,19)           119.7323         -DE/DX =    0.0                 !
 ! A39   A(17,16,19)           119.7456         -DE/DX =    0.0                 !
 ! A40   A(2,17,16)            119.088          -DE/DX =    0.0                 !
 ! A41   A(2,17,18)            120.7818         -DE/DX =    0.0                 !
 ! A42   A(16,17,18)           120.1302         -DE/DX =    0.0                 !
 ! A43   A(1,22,23)            110.8622         -DE/DX =    0.0                 !
 ! A44   A(1,22,24)            110.6004         -DE/DX =    0.0                 !
 ! A45   A(1,22,25)            110.6001         -DE/DX =    0.0                 !
 ! A46   A(23,22,24)           108.3225         -DE/DX =    0.0                 !
 ! A47   A(23,22,25)           108.3232         -DE/DX =    0.0                 !
 ! A48   A(24,22,25)           108.0371         -DE/DX =    0.0                 !
 ! A49   A(1,26,27)            110.5999         -DE/DX =    0.0                 !
 ! A50   A(1,26,28)            110.6009         -DE/DX =    0.0                 !
 ! A51   A(1,26,29)            110.8617         -DE/DX =    0.0                 !
 ! A52   A(27,26,28)           108.0375         -DE/DX =    0.0                 !
 ! A53   A(27,26,29)           108.323          -DE/DX =    0.0                 !
 ! A54   A(28,26,29)           108.3226         -DE/DX =    0.0                 !
 ! D1    D(5,1,2,3)             -0.0034         -DE/DX =    0.0                 !
 ! D2    D(5,1,2,17)           179.9984         -DE/DX =    0.0                 !
 ! D3    D(22,1,2,3)          -118.3961         -DE/DX =    0.0                 !
 ! D4    D(22,1,2,17)           61.6058         -DE/DX =    0.0                 !
 ! D5    D(26,1,2,3)           118.3832         -DE/DX =    0.0                 !
 ! D6    D(26,1,2,17)          -61.6149         -DE/DX =    0.0                 !
 ! D7    D(2,1,5,4)              0.0036         -DE/DX =    0.0                 !
 ! D8    D(2,1,5,6)           -179.9981         -DE/DX =    0.0                 !
 ! D9    D(22,1,5,4)           118.394          -DE/DX =    0.0                 !
 ! D10   D(22,1,5,6)           -61.6077         -DE/DX =    0.0                 !
 ! D11   D(26,1,5,4)          -118.3803         -DE/DX =    0.0                 !
 ! D12   D(26,1,5,6)            61.6179         -DE/DX =    0.0                 !
 ! D13   D(2,1,22,23)           56.1206         -DE/DX =    0.0                 !
 ! D14   D(2,1,22,24)          176.2964         -DE/DX =    0.0                 !
 ! D15   D(2,1,22,25)          -64.0558         -DE/DX =    0.0                 !
 ! D16   D(5,1,22,23)          -56.1404         -DE/DX =    0.0                 !
 ! D17   D(5,1,22,24)           64.0353         -DE/DX =    0.0                 !
 ! D18   D(5,1,22,25)         -176.3169         -DE/DX =    0.0                 !
 ! D19   D(26,1,22,23)         179.9866         -DE/DX =    0.0                 !
 ! D20   D(26,1,22,24)         -59.8376         -DE/DX =    0.0                 !
 ! D21   D(26,1,22,25)          59.8102         -DE/DX =    0.0                 !
 ! D22   D(2,1,26,27)           64.0578         -DE/DX =    0.0                 !
 ! D23   D(2,1,26,28)         -176.2938         -DE/DX =    0.0                 !
 ! D24   D(2,1,26,29)          -56.1179         -DE/DX =    0.0                 !
 ! D25   D(5,1,26,27)          176.3144         -DE/DX =    0.0                 !
 ! D26   D(5,1,26,28)          -64.0372         -DE/DX =    0.0                 !
 ! D27   D(5,1,26,29)           56.1386         -DE/DX =    0.0                 !
 ! D28   D(22,1,26,27)         -59.8106         -DE/DX =    0.0                 !
 ! D29   D(22,1,26,28)          59.8378         -DE/DX =    0.0                 !
 ! D30   D(22,1,26,29)        -179.9863         -DE/DX =    0.0                 !
 ! D31   D(1,2,3,4)              0.0021         -DE/DX =    0.0                 !
 ! D32   D(1,2,3,14)          -179.9977         -DE/DX =    0.0                 !
 ! D33   D(17,2,3,4)           180.0004         -DE/DX =    0.0                 !
 ! D34   D(17,2,3,14)            0.0006         -DE/DX =    0.0                 !
 ! D35   D(1,2,17,16)          179.9976         -DE/DX =    0.0                 !
 ! D36   D(1,2,17,18)           -0.0026         -DE/DX =    0.0                 !
 ! D37   D(3,2,17,16)           -0.0003         -DE/DX =    0.0                 !
 ! D38   D(3,2,17,18)          179.9994         -DE/DX =    0.0                 !
 ! D39   D(2,3,4,5)              0.0003         -DE/DX =    0.0                 !
 ! D40   D(2,3,4,9)           -180.0005         -DE/DX =    0.0                 !
 ! D41   D(14,3,4,5)           180.0001         -DE/DX =    0.0                 !
 ! D42   D(14,3,4,9)            -0.0007         -DE/DX =    0.0                 !
 ! D43   D(2,3,14,15)           -0.0003         -DE/DX =    0.0                 !
 ! D44   D(2,3,14,21)          179.9999         -DE/DX =    0.0                 !
 ! D45   D(4,3,14,15)         -180.0001         -DE/DX =    0.0                 !
 ! D46   D(4,3,14,21)            0.0001         -DE/DX =    0.0                 !
 ! D47   D(3,4,5,1)             -0.0026         -DE/DX =    0.0                 !
 ! D48   D(3,4,5,6)            179.9989         -DE/DX =    0.0                 !
 ! D49   D(9,4,5,1)            179.9981         -DE/DX =    0.0                 !
 ! D50   D(9,4,5,6)             -0.0004         -DE/DX =    0.0                 !
 ! D51   D(3,4,9,8)            180.0012         -DE/DX =    0.0                 !
 ! D52   D(3,4,9,10)             0.0008         -DE/DX =    0.0                 !
 ! D53   D(5,4,9,8)              0.0003         -DE/DX =    0.0                 !
 ! D54   D(5,4,9,10)          -180.0001         -DE/DX =    0.0                 !
 ! D55   D(1,5,6,7)           -179.9978         -DE/DX =    0.0                 !
 ! D56   D(1,5,6,13)             0.0019         -DE/DX =    0.0                 !
 ! D57   D(4,5,6,7)              0.0003         -DE/DX =    0.0                 !
 ! D58   D(4,5,6,13)          -179.9999         -DE/DX =    0.0                 !
 ! D59   D(5,6,7,8)             -0.0002         -DE/DX =    0.0                 !
 ! D60   D(5,6,7,12)           180.0            -DE/DX =    0.0                 !
 ! D61   D(13,6,7,8)           180.0001         -DE/DX =    0.0                 !
 ! D62   D(13,6,7,12)            0.0003         -DE/DX =    0.0                 !
 ! D63   D(6,7,8,9)              0.0001         -DE/DX =    0.0                 !
 ! D64   D(6,7,8,11)           180.0002         -DE/DX =    0.0                 !
 ! D65   D(12,7,8,9)           179.9999         -DE/DX =    0.0                 !
 ! D66   D(12,7,8,11)            0.0            -DE/DX =    0.0                 !
 ! D67   D(7,8,9,4)             -0.0001         -DE/DX =    0.0                 !
 ! D68   D(7,8,9,10)           180.0002         -DE/DX =    0.0                 !
 ! D69   D(11,8,9,4)          -180.0002         -DE/DX =    0.0                 !
 ! D70   D(11,8,9,10)            0.0001         -DE/DX =    0.0                 !
 ! D71   D(3,14,15,16)          -0.0001         -DE/DX =    0.0                 !
 ! D72   D(3,14,15,20)         179.9999         -DE/DX =    0.0                 !
 ! D73   D(21,14,15,16)       -180.0003         -DE/DX =    0.0                 !
 ! D74   D(21,14,15,20)         -0.0003         -DE/DX =    0.0                 !
 ! D75   D(14,15,16,17)          0.0004         -DE/DX =    0.0                 !
 ! D76   D(14,15,16,19)       -179.9997         -DE/DX =    0.0                 !
 ! D77   D(20,15,16,17)       -179.9997         -DE/DX =    0.0                 !
 ! D78   D(20,15,16,19)          0.0003         -DE/DX =    0.0                 !
 ! D79   D(15,16,17,2)          -0.0001         -DE/DX =    0.0                 !
 ! D80   D(15,16,17,18)       -179.9999         -DE/DX =    0.0                 !
 ! D81   D(19,16,17,2)        -180.0            -DE/DX =    0.0                 !
 ! D82   D(19,16,17,18)          0.0002         -DE/DX =    0.0                 !
 --------------------------------------------------------------------------------
 GradGradGradGradGradGradGradGradGradGradGradGradGradGradGradGradGradGrad

 Leave Link  103 at Thu Aug 20 10:14:45 2026, MaxMem=   104857600 cpu:               0.0 elap:               0.0
 (Enter /sw/cluster/pub/apps//g16/l9999.exe)

 ----------------------------------------------------------------------

 Electric dipole moment (input orientation):
 (Debye = 10**-18 statcoulomb cm , SI units = C m)
                  (au)            (Debye)         (10**-30 SI)
   Tot        0.165383D+00      0.420362D+00      0.140218D+01
   x         -0.124375D+00     -0.316131D+00     -0.105450D+01
   y          0.108997D+00      0.277043D+00      0.924117D+00
   z          0.139410D-02      0.354344D-02      0.118196D-01

 Dipole polarizability, Alpha (input orientation).
 (esu units = cm**3 , SI units = C**2 m**2 J**-1)
 Alpha(0;0):
               (au)            (10**-24 esu)      (10**-40 SI)
   iso        0.151228D+03      0.224097D+02      0.249341D+02
   aniso      0.130803D+03      0.193829D+02      0.215664D+02
   xx         0.188773D+03      0.279733D+02      0.311245D+02
   yx         0.255560D+02      0.378701D+01      0.421361D+01
   yy         0.195586D+03      0.289828D+02      0.322477D+02
   zx        -0.231950D+01     -0.343715D+00     -0.382435D+00
   zy        -0.138833D+01     -0.205730D+00     -0.228905D+00
   zz         0.693248D+02      0.102729D+02      0.114301D+02

 ----------------------------------------------------------------------

 Dipole orientation:
     6          0.05078931         -0.05611793         -0.02255362
     6         -1.39059650         -1.75926087         -1.84934652
     6         -0.84554688         -1.11466993         -4.37450447
     6          0.94647439          1.00303033         -4.37449784
     6          1.49195195          1.64713478         -1.84931146
     6          3.15062665          3.60707924         -1.30855276
     6          4.27107553          4.93151248         -3.30557681
     6          3.72912870          4.29158423         -5.81192260
     6          2.06217810          2.32185624         -6.36577372
     1          1.64588215          1.83029030         -8.31579499
     1          4.61324793          5.33664338         -7.34204583
     1          5.57188227          6.46859192         -2.90565671
     1          3.58041593          4.11458366          0.63542933
     6         -1.96149272         -2.43303379         -6.36595013
     6         -3.62832852         -4.40291544         -5.81230754
     6         -4.16985090         -5.04336321         -3.30600495
     6         -3.04914942         -3.71936611         -1.30883441
     1         -3.47872688         -4.22741397          0.63505983
     1         -5.47055803         -6.58055786         -2.90619037
     1         -4.51269634         -5.44770091         -7.34247137
     1         -1.54538256         -1.94091931         -8.31586930
     6          1.87404999         -1.59911335          1.64575109
     1          3.17924079         -2.70407748          0.48334757
     1          2.98686189         -0.34541357          2.86153575
     1          0.82159214         -2.90346891          2.86198248
     6         -1.77261490          1.48673225          1.64580232
     1         -2.88485861          0.23295707          2.86202115
     1         -0.72031451          2.79163541          2.86158853
     1         -3.07830574          2.59111013          0.48340376

 Electric dipole moment (dipole orientation):
 (Debye = 10**-18 statcoulomb cm , SI units = C m)
                  (au)            (Debye)         (10**-30 SI)
   Tot        0.165383D+00      0.420362D+00      0.140218D+01
   x          0.000000D+00      0.000000D+00      0.000000D+00
   y          0.000000D+00      0.000000D+00      0.000000D+00
   z          0.165383D+00      0.420362D+00      0.140218D+01

 Dipole polarizability, Alpha (dipole orientation).
 (esu units = cm**3 , SI units = C**2 m**2 J**-1)
 Alpha(0;0):
               (au)            (10**-24 esu)      (10**-40 SI)
   iso        0.151228D+03      0.224097D+02      0.249341D+02
   aniso      0.130803D+03      0.193829D+02      0.215664D+02
   xx         0.131336D+03      0.194620D+02      0.216544D+02
   yx         0.733416D+02      0.108681D+02      0.120924D+02
   yy         0.155943D+03      0.231084D+02      0.257115D+02
   zx         0.937221D-02      0.138882D-02      0.154527D-02
   zy        -0.605842D-02     -0.897766D-03     -0.998899D-03
   zz         0.166405D+03      0.246586D+02      0.274364D+02

 ----------------------------------------------------------------------
 1\1\GINC-N05\Freq\RB3LYP\6-31G(d)\C15H14\UNKNOWN\20-Aug-2026\0\\#P Geo
 m=AllCheck Guess=TCheck SCRF=Check GenChk RB3LYP/6-31G(d) Freq\\OPT F1
  - dispersion correction\\0,1\C,0.0061828829,-0.0115612881,0.039683374
 \C,-0.0447552729,-1.5366259891,0.051900871\C,1.254484624,-2.0813557644
 ,0.032740333\C,2.2217258501,-0.9773191202,0.0073339164\C,1.5110810908,
 0.2392693817,0.0110414039\C,2.1911028443,1.4496929055,-0.0100013076\C,
 3.5907025199,1.4436096067,-0.0349187269\C,4.2957560958,0.235768307,-0.
 0385935537\C,3.6164768115,-0.9843210432,-0.0174906633\H,4.1679207958,-
 1.9207651097,-0.020422014\H,5.3819623363,0.2468937684,-0.058044815\H,4
 .1336244569,2.3844503613,-0.051530386\H,1.6493434169,2.392341626,-0.00
 72857197\C,1.444779217,-3.4632879934,0.039541702\C,0.3247435043,-4.297
 1452679,0.0656840621\C,-0.9650953297,-3.7568259581,0.0847192371\C,-1.1
 550978956,-2.3699632425,0.0778713386\H,-2.1606672145,-1.9567883393,0.0
 927722052\H,-1.8262900689,-4.4187607646,0.1049780898\H,0.4564361753,-5
 .3755558967,0.0712899389\H,2.4454724353,-3.8868667162,0.024811358\C,-0
 .6353487141,0.5796657966,1.3108518207\H,-0.156827017,0.180868027,2.210
 4525421\H,-0.5345045547,1.6707843143,1.3218954561\H,-1.7031980749,0.33
 71726332,1.3523421068\C,-0.6802290147,0.5608213014,-1.2166077112\H,-1.
 7488117088,0.3180111924,-1.2165505037\H,-0.5801304063,1.6516267352,-1.
 2475031474\H,-0.2338307848,0.1485165367,-2.1265732073\\Version=ES64L-G
 16RevA.03\State=1-A\HF=-580.116024\RMSD=2.777e-09\RMSF=2.614e-05\ZeroP
 oint=0.245048\Thermal=0.2569185\Dipole=-0.1243754,0.1089973,0.0013941\
 DipoleDeriv=0.0877144,0.0551931,0.0010199,0.0551713,0.1023476,-0.00047
 1,0.0009864,-0.0004426,0.1690186,-0.2506166,-0.1554361,0.0037075,-0.08
 0667,0.134289,-0.0003794,0.0031642,0.0009481,-0.1074523,0.0686407,0.25
 85335,-0.0028285,0.0770145,0.0845034,-0.0018715,-0.0014844,-0.0051017,
 0.0172859,0.0405055,0.0732923,-0.0009559,0.2548451,0.1126836,-0.005247
 4,-0.0023067,-0.0020193,0.0172857,0.158317,-0.0264528,-0.0045098,-0.10
 12158,-0.2747988,0.0030397,-0.0039497,0.0017023,-0.1073425,-0.0364015,
 -0.0363755,-0.0011367,-0.0159858,0.1884997,-0.001949,-0.0012815,-0.001
 5864,-0.1145528,-0.0903628,-0.0716771,0.0000547,0.0580818,0.0690767,-0
 .0024092,-0.0009057,-0.0000904,-0.1171858,0.1571132,0.0488766,-0.00522
 86,-0.0772932,-0.1607964,0.0017149,-0.0042972,-0.0005396,-0.1156369,-0
 .0115095,-0.0483512,-0.0014561,-0.1127896,0.0683353,0.0006732,-0.00097
 49,-0.0004718,-0.1129971,0.0258019,0.059202,0.0009996,0.0973229,-0.066
 4779,-0.0004618,0.0007192,0.00022,0.1063369,-0.1484065,-0.0232297,0.00
 48014,-0.0056342,0.0539192,0.0005229,0.0046718,0.0008357,0.1111457,-0.
 004087,-0.0864891,0.0026973,-0.0964835,-0.0874394,0.0031857,0.0027713,
 0.0030048,0.1114018,0.0203532,0.106681,0.0006189,0.0618455,-0.0670188,
 0.0001202,0.0009478,-0.0006753,0.0991479,0.0878991,-0.0995703,-0.00284
 89,-0.0351612,-0.0311292,0.0000263,-0.0033239,0.0011703,-0.1129623,-0.
 1515819,-0.1182081,0.0015079,0.0079584,0.1480163,-0.0020846,0.0005817,
 0.000167,-0.1157253,0.0680276,0.079058,-0.0038881,-0.0506634,-0.089369
 4,0.000693,-0.002932,-0.0016167,-0.11714,0.1913735,0.0142503,-0.005566
 2,-0.0061917,-0.0393464,-0.000434,-0.0054192,-0.000803,-0.1144856,-0.0
 874389,0.0475419,0.0029804,0.0923745,0.0407859,-0.0012172,0.0026479,-0
 .0004172,0.099115,-0.0621155,-0.1041806,0.0038679,-0.0941813,-0.029407
 6,0.0027219,0.0037949,0.0028987,0.1113819,0.0542048,0.0212166,0.000861
 3,0.0036334,-0.1487455,0.0018537,0.0009912,0.0015396,0.1112071,-0.0852
 255,0.082594,0.0028088,0.0444615,0.0446011,-0.0003371,0.0030884,-0.001
 0192,0.1063031,0.0569237,-0.0302361,-0.0042658,-0.0315576,0.0503032,0.
 0047748,-0.0632353,0.0564159,0.067054,0.0277227,0.0245745,-0.0754351,0
 .0252968,0.0369941,0.0626379,-0.0434097,0.0345661,-0.0941229,0.0625576
 ,-0.0183356,0.013758,0.0164445,-0.1705074,-0.0301421,0.0174933,-0.0101
 015,0.0333083,-0.1651263,-0.0133436,0.0365362,-0.04847,0.0576267,-0.00
 92313,0.0180722,-0.0163539,0.0328451,0.0593419,-0.0321519,0.0050281,-0
 .0307591,0.0494062,-0.0034317,0.06402,-0.055091,0.0655007,-0.1668051,-
 0.0132483,-0.029251,-0.0483239,0.0580162,0.0105939,-0.0102746,0.016467
 ,0.034125,0.0614081,-0.0181134,-0.0145012,0.0172935,-0.1698676,0.03258
 1,-0.0187583,0.0137977,0.0338091,0.0317722,0.0243855,0.0706239,0.02363
 35,0.0355001,-0.0654718,0.038603,-0.0374036,-0.0966683\Polar=188.77326
 45,25.5559919,195.5857175,-2.3195039,-1.3883341,69.324841\Quadrupole=3
 .0239653,2.9359041,-5.9598694,-0.3415585,-0.1577806,-0.0595536\PG=C01 
 [X(C15H14)]\NImag=0\\0.49456657,-0.03002988,0.48656266,-0.00076141,0.0
 0021126,0.44043819,-0.08736775,0.00518066,0.00027167,0.71778860,-0.014
 44760,-0.16845684,0.00098544,0.07330398,0.62528947,0.00041734,0.000636
 32,-0.07007542,-0.01016819,-0.00461508,0.17856003,-0.00390137,0.017288
 01,0.00000780,-0.25833405,0.09680041,0.00258923,0.60589235,0.02386096,
 -0.02241402,-0.00023379,0.03813779,-0.14432989,-0.00015425,-0.02084134
 ,0.76348733,-0.00003971,-0.00011408,0.00378655,0.00302182,-0.00120205,
 -0.07322821,-0.00787521,-0.00411360,0.15604502,-0.02744407,0.02073990,
 0.00040556,-0.05730577,-0.01944098,0.00129137,-0.15478319,-0.05623571,
 0.00205798,0.76601284,0.01416727,0.00113782,-0.00023142,-0.01789475,0.
 00955166,0.00030044,-0.07104597,-0.17168077,0.00207226,0.00039959,0.60
 331417,0.00045145,-0.00034980,0.00377979,0.00128065,0.00032846,0.00704
 233,0.00216703,0.00180773,-0.06275506,-0.01088546,-0.00330734,0.156093
 14,-0.16586819,-0.02485106,0.00189108,-0.01860457,-0.02446601,0.000551
 42,0.01325979,-0.01008676,-0.00003598,-0.16385144,0.10932653,0.0008113
 3,0.60769747,-0.00522864,-0.08997873,0.00023904,-0.03757663,-0.0268357
 5,0.00088292,-0.00853990,-0.06103871,0.00065460,0.05066248,-0.23884631
 ,0.00031763,0.05869393,0.73546729,0.00174523,0.00058785,-0.07010181,0.
 00065085,0.00065202,0.00221340,-0.00004705,0.00068320,0.00706465,0.001
 24271,-0.00072926,-0.07320038,-0.00808369,-0.00515100,0.17852250,-0.01
 299879,-0.02374537,0.00040151,-0.00476193,0.00101299,0.00007951,-0.000
 35668,0.00644266,0.00003929,0.05922217,-0.02483274,-0.00073088,-0.1755
 6553,-0.06331430,0.00250653,0.68089400,-0.00876556,0.00518839,0.000115
 34,0.00329786,0.00062300,-0.00006219,0.00447226,-0.00073353,-0.0000412
 0,0.02037191,-0.05701032,0.00011564,-0.11881805,-0.30156995,0.00388995
 ,-0.02859463,0.73273605,0.00029164,0.00038261,-0.00025417,0.00006254,-
 0.00002150,0.00010845,0.00005389,-0.00007607,0.00450739,-0.00106413,0.
 00092211,0.00801063,0.00291625,0.00289979,-0.06118944,-0.00961283,-0.0
 0393034,0.13016452,0.00542626,-0.00322238,0.00004274,-0.00282382,-0.00
 090442,0.00006155,-0.00040106,-0.00072293,0.00000122,-0.04968747,0.029
 21703,0.00054447,-0.03106871,-0.07923655,0.00124505,-0.33208200,0.0366
 3177,0.00463440,0.68174848,-0.00189453,-0.00448004,0.00011411,-0.00001
 201,-0.00101599,0.00000985,-0.00179820,-0.00189244,0.00004143,0.031636
 83,-0.01650551,-0.00049511,-0.03207419,0.03213986,0.00037898,-0.031049
 53,-0.12754726,0.00107330,0.03340800,0.72207993,0.00003167,0.00013777,
 0.00643217,0.00005516,0.00002563,0.00027235,0.00000915,0.00002216,-0.0
 0063115,0.00052642,-0.00045164,-0.00709796,0.00089761,0.00122052,0.005
 98609,0.00513363,-0.00013397,-0.05716172,-0.01014670,-0.00498210,0.126
 81263,-0.00012077,0.00071619,-0.00001988,-0.00148503,-0.00055648,0.000
 03234,-0.00304296,0.00369923,0.00014029,-0.02984013,-0.03257119,0.0008
 8272,-0.00025043,0.00214901,-0.00011668,-0.02900683,0.02716715,0.00043
 266,-0.18075064,0.12317350,0.00126641,0.74307009,0.00309983,-0.0026778
 1,-0.00004153,-0.00459740,0.00054335,0.00007837,0.00705850,0.00416151,
 -0.00010981,-0.07988408,0.03042414,0.00124620,-0.00140793,-0.06605947,
 0.00046802,0.07647720,0.03413554,-0.00156798,0.05505187,-0.27993848,0.
 00064681,0.00250564,0.66644202,-0.00003713,0.00000017,-0.00092461,0.00
 006216,0.00000665,0.00009955,0.00011567,-0.00004973,0.00635409,0.00123
 132,0.00040223,0.00616246,-0.00009093,0.00040476,-0.00592629,0.0000695
 9,-0.00068822,0.00648929,0.00176816,-0.00056789,-0.05887997,-0.0109975
 6,-0.00401592,0.12762838,-0.00176286,0.00297401,0.00012405,0.00673556,
 -0.00204157,-0.00006397,-0.02419610,-0.01120513,0.00054632,-0.33475718
 ,-0.01475075,0.00495031,-0.02494558,0.06903635,0.00004904,-0.04754073,
 -0.02645658,0.00093435,0.06252375,-0.02502316,-0.00080671,-0.17771269,
 -0.05652106,0.00257224,0.68938656,0.00055983,-0.00358146,0.00006314,-0
 .00000066,-0.00559124,0.00005833,-0.02804932,0.00712024,0.00046104,0.0
 3614090,-0.12702861,-0.00017477,0.02853002,0.03211129,-0.00069831,-0.0
 2923309,-0.01718697,0.00060311,0.02500329,-0.05940699,0.00004289,-0.12
 251673,-0.29005734,0.00390335,-0.03415727,0.72497405,0.00014224,0.0000
 2111,0.00644871,-0.00007930,0.00009446,0.00228322,0.00067064,0.0001606
 9,0.00178978,0.00457524,0.00073256,-0.06339055,0.00034715,-0.00142100,
 0.00631827,0.00095438,0.00055340,-0.00612328,-0.00117532,0.00093522,0.
 00695451,0.00305871,0.00272674,-0.05687974,-0.00974173,-0.00378296,0.1
 2924715,-0.00012889,0.00155690,-0.00000705,-0.00025909,0.00027656,0.00
 000193,0.00170469,0.00023663,-0.00009135,-0.01074656,0.02996373,0.0000
 1731,-0.00509298,-0.00214762,0.00023100,-0.00087592,-0.00070972,0.0000
 1792,-0.00112513,-0.00297418,0.00016975,0.01222729,-0.01477545,-0.0000
 7149,-0.13243001,0.12163031,0.00084336,0.13613437,-0.00028949,-0.00004
 974,0.00000635,0.00027212,0.00010315,-0.00000587,-0.00035269,-0.000524
 85,-0.00001428,0.00024471,0.00397460,-0.00001445,-0.00065558,0.0014701
 5,0.00005227,-0.00063543,0.00027370,0.00000811,-0.00439566,-0.00273186
 ,0.00015132,0.01697472,-0.01919273,-0.00014568,0.11976280,-0.26496804,
 -0.00043965,-0.13164859,0.28127001,0.00000640,-0.00002666,0.00011352,0
 .00000199,-0.00000592,-0.00003537,-0.00008705,-0.00002483,-0.00331838,
 0.00023622,-0.00054442,0.00260993,0.00022024,0.00007883,0.00697152,0.0
 0001739,0.00000947,-0.00016542,0.00018017,0.00012598,0.00716054,-0.000
 30554,0.00042037,0.00211300,0.00085724,-0.00047278,-0.03487917,-0.0010
 2635,0.00045261,0.02418286,0.00003715,-0.00003949,-0.00001406,-0.00022
 393,-0.00028194,0.00000112,-0.00023980,0.00065958,0.00000982,0.0006718
 0,-0.00317294,0.00014411,0.00078732,0.00010772,-0.00002639,0.00051794,
 0.00312201,0.00008861,-0.01211775,-0.00281268,0.00026853,-0.33855737,-
 0.00270981,0.00544397,-0.01157607,0.00223571,0.00022126,0.00089899,-0.
 00027392,-0.00008300,0.35983257,-0.00002840,0.00007452,-0.00000570,-0.
 00022001,-0.00038959,0.00000476,-0.00093612,0.00084772,0.00001474,-0.0
 0200518,-0.00512634,0.00012841,-0.00008832,-0.00135547,0.00000679,0.00
 186539,-0.00462431,0.00005073,0.02905023,0.00484946,-0.00054070,-0.002
 73439,-0.06024902,0.00023927,-0.02931095,0.00427353,0.00050413,0.00050
 260,0.00110985,-0.00004565,0.00304913,0.05938531,-0.00001416,-0.000005
 52,-0.00076777,0.00000063,0.00000586,-0.00027799,0.00002162,-0.0000136
 7,0.00058449,0.00013549,0.00014920,0.00743747,-0.00002491,0.00000329,-
 0.00064686,0.00009781,0.00002828,0.00677554,0.00003387,0.00002745,0.00
 177758,0.00544413,0.00023886,-0.03448692,0.00045371,-0.00005837,0.0017
 4788,-0.00008872,-0.00003181,-0.00386673,-0.00599076,-0.00030664,0.025
 25089,0.00051159,-0.00138384,0.00001145,-0.00060338,0.00010121,0.00000
 999,0.00012522,-0.00007250,-0.00001448,-0.00084061,0.00083684,-0.00000
 261,-0.00607592,0.00163853,0.00022082,-0.01107603,-0.02942968,0.000447
 46,-0.12971982,-0.12057671,0.00259983,0.01196879,0.01546394,-0.0002945
 1,-0.00122954,0.00288636,0.00011986,0.00045447,0.00086104,-0.00000848,
 0.00089087,-0.00046021,-0.00008033,0.13441084,0.00030408,0.00015656,-0
 .00000234,-0.00008338,-0.00001967,0.00000164,0.00001207,0.00012152,-0.
 00000639,0.00099811,0.00025289,-0.00002440,0.00046288,0.00145228,0.000
 03255,0.00208173,0.00382595,-0.00005160,-0.12047816,-0.26931090,0.0038
 8357,-0.01639453,-0.01921361,0.00044741,0.00413116,-0.00285852,-0.0000
 0337,-0.00082263,-0.00109313,0.00002519,0.00030400,0.00097537,-0.00004
 062,0.13010765,0.28493555,-0.00000107,0.00002788,0.00057623,0.00001138
 ,-0.00000174,0.00000047,-0.00001513,-0.00000492,-0.00071644,-0.0000037
 6,-0.00002149,-0.00064166,0.00022958,0.00001157,0.00698592,0.00021540,
 0.00051039,0.00185282,0.00259898,0.00388519,-0.03381535,-0.00005983,-0
 .00012068,0.00184214,0.00011068,0.00001885,0.00668163,0.00000391,-0.00
 000484,0.00033452,-0.00008594,-0.00002699,-0.00380179,-0.00291600,-0.0
 0423743,0.02471902,-0.00002785,0.00041291,-0.00006889,0.00031373,-0.00
 007762,-0.00000916,0.00051975,-0.00059496,-0.00000021,-0.00122080,-0.0
 0284110,0.00017749,0.01340335,-0.01293889,-0.00008722,-0.12834379,0.11
 677508,0.00078953,-0.01074095,0.02998725,0.00000758,-0.00553188,-0.001
 90583,0.00023828,-0.00062377,-0.00083575,0.00001575,0.00015127,0.00012
 873,-0.00003084,-0.00070623,0.00152102,0.00000722,0.00117126,-0.000435
 32,-0.00008454,0.13238898,0.00128401,0.00077193,-0.00005602,-0.0001331
 3,-0.00025467,0.00000256,0.00128554,-0.00088229,-0.00001451,-0.0040591
 1,-0.00218403,0.00014413,0.01618183,-0.02073932,-0.00011244,0.11868690
 ,-0.26690203,-0.00041385,-0.00174657,0.00348050,0.00002079,-0.00044835
 ,0.00168018,0.00004750,-0.00090998,-0.00002584,0.00001579,0.00018033,-
 0.00002519,-0.00001426,-0.00015764,0.00005342,0.00000482,0.00035889,0.
 00084364,-0.00004023,-0.12904192,0.28381076,-0.00007515,-0.00004041,-0
 .00371631,-0.00000873,0.00000151,-0.00023502,-0.00001407,0.00001902,0.
 00026206,0.00018646,0.00012239,0.00755300,-0.00030166,0.00040703,0.003
 16687,0.00077516,-0.00038000,-0.03583038,0.00024161,-0.00054515,0.0020
 7573,0.00022755,0.00007360,0.00703836,0.00001623,0.00001446,-0.0000853
 7,-0.00003122,-0.00001335,-0.00152426,0.00001957,-0.00002512,0.0003258
 7,-0.00009038,-0.00002607,-0.00374708,-0.00096441,0.00039419,0.0250090
 4,-0.00400753,0.00026212,0.00018542,0.01840800,0.03427608,-0.00046939,
 -0.13338757,0.06285391,0.00078703,0.01169078,-0.02329377,-0.00000456,-
 0.00510999,-0.00157215,0.00014333,0.00068087,-0.00156978,0.00000635,0.
 00069267,-0.00032245,-0.00001188,-0.00017330,0.00081331,-0.00000497,0.
 00139766,-0.00126867,-0.00001013,-0.00067269,0.00016888,0.00000580,-0.
 00011005,-0.00007910,0.00000228,-0.00002898,-0.00000458,0.00000163,-0.
 00026906,-0.00053322,0.00000507,0.73310713,0.00267587,-0.00133632,0.00
 001029,0.07478291,-0.01125223,-0.00120521,0.01195671,-0.32845789,0.001
 74363,-0.00644706,-0.02878157,0.00034063,-0.00361233,0.00625737,0.0000
 3463,-0.00176463,-0.00201095,0.00004908,0.00142288,0.00044529,-0.00002
 946,0.00016027,-0.00087891,0.00000278,0.00438270,0.00181103,-0.0000893
 2,0.00042491,0.00033721,-0.00001213,0.00001922,0.00007713,-0.00000102,
 0.00000072,-0.00005333,0.00000085,-0.00009961,-0.00009200,0.00000093,-
 0.02835009,0.68125003,0.00016671,0.00005298,0.00644812,-0.00076812,-0.
 00048197,0.00633029,0.00116279,0.00083485,-0.06333309,-0.00012889,0.00
 064148,0.00180177,0.00015865,-0.00000136,0.00227960,0.00000781,0.00004
 576,0.00039008,-0.00002480,0.00000167,-0.00010706,-0.00000015,-0.00000
 890,-0.00011591,-0.00005182,0.00001151,0.00030491,0.00000392,-0.000007
 55,-0.00027711,0.00000156,0.00000074,-0.00001486,0.00000158,0.00000092
 ,0.00005988,0.00000189,0.00000870,-0.00020497,-0.01057026,-0.00356907,
 0.12926112,-0.00312963,0.00270080,0.00001860,-0.06500076,-0.00999350,0
 .00112819,0.04402543,-0.07009039,-0.00015824,0.00263687,0.00781140,0.0
 0000881,0.00117942,-0.00424404,0.00001247,0.00133422,0.00158439,-0.000
 04125,-0.00158386,-0.00009432,0.00003074,0.00044673,-0.00080507,-0.000
 00335,-0.00099331,0.00070461,0.00001048,0.00012556,0.00000637,-0.00000
 361,-0.00001564,0.00002251,-0.00000060,0.00000062,0.00000123,-0.000001
 23,0.00008364,0.00002321,-0.00000155,-0.26472445,-0.06806326,0.0042126
 4,0.66694553,0.00031695,0.00033250,-0.00001480,-0.00643660,-0.00128673
 ,0.00008027,-0.02277755,-0.04346394,0.00077294,0.00445215,-0.00152048,
 -0.00002133,-0.00020325,-0.00212209,0.00002015,0.00053074,-0.00021892,
 -0.00001028,0.00011560,0.00018840,-0.00000270,-0.00051071,0.00027248,0
 .00000656,0.00005155,-0.00005864,-0.00000134,-0.00044256,0.00009138,0.
 00000667,-0.00000862,-0.00003378,0.00000011,-0.00003445,0.00002632,-0.
 00000007,-0.00006723,-0.00007783,0.00000182,-0.13405432,-0.20302547,0.
 00347140,-0.00757881,0.74259301,0.00003699,-0.00005756,-0.00092534,0.0
 0110192,0.00014425,-0.00594518,-0.00050729,0.00161730,0.00618511,0.000
 03348,-0.00008134,0.00635556,-0.00001775,0.00009217,0.00010037,-0.0000
 3364,-0.00002911,-0.00032974,0.00002923,0.00000103,0.00010048,-0.00000
 550,0.00001184,-0.00007293,0.00001527,-0.00001300,-0.00011616,-0.00000
 032,-0.00000135,-0.00007536,-0.00000037,-0.00000045,-0.00003998,-0.000
 00093,-0.00000070,-0.00006574,-0.00000089,0.00000020,0.00000597,0.0046
 9992,0.00229373,-0.05690526,-0.00957386,-0.00440387,0.12760571,-0.0036
 3893,-0.00309588,0.00020283,0.04554053,-0.02191596,-0.00054301,-0.0250
 0534,0.03490897,0.00006220,-0.00153787,-0.00194836,0.00003050,-0.00092
 731,0.00023941,0.00001948,-0.00112413,-0.00024802,0.00002118,0.0003811
 6,-0.00035196,-0.00000387,0.00015502,0.00013621,-0.00000196,0.00030605
 ,-0.00037372,-0.00000461,0.00009620,-0.00001395,-0.00000244,-0.0000182
 4,0.00000566,0.00000028,-0.00004417,-0.00002407,0.00000073,0.00001166,
 -0.00004361,0.00000026,-0.05728015,-0.04090981,0.00144815,-0.30137547,
 0.10718391,0.00353796,0.71250857,-0.00442346,0.00458827,0.00009159,-0.
 06907841,-0.04449191,0.00160576,0.03248959,-0.04119911,-0.00032825,-0.
 00087339,-0.00075522,0.00001652,-0.00065314,-0.00291297,0.00003556,0.0
 0064203,0.00102816,-0.00001917,-0.00134603,0.00015619,0.00002299,0.000
 34610,-0.00155102,0.00000599,0.00137159,0.00083208,-0.00003136,-0.0000
 4521,0.00007173,-0.00000004,-0.00005560,-0.00001226,0.00000108,-0.0000
 2439,-0.00001783,0.00000043,0.00003594,-0.00012246,0.00000033,0.009115
 54,0.06043205,-0.00055760,0.03906181,-0.15927994,0.00004394,0.03747268
 ,0.69131470,0.00021248,0.00006919,0.00642964,-0.00019545,0.00076388,0.
 00600841,0.00007975,-0.00037117,-0.00709093,0.00002267,0.00003570,-0.0
 0063163,0.00002624,0.00001940,0.00027284,0.00001474,-0.00000344,-0.000
 03506,0.00000348,0.00000527,0.00001901,-0.00000352,0.00000977,0.000101
 02,-0.00001751,-0.00000028,-0.00010717,-0.00000219,-0.00000061,-0.0000
 4542,0.00000074,-0.00000001,0.00000005,0.00000072,0.00000046,-0.000014
 23,-0.00000033,0.00000174,0.00000837,0.00107886,0.00033509,0.00691920,
 0.00404106,-0.00117192,-0.05891627,-0.01073538,-0.00483761,0.12682219,
 0.00910773,-0.00583325,-0.00012308,-0.27559700,-0.13208833,0.00480343,
 -0.05440572,0.00530399,0.00107475,-0.00214780,0.00423468,0.00008749,-0
 .00003213,0.00392480,-0.00002687,0.00061551,-0.00093040,0.00002700,0.0
 0093923,0.00002556,-0.00001753,-0.00046761,0.00134542,-0.00000747,-0.0
 0152929,-0.00186291,0.00004796,0.00017191,-0.00003917,-0.00000099,-0.0
 0001258,-0.00008554,-0.00000048,0.00013352,0.00001103,-0.00000874,-0.0
 0007627,0.00003652,0.00000133,-0.01045202,-0.02153758,0.00023662,0.019
 53406,0.03360214,-0.00048100,-0.13178660,0.06319757,0.00086688,0.73912
 428,-0.02081160,-0.01691770,0.00049544,-0.07659019,-0.20152142,0.00240
 470,-0.03990100,0.05664907,0.00035327,0.00620544,0.00105815,-0.0000852
 3,0.00164052,-0.00410848,0.00000168,-0.00200314,0.00022608,0.00004683,
 0.00091557,-0.00103597,-0.00000899,0.00029188,0.00158347,-0.00001930,-
 0.00205776,0.00019992,0.00003813,-0.00001619,-0.00009637,0.00000173,0.
 00007350,0.00015140,-0.00000298,-0.00015672,0.00000360,0.00000020,0.00
 006658,0.00013076,-0.00000204,-0.02431424,-0.05428683,0.00078958,0.082
 91329,-0.01441903,-0.00132556,-0.00448718,-0.32789955,0.00207950,-0.02
 085386,0.67448552,-0.00001250,0.00022766,-0.00024919,0.00439421,0.0033
 9434,-0.06121543,0.00140804,-0.00045328,0.00797708,0.00007275,-0.00005
 023,0.00450657,-0.00000997,-0.00003890,0.00011008,0.00003510,0.0000278
 8,0.00174552,-0.00002430,0.00000700,-0.00003450,0.00000030,-0.00003829
 ,-0.00033020,0.00004959,0.00003472,0.00038942,-0.00000115,0.00000215,0
 .00010069,-0.00000165,-0.00000015,-0.00007483,-0.00000752,-0.00000282,
 -0.00035276,0.00000113,-0.00000152,0.00001425,0.00025701,0.00073972,-0
 .00611208,-0.00084457,-0.00044539,0.00650336,0.00136623,0.00087211,-0.
 05710232,-0.01071979,-0.00364943,0.13018167,0.00053612,0.00135855,-0.0
 0008596,-0.02056297,0.01167604,0.00033731,-0.00126577,-0.00406512,0.00
 018758,-0.00094766,0.00109095,0.00001352,-0.00021739,-0.00020356,0.000
 00117,0.00011370,0.00006175,-0.00000223,-0.00011910,-0.00006095,0.0000
 0272,-0.00006928,0.00000292,0.00000132,-0.00001260,-0.00049918,0.00000
 024,0.00002580,0.00002180,-0.00000053,-0.00003812,-0.00005355,0.000001
 57,-0.00000255,-0.00001563,-0.00000002,-0.00000863,-0.00007638,0.00000
 081,0.00019134,-0.00080174,0.00000099,0.00186386,0.00053266,0.00008853
 ,-0.00044683,-0.00038082,0.00004786,-0.29512129,0.09655730,0.00391593,
 0.31474695,0.00048809,0.00020845,-0.00003765,-0.01744389,0.01323904,0.
 00023694,-0.00284727,-0.00213910,0.00012243,-0.00078962,0.00058560,0.0
 0001168,-0.00014809,0.00027659,-0.00000120,0.00009176,-0.00005926,-0.0
 0000110,0.00001859,0.00000833,-0.00000033,-0.00008750,0.00007514,0.000
 00105,-0.00006559,-0.00034849,0.00000222,0.00000679,0.00000704,-0.0000
 0013,-0.00001353,-0.00003330,0.00000069,0.00001432,0.00000132,-0.00000
 034,-0.00001286,-0.00002048,0.00000042,-0.00072779,-0.00084121,0.00001
 858,-0.00092493,-0.00571757,0.00011072,0.03135439,-0.00682007,-0.00049
 395,0.09464253,-0.10006709,-0.00121515,-0.10484509,0.10139167,-0.00007
 954,-0.00005336,-0.00371605,0.00055192,-0.00028297,0.00315642,0.000178
 58,0.00014405,0.00755338,0.00002741,-0.00002185,0.00026174,0.00000080,
 -0.00000022,-0.00023505,-0.00000246,-0.00000054,0.00001429,0.00000213,
 0.00000109,0.00000833,0.00000199,-0.00000057,0.00000590,-0.00000293,0.
 00000997,-0.00020490,-0.00000042,-0.00000040,0.00000527,0.00000128,0.0
 0000141,0.00002793,-0.00000024,0.00000020,-0.00000980,0.00000034,0.000
 00155,0.00000504,0.00000049,0.00002001,-0.00008521,0.00009915,0.000084
 74,0.00704062,-0.00018648,0.00007232,0.00207940,0.00393059,-0.00124904
 ,-0.03588196,-0.00439831,0.00130765,0.02506455,0.00030349,0.00027650,0
 .00000285,0.00105008,0.00140768,0.00009558,-0.00000520,0.00110895,-0.0
 0001953,0.00012922,0.00001264,-0.00001519,-0.00003208,-0.00000765,0.00
 000063,0.00002472,-0.00000340,-0.00000672,-0.00001197,-0.00001980,0.00
 000011,0.00003018,0.00000515,-0.00000175,-0.00005238,-0.00000769,0.000
 00206,0.00004994,0.00000335,0.00000005,-0.00001383,-0.00000542,0.00000
 035,-0.00000249,-0.00001252,0.00000205,0.00000142,-0.00001510,-0.00000
 009,-0.00374213,0.00379808,0.00015806,-0.01854770,-0.02044051,0.000514
 81,-0.23542975,-0.13449248,0.00459305,0.00712999,0.00449647,-0.0001272
 4,0.00085823,-0.00047663,-0.00007872,0.24836290,-0.00141130,0.00036496
 ,0.00002665,0.00258319,-0.00567614,0.00004755,0.00094767,-0.00058268,-
 0.00001736,-0.00007197,0.00011753,-0.00000487,0.00017699,-0.00059112,0
 .00000125,-0.00017115,0.00011242,-0.00000038,-0.00002012,-0.00005004,0
 .00000062,-0.00003053,-0.00000324,0.00000008,-0.00000238,-0.00002993,0
 .00000071,-0.00003050,0.00001103,0.00000086,-0.00001448,-0.00000342,0.
 00000031,-0.00003114,-0.00000831,0.00000141,0.00001485,-0.00000265,-0.
 00000032,0.00255333,-0.00034560,0.00000632,0.01141794,0.01131175,-0.00
 027372,-0.13459008,-0.16356530,0.00336071,-0.02701568,-0.01438749,0.00
 060215,0.00031712,0.00115697,-0.00004189,0.14521367,0.17094753,0.00001
 517,-0.00000341,0.00057622,0.00008690,0.00006840,0.00698763,-0.0000183
 6,-0.00002035,-0.00064149,-0.00001451,-0.00000634,-0.00071621,-0.00000
 063,0.00000452,0.00000059,-0.00000551,-0.00000339,-0.00035280,0.000000
 14,0.00000060,-0.00001421,-0.00000148,-0.00000052,-0.00006576,0.000001
 99,0.00000079,0.00005988,0.00000029,0.00000026,0.00005392,0.00000042,0
 .00000015,0.00000376,0.00000219,0.00000107,0.00010716,-0.00000031,0.00
 000022,-0.00000980,0.00016727,-0.00001585,0.00668065,0.00027950,0.0002
 9495,0.00183311,0.00459387,0.00335890,-0.03384745,0.00010544,0.0000397
 9,0.00185841,-0.00008459,-0.00002771,-0.00374724,-0.00506555,-0.003672
 12,0.02475380,0.00008250,-0.00002240,-0.00001502,-0.00132077,-0.000367
 83,0.00001473,-0.00434796,-0.00267058,0.00023012,0.00086483,-0.0007897
 6,0.00000084,-0.00032132,-0.00023294,0.00000248,0.00015008,-0.00006396
 ,-0.00000354,-0.00000585,0.00000729,0.00000005,-0.00003528,0.00001990,
 -0.00000023,0.00008168,-0.00005369,-0.00000132,-0.00003148,0.00001937,
 0.00000116,-0.00001475,-0.00001611,0.00000042,-0.00000101,-0.00000372,
 0.00000011,-0.00002463,-0.00005177,0.00000132,0.00752742,-0.02677701,0
 .00009456,-0.06433734,0.03361603,0.00028653,0.00113768,0.03080846,-0.0
 0021591,-0.00518157,0.00110952,0.00020531,-0.00013734,0.00159645,-0.00
 000354,0.00099281,-0.00044662,-0.00008232,0.06376701,-0.00003347,0.000
 02916,-0.00000530,-0.00017170,0.00075316,-0.00000725,-0.00383850,-0.00
 010472,0.00012417,0.00080606,-0.00025738,-0.00000817,-0.00029485,-0.00
 029220,0.00000536,0.00009507,-0.00001130,-0.00000216,-0.00005396,-0.00
 002465,0.00000114,-0.00001122,-0.00001414,0.,0.00004464,-0.00011465,-0
 .00000006,-0.00000863,0.00002975,0.00000024,-0.00003372,-0.00002136,0.
 00000077,-0.00001278,-0.00001624,0.00000037,-0.00001173,-0.00004679,0.
 00000076,0.00476850,-0.01483279,0.00003731,0.03364290,-0.33455376,0.00
 161415,-0.00105511,-0.00841095,0.00009404,0.00236622,0.00107723,-0.000
 00020,-0.00008214,-0.00051583,0.00000768,0.00031747,0.00087346,-0.0000
 4017,-0.03620001,0.35554030,-0.00001492,-0.00000549,-0.00076798,0.0000
 1332,-0.00000376,-0.00064739,0.00023867,0.00010341,0.00743627,-0.00001
 095,0.00002028,0.00058484,0.00000293,0.00000428,-0.00027802,-0.0000047
 1,0.00000067,-0.00007478,0.00000050,0.00000005,0.00000006,0.,-0.000000
 55,-0.00003999,-0.00000205,0.00000170,-0.00001482,0.00000137,-0.000000
 26,0.00004172,0.00000055,0.00000046,0.00000217,0.00000018,0.00000021,0
 .00000376,0.00000102,0.00000147,0.00002793,-0.00013826,0.00060027,0.00
 175320,0.00028635,0.00161458,-0.03440508,0.00001924,-0.00047472,0.0017
 8180,0.00019603,0.00002234,0.00677414,0.00000888,-0.00002230,0.0003259
 1,-0.00008796,-0.00002655,-0.00380180,-0.00042231,-0.00179161,0.025162
 24,-0.00021624,-0.00030102,0.00000813,0.00172348,0.00024841,0.00009189
 ,-0.00021750,0.00164132,0.00003836,-0.00047180,-0.00064152,-0.00004611
 ,0.00002528,0.00030987,-0.00000338,-0.00008446,-0.00007318,0.00000384,
 0.00007984,-0.00001613,-0.00000212,0.00014871,0.00000946,-0.00000407,0
 .00024231,0.00029011,-0.00001140,0.00004375,-0.00028155,0.00000915,0.0
 0002730,0.00002716,0.00000006,0.00001525,-0.00000124,0.00000070,0.0000
 0363,0.00001885,-0.00000011,-0.29407844,0.09831863,0.00389979,-0.01892
 686,0.01284163,0.00028064,-0.00174079,-0.00447734,0.00019196,0.0004290
 0,-0.00046214,-0.00000720,-0.00006284,0.00010034,-0.00002683,-0.001070
 88,0.00065876,0.00002023,0.00107484,-0.00025063,-0.00008636,0.31300665
 ,0.00154535,0.00003746,-0.00002711,-0.00124365,-0.00534824,0.00011322,
 0.03136216,-0.00656018,-0.00049196,-0.00005181,0.00165237,-0.00003578,
 0.00031429,-0.00018127,-0.00000452,-0.00005019,0.00016009,0.00000045,-
 0.00004739,0.00008812,-0.00000014,-0.00043944,0.00006814,0.00000677,0.
 00054616,-0.00057789,-0.00000752,-0.00091548,-0.00011508,0.00002043,-0
 .00000083,-0.00002904,0.00000054,-0.00003510,0.00004573,0.00000069,0.0
 0000385,0.00002923,-0.00000025,0.10018201,-0.10327596,-0.00128289,-0.0
 1890659,0.01197487,0.00026458,-0.00305599,-0.00211605,0.00012302,-0.00
 053671,-0.00103159,0.00001597,0.00015194,0.00018900,-0.00001536,-0.001
 02498,0.00043285,0.00001758,0.00052652,0.00093364,-0.00004483,-0.10818
 427,0.10434774,-0.00000544,0.00000600,0.00011329,0.00010298,0.00008641
 ,0.00697348,-0.00018097,0.00003849,0.00261396,-0.00005047,-0.00002525,
 -0.00331925,-0.00000344,-0.00000447,-0.00003526,0.00000369,0.00000088,
 0.00010066,-0.00000190,-0.00000068,-0.00004540,-0.00000076,-0.00000125
 ,-0.00007538,-0.00001328,-0.00000294,-0.00027683,0.00001383,0.00000912
 ,0.00043974,0.00000026,0.00000004,0.00004174,0.00000095,0.00000008,0.0
 0005389,0.,-0.00000051,0.00000526,0.00388590,-0.00124969,-0.03492686,0
 .00051507,-0.00030191,0.00210288,0.00018145,0.00014842,0.00716031,-0.0
 0000666,0.00001460,-0.00016502,-0.00002722,-0.00001445,-0.00152435,0.0
 0003264,-0.00001248,0.00033419,-0.00009211,-0.00003096,-0.00386652,-0.
 00435570,0.00133876,0.02423531,-0.08989813,0.01258342,0.03716686,0.001
 11438,0.00508051,-0.00269928,-0.00048624,-0.00157646,0.00093800,-0.002
 84694,-0.00149609,0.00021713,-0.02089498,0.01281440,0.02766120,0.00010
 047,0.00040980,-0.00012109,0.00038421,0.00056856,-0.00087597,-0.000481
 46,0.00028807,0.00016586,-0.00058634,0.00040511,-0.00141076,-0.0003019
 8,0.00006127,-0.00009705,-0.00000964,0.00001445,0.00007253,0.00001419,
 -0.00006300,0.00012892,-0.00001061,-0.00005120,0.00028306,0.00016102,0
 .00045095,0.00005916,-0.00000472,-0.00036353,-0.00005304,-0.00023779,0
 .00022914,0.00018961,0.00074221,-0.00143783,0.00019112,-0.00051409,-0.
 00022759,-0.00043727,-0.00000380,-0.00009074,-0.00000106,-0.00001736,0
 .00002767,0.00002185,0.00003862,-0.00011669,0.00001324,0.56013830,0.01
 240443,-0.08815726,-0.03395462,0.01511014,-0.01948658,-0.02813407,-0.0
 0122567,-0.00323453,0.00000151,-0.00194038,-0.00088170,-0.00087387,0.0
 0246187,0.00357653,0.00619338,-0.00156990,0.00058447,-0.00018231,0.000
 31730,-0.00014734,-0.00030914,-0.00043182,-0.00000590,0.00008662,0.000
 34641,0.00027350,-0.00027023,-0.00016543,0.00003211,-0.00002282,0.0000
 2730,-0.00001252,-0.00001252,-0.00009086,-0.00002510,0.00002023,-0.000
 15017,-0.00054189,0.00050010,0.00053550,-0.00043160,0.00142503,0.00033
 889,-0.00049041,-0.00016916,0.00051780,0.00050347,0.00088360,0.0005072
 7,0.00001204,0.00013923,-0.00012175,-0.00005471,-0.00033846,-0.0000677
 3,-0.00000691,-0.00012924,0.00001180,-0.00000506,-0.00007027,0.0001072
 0,-0.00030353,0.00010601,0.01829349,0.56274086,0.02935586,-0.02711536,
 -0.13724265,0.00024197,-0.01029429,-0.00098443,-0.00169597,0.00114307,
 -0.00041077,-0.00125133,0.00157793,-0.00040196,0.01062866,0.00070090,-
 0.00203534,-0.00183640,-0.00070505,0.00027227,0.00044262,-0.00045796,-
 0.00003663,-0.00026990,0.00032619,0.00006179,-0.00017447,0.00001917,-0
 .00032739,-0.00013851,0.00005079,0.00005395,-0.00003906,-0.00000694,0.
 00000766,-0.00011091,-0.00004129,-0.00001777,0.00001836,-0.00010288,0.
 00014085,-0.00006714,0.00016294,-0.00036908,-0.00036624,0.00024737,0.0
 0006971,0.00050344,-0.00039785,-0.00006564,0.00043322,0.00195287,0.000
 20380,0.00012236,0.00000555,0.00015726,0.00002775,0.00011716,-0.000017
 96,0.00000198,0.00003935,0.00000791,-0.00007106,0.00014260,0.00004904,
 0.04757012,-0.04348373,0.50084553,0.00551577,-0.00612578,0.01217367,0.
 00034997,-0.00031753,-0.00006605,0.00029520,-0.00001108,-0.00009719,0.
 00014287,0.00002560,-0.00013056,0.00093892,-0.00062805,0.00063303,0.00
 004532,-0.00006145,-0.00008601,-0.00008248,-0.00004361,-0.00005884,0.0
 0005080,-0.00002313,0.00000985,-0.00002671,0.00000144,-0.00001333,0.00
 002084,-0.00001077,0.00000835,0.00000684,0.00000076,0.00000546,0.00000
 371,0.00000941,-0.00000203,0.00002169,0.00002733,0.00004010,-0.0000167
 0,0.00006327,0.00003476,-0.00008416,-0.00004265,-0.00001299,0.00012304
 ,-0.00013018,0.00009412,-0.00031631,0.00003647,0.00000069,0.00005996,0
 .00006214,-0.00008260,-0.00001111,0.00000082,-0.00001073,0.00000132,-0
 .00001164,-0.00000898,0.00000150,0.00000442,0.00000301,-0.10325708,0.0
 4437542,-0.09856249,0.10781042,-0.00666116,0.00379105,-0.01111682,-0.0
 0072879,0.00083385,-0.00064255,0.00005198,0.00013859,0.00011923,-0.000
 01867,0.00029781,0.00007870,-0.00027589,0.00022899,0.00016242,0.000092
 69,-0.00031454,0.00000047,-0.00016007,0.00009977,-0.00010343,-0.000024
 02,-0.00009319,0.00001754,0.00006229,-0.00001131,-0.00003973,0.0000074
 5,0.00000059,-0.00000258,-0.00001074,0.,0.00001038,0.00000352,-0.00000
 955,0.00001053,0.00005794,0.00007284,0.00008548,0.00000538,-0.00001879
 ,0.00001702,-0.00004046,0.00004153,-0.00001214,-0.00001728,-0.00010375
 ,0.00007358,-0.00011124,0.00003571,0.00009363,0.00003255,0.00003357,-0
 .00005266,0.00000763,0.00000465,0.00000006,0.,0.00000532,-0.00000655,-
 0.00001349,0.00001924,-0.00000869,0.04440778,-0.08708271,0.08236073,-0
 .04985961,0.08987618,-0.01127466,0.00943107,-0.02141629,-0.00034058,0.
 00161989,0.00047300,0.00013652,-0.00043111,0.00020447,0.00044742,-0.00
 008150,0.00019725,-0.00165433,0.00014531,0.00048843,0.00035703,0.00023
 051,0.00026650,-0.00002220,0.00009626,-0.00005810,0.00001796,-0.000032
 18,0.00000415,0.00005562,-0.00009714,-0.00007007,0.00002330,0.00000022
 ,-0.00002216,-0.00000139,-0.00000505,0.00001403,0.00002129,-0.00000341
 ,-0.00001089,-0.00004389,-0.00005768,-0.00000026,0.00010234,-0.0000451
 0,-0.00007261,0.00003719,-0.00001347,0.00000432,-0.00010210,0.00001325
 ,-0.00006010,-0.00016534,-0.00037906,0.00027825,0.00004914,0.00004878,
 0.00000040,0.00000601,-0.00002109,-0.00001024,0.00000510,0.00000254,0.
 00001423,0.00000266,-0.00002429,-0.00002147,-0.09717488,0.08114336,-0.
 22584689,0.10497677,-0.08745086,0.24710142,0.00008357,0.01504898,0.000
 99953,-0.00055279,-0.00001275,0.00265178,-0.00006698,0.00055503,-0.000
 03865,0.00018555,0.00038032,0.00003876,0.00086242,0.00057040,-0.000647
 57,0.00001591,0.00038121,-0.00006635,-0.00026338,-0.00014993,-0.000117
 90,0.00005882,-0.00013926,0.00002714,0.00012353,-0.00004730,0.00002794
 ,0.00001896,-0.00001349,-0.00000836,0.00001652,-0.00003274,0.00001638,
 0.00000623,0.00001351,0.00001077,-0.00027903,-0.00034901,0.00041485,-0
 .00006368,-0.00017081,-0.00025918,0.00010707,0.00013241,0.00003906,-0.
 00002062,0.00014631,-0.00030982,-0.00023846,0.00008054,-0.00005589,0.0
 0026080,0.00014953,0.00036117,0.00000346,0.00003439,-0.00000669,0.0000
 1360,-0.00000769,0.00004413,-0.00002044,0.00005923,0.00001953,-0.05209
 843,-0.02683636,-0.00121136,0.00120484,0.01533695,0.00094027,0.0519843
 9,-0.00048300,-0.01293800,0.00002663,0.00153549,0.00072584,-0.00264574
 ,-0.00050213,-0.00032755,-0.00028801,-0.00000265,-0.00054194,0.0000383
 4,-0.00112536,0.00040811,0.00008339,0.00009011,-0.00030890,0.00025928,
 0.00034029,0.00028643,0.00013424,-0.00008990,0.00018075,0.00000491,-0.
 00012990,0.00006727,0.00002486,-0.00001511,0.00000127,-0.00000883,-0.0
 0000275,0.00003962,-0.00002877,0.00003342,0.00000514,0.00000690,-0.000
 05895,0.00048930,-0.00022704,0.00009209,-0.00020619,0.00021193,0.00022
 248,-0.00009063,-0.00005356,0.00001191,0.00020215,0.00008284,0.0003206
 4,-0.00000615,-0.00006975,-0.00001252,0.00006318,0.00003315,-0.0000215
 9,-0.00005166,0.00000463,0.00001292,-0.00002264,-0.00000497,0.00003594
 ,-0.00009228,0.00003263,-0.02635214,-0.30891883,0.00099377,-0.00158078
 ,-0.01053444,-0.00018777,0.02839415,0.33617233,-0.00280172,-0.02837700
 ,-0.00173985,0.00269679,-0.00039645,-0.00403836,-0.00012800,-0.0010840
 5,0.00001958,-0.00022101,-0.00043919,-0.00000864,-0.00104778,0.0004934
 1,0.00063862,0.00005850,-0.00030173,-0.00003021,0.00014214,0.00022283,
 -0.00000975,-0.00009662,0.00007728,0.00000285,-0.00004502,0.00006373,-
 0.00002883,-0.00002059,0.00000129,-0.00000706,-0.00000348,0.00002754,-
 0.00001141,0.00000502,-0.00000820,0.00001817,0.00031045,0.00026601,-0.
 00011346,0.00019357,-0.00010377,0.00038299,0.00015469,-0.00015815,-0.0
 0008960,-0.00006175,0.00013025,0.00021485,0.00021012,-0.00036170,0.000
 20664,-0.00014121,0.00007140,-0.00012556,-0.00002060,-0.00005371,-0.00
 001579,0.00000041,-0.00000995,-0.00001056,0.00003934,-0.00011731,0.000
 00908,-0.00089932,0.00164749,-0.04889752,0.00420810,0.02703970,0.00135
 905,-0.00195647,0.00071501,0.05168792,-0.01397512,-0.00227639,0.000441
 22,0.00047038,-0.00115569,-0.00013383,-0.00056962,-0.00009858,-0.00001
 751,-0.00029928,-0.00052311,0.00030140,0.00058703,0.00169038,0.0028234
 8,-0.00005224,0.00034191,0.00005880,0.00017169,0.00003605,-0.00012288,
 -0.00012815,0.00018890,0.00005424,-0.00019582,0.00006473,-0.00023279,-
 0.00010132,0.00002363,-0.00002789,-0.00002223,0.00000840,0.00001078,-0
 .00005133,-0.00002849,-0.00000392,0.00004698,-0.00003739,0.00001170,0.
 00008934,-0.00013371,-0.00002020,0.00020621,-0.00006812,-0.00000415,0.
 00024390,0.00040043,-0.00016477,-0.00036401,0.00003248,-0.00025876,0.0
 0053010,0.00004771,0.00026377,-0.00000088,0.00003223,-0.00000582,0.000
 04388,0.00000165,0.00002936,0.00000539,-0.00001626,0.00000778,-0.29748
 368,-0.05875383,0.00600185,-0.01270432,-0.00350588,0.00071915,-0.00162
 748,-0.00053993,-0.00033558,0.32367160,0.01379215,0.00189188,-0.001401
 50,0.00051800,0.00082432,0.00061484,0.00028865,0.00022805,-0.00005610,
 0.00054892,-0.00005577,0.00006551,0.00009151,-0.00046252,-0.00237656,0
 .00011539,-0.00018433,0.00007228,0.00017586,0.00001284,0.00029760,0.00
 010418,0.00014540,-0.00004021,-0.00017900,-0.00007474,0.00024513,0.000
 05084,-0.00001050,-0.00002429,-0.00001323,0.00001255,-0.00004342,0.000
 02841,0.00000503,0.00000484,0.00011053,0.00026893,-0.00037539,-0.00005
 413,0.00009954,-0.00003306,-0.00012229,0.00003261,-0.00002552,-0.00008
 457,-0.00023079,0.00010698,0.00033917,0.00007197,0.00002154,-0.0002563
 2,-0.00033753,-0.00036971,0.00001252,0.00001190,-0.00001170,-0.0000301
 2,0.00001195,-0.00001240,-0.00001519,0.00001568,0.00000919,-0.05924281
 ,-0.06335372,0.00278562,0.01287006,0.00256586,-0.00123050,-0.03289609,
 -0.00603836,0.00072216,0.06428795,0.06431628,0.02769053,0.00645395,-0.
 00251291,-0.00063697,0.00099535,0.00061412,0.00041159,0.00027296,-0.00
 002330,0.00105099,0.00028306,-0.00002021,0.00064139,-0.00275384,-0.003
 98991,0.00038934,-0.00015846,0.00019871,-0.00014096,0.00004855,0.00021
 187,0.00017545,-0.00014308,-0.00009039,0.00014631,-0.00016779,0.000383
 66,0.00012270,-0.00002363,0.00000820,0.00001053,0.00000011,-0.00000992
 ,0.00005060,0.00002759,-0.00001770,-0.00009621,0.00012123,-0.00011740,
 -0.00007044,0.00003588,-0.00002681,-0.00009073,0.00008636,0.00000342,-
 0.00020562,-0.00017343,0.00000025,0.00030510,-0.00002187,-0.00003145,-
 0.00023048,-0.00033778,-0.00009562,0.00000889,-0.00000446,0.00001850,-
 0.00002822,-0.00000082,-0.00001111,-0.00000387,0.00002003,-0.00000791,
 0.00540492,0.00237909,-0.04908104,-0.02627375,-0.00766644,0.00216856,0
 .00010436,0.00038163,-0.00096555,-0.00878463,0.00006411,0.05186105,-0.
 09231688,0.01295500,-0.03895907,0.00119297,0.00548665,0.00253221,-0.00
 045879,-0.00162899,-0.00091231,-0.00280517,-0.00155307,-0.00010871,-0.
 02223697,0.01237099,-0.02712898,0.00016990,0.00043629,0.00011799,0.000
 39910,0.00059721,0.00085186,-0.00047727,0.00027413,-0.00015066,-0.0005
 2977,0.00042427,0.00141201,-0.00029303,0.00006095,0.00010851,-0.000010
 82,0.00001362,-0.00007211,0.00001354,-0.00006340,-0.00012912,-0.000021
 08,-0.00005152,-0.00027651,0.00016034,0.00044393,-0.00008412,0.0000102
 2,-0.00037117,0.00006061,-0.00026228,0.00024018,-0.00018595,0.00071942
 ,-0.00150922,-0.00018713,-0.00050187,-0.00022074,0.00046406,-0.0000047
 3,-0.00009483,0.00000195,-0.00001818,0.00002593,-0.00002132,0.00004069
 ,-0.00012176,-0.00001114,0.00715592,-0.00488081,0.01062161,-0.00107320
 ,0.00129642,0.00361843,0.00012609,-0.00016930,-0.00035925,0.00038797,-
 0.00028279,0.00098055,0.55667457,0.01313533,-0.08725747,0.03276504,0.0
 1609799,-0.01891893,0.02784623,-0.00119846,-0.00324914,0.00008350,-0.0
 0188823,-0.00089147,0.00094907,0.00208504,0.00346840,-0.00634546,-0.00
 153517,0.00059766,0.00023224,0.00032138,-0.00013604,0.00029917,-0.0004
 3049,-0.00001203,-0.00007019,0.00035838,0.00027676,0.00024820,-0.00016
 230,0.00003172,0.00002895,0.00002832,-0.00001223,0.00001184,-0.0000898
 7,-0.00002475,-0.00001691,-0.00016774,-0.00054746,-0.00048423,0.000484
 59,-0.00045540,-0.00144218,0.00035047,-0.00049169,0.00016503,0.0004782
 8,0.00049624,-0.00090969,0.00049545,-0.00001953,-0.00015331,-0.0001112
 1,-0.00004963,0.00034568,-0.00006350,-0.00000670,0.00013143,0.00001428
 ,-0.00000461,0.00007003,0.00010448,-0.00030704,-0.00010452,-0.00540296
 ,0.00580917,-0.01015879,0.00126542,-0.00087160,-0.00327453,-0.00036107
 ,0.00032803,-0.00099361,-0.00015388,0.00009417,0.00053556,0.01908624,0
 .56401591,-0.03114509,0.02592346,-0.13568927,-0.00056307,0.01037601,-0
 .00163482,0.00171659,-0.00104356,-0.00042312,0.00136506,-0.00151736,-0
 .00043345,-0.00994563,-0.00121974,-0.00058874,0.00186333,0.00068491,0.
 00018864,-0.00046335,0.00043869,-0.00006229,0.00029573,-0.00033529,0.0
 0006338,0.00017636,-0.00004307,-0.00038725,0.00015327,-0.00005270,0.00
 004545,0.00003929,0.00000674,0.00000855,0.00011113,0.00004365,-0.00001
 749,-0.00001012,0.00011505,0.00015703,0.00004090,-0.00017758,-0.000344
 61,0.00036342,-0.00022617,0.00005569,-0.00050385,0.00038158,-0.0000333
 5,-0.00045870,-0.00189746,0.00025700,-0.00009730,0.00000540,0.00014008
 ,-0.00002726,-0.00011402,-0.00001727,-0.00000126,-0.00004011,0.0000082
 8,0.00006985,-0.00013305,0.00005054,-0.01206656,0.00972265,-0.03567304
 ,0.00225794,-0.00208310,-0.00420803,-0.00089992,0.00111689,0.00183762,
 -0.00119069,0.00079782,0.00180956,-0.04986555,0.04191123,0.50300948,-0
 .01496085,-0.00250791,0.00003808,0.00049822,-0.00118832,0.00015584,-0.
 00058316,-0.00010792,0.00003907,-0.00034660,-0.00053705,-0.00028186,0.
 00045721,0.00174252,-0.00300855,-0.00006799,0.00034664,-0.00005451,0.0
 0018109,0.00003621,0.00012355,-0.00013637,0.00019302,-0.00005544,-0.00
 019197,0.00007422,0.00025228,-0.00010455,0.00002490,0.00003154,-0.0000
 2297,0.00000822,-0.00001045,-0.00005294,-0.00002939,0.00000562,0.00004
 971,-0.00004200,-0.00001716,0.00009248,-0.00013468,0.00001793,0.000209
 40,-0.00007112,-0.00000216,0.00025658,0.00040877,0.00014963,-0.0003650
 8,0.00003715,0.00027024,0.00052801,0.00005563,-0.00028702,-0.00000097,
 0.00003245,0.00000602,0.00004376,0.00000123,-0.00003134,0.00000524,-0.
 00001709,-0.00000800,0.00039731,-0.00015421,0.00124345,0.00035276,0.00
 019014,0.00001724,0.00003672,0.00005308,-0.00007116,0.00074223,-0.0001
 0861,-0.00057799,-0.29754430,-0.05881675,0.00370170,0.32391819,0.01342
 020,0.00181184,0.00086158,0.00050559,0.00080068,-0.00063584,0.00028445
 ,0.00022470,0.00004236,0.00053063,-0.00006112,-0.00008379,0.00016424,-
 0.00038702,0.00231907,0.00010699,-0.00018295,-0.00007046,0.00016742,0.
 00000759,-0.00030079,0.00010292,0.00014814,0.00003303,-0.00018967,-0.0
 0007571,-0.00023175,0.00004986,-0.00000981,0.00002280,-0.00001182,0.00
 001318,0.00004353,0.00002747,0.00000455,-0.00000616,0.00012505,0.00027
 247,0.00036544,-0.00005190,0.00009957,0.00003306,-0.00012006,0.0000317
 2,0.00002940,-0.00008519,-0.00022990,-0.00010070,0.00033348,0.00007200
 ,-0.00003515,-0.00023953,-0.00032669,0.00038198,0.00001280,0.00001213,
 0.00001135,-0.00002926,0.00001215,0.00001312,-0.00001546,0.00001525,-0
 .00000899,-0.00032469,0.00007478,-0.00076127,0.00012056,-0.00015377,-0
 .00010534,-0.00016633,0.00002183,0.00005238,-0.00010519,0.00027206,-0.
 00014064,-0.05931097,-0.06339763,-0.00046550,0.06429579,0.06427864,-0.
 02744930,-0.00642494,-0.00144767,0.00063379,-0.00095715,0.00061002,-0.
 00039598,-0.00027288,-0.00000663,-0.00104700,-0.00026314,0.00003272,-0
 .00080279,0.00263990,-0.00393583,-0.00038176,0.00015188,0.00021321,0.0
 0013973,-0.00004689,0.00020771,-0.00017550,0.00013293,-0.00008476,-0.0
 0012313,0.00017191,0.00038095,-0.00011943,0.00002306,0.00001077,-0.000
 00989,-0.00000074,-0.00000983,-0.00004976,-0.00002688,-0.00001560,0.00
 008839,-0.00012561,-0.00012390,0.00006697,-0.00003304,-0.00002992,0.00
 008526,-0.00008435,0.00000109,0.00019776,0.00016242,-0.00001345,-0.000
 29829,0.00001904,-0.00002986,0.00021179,0.00033932,-0.00010446,-0.0000
 0839,0.00000341,0.00001837,0.00002671,0.00000043,-0.00001122,0.0000036
 4,-0.00001978,-0.00000734,-0.00092542,-0.00050428,0.00181966,0.0002900
 1,0.00017143,0.00035259,0.00005674,-0.00006214,-0.00018136,0.00053695,
 0.00013351,-0.00045942,0.00430525,-0.00007678,-0.04897733,-0.00183766,
 -0.00253546,0.05165248,0.00014028,0.01603161,-0.00130593,-0.00074708,-
 0.00004010,-0.00276899,-0.00006116,0.00059374,0.00003266,0.00019164,0.
 00039525,-0.00005179,0.00092270,0.00056240,0.00062903,0.00001621,0.000
 39246,0.00005909,-0.00026403,-0.00015592,0.00012937,0.00006125,-0.0001
 4242,-0.00002713,0.00012403,-0.00004997,-0.00003265,0.00001996,-0.0000
 1341,0.00000760,0.00001603,-0.00003395,-0.00001687,0.00000567,0.000013
 64,-0.00001055,-0.00030425,-0.00036429,-0.00040274,-0.00006067,-0.0001
 6305,0.00027747,0.00009997,0.00013739,-0.00004785,-0.00000727,0.000146
 33,0.00031566,-0.00024335,0.00009422,0.00007051,0.00025236,0.00014133,
 -0.00037682,0.00000441,0.00003637,0.00000544,0.00001198,-0.00000798,-0
 .00004484,-0.00002252,0.00006308,-0.00001935,0.00017304,-0.00031125,0.
 00096416,-0.00018575,0.00004505,0.00011781,0.00030776,-0.00017398,0.00
 005025,0.00003700,-0.00016903,-0.00006200,-0.05200575,-0.02678718,0.00
 172214,-0.00160927,-0.03289704,0.00040972,0.05210769,-0.00043939,-0.01
 251556,0.00014971,0.00158589,0.00076907,0.00252021,-0.00048948,-0.0003
 0672,0.00031051,-0.00000067,-0.00053613,-0.00003053,-0.00111196,0.0003
 9987,-0.00004058,0.00008007,-0.00030808,-0.00025824,0.00033316,0.00028
 093,-0.00015052,-0.00008861,0.00017957,-0.00000435,-0.00013009,0.00006
 599,-0.00002164,-0.00001449,0.00000138,0.00000923,-0.00000168,0.000039
 62,0.00002809,0.00003308,0.00000515,-0.00000788,-0.00005552,0.00048852
 ,0.00022042,0.00008174,-0.00020769,-0.00020629,0.00022193,-0.00008759,
 0.00004563,0.00000994,0.00019899,-0.00008310,0.00032001,0.00000018,0.0
 0006154,-0.00001176,0.00006152,-0.00003541,-0.00002143,-0.00005093,-0.
 00000335,0.00001308,-0.00002242,0.00000470,0.00003420,-0.00009100,-0.0
 0003239,-0.00020263,0.00032659,-0.00108799,0.00011533,0.00037581,-0.00
 000616,-0.00015462,0.00070582,0.00056459,0.00005620,0.00002195,0.00005
 715,-0.02628499,-0.30888730,0.00382047,-0.00054640,-0.00604474,-0.0002
 8662,0.02830157,0.33607315,0.00273325,0.02798431,-0.00221893,-0.002837
 56,0.00032730,-0.00388759,0.00013779,0.00106813,-0.00000679,0.00021379
 ,0.00043330,-0.00002076,0.00105498,-0.00051028,0.00058675,-0.00006137,
 0.00029217,-0.00003073,-0.00013806,-0.00022173,-0.00000371,0.00009590,
 -0.00007495,0.00000156,0.00004156,-0.00006341,-0.00002801,0.00001985,-
 0.00000094,-0.00000818,0.00000254,-0.00002712,-0.00001095,-0.00000507,
 0.00000791,0.00001872,-0.00030270,-0.00026207,-0.00008757,-0.00017885,
 0.00011855,0.00038163,-0.00016492,0.00015346,-0.00008540,0.00006958,-0
 .00013544,0.00020465,-0.00019888,0.00036193,0.00020535,0.00012794,-0.0
 0007924,-0.00011564,0.00002019,0.00005297,-0.00001747,-0.00000141,0.00
 001042,-0.00000918,-0.00003876,0.00011662,0.00000992,0.00042118,0.0010
 2764,0.00179211,-0.00012265,-0.00031186,0.00036086,-0.00007503,-0.0005
 7619,-0.00045921,0.00006259,-0.00004945,-0.00018175,0.00140300,0.00318
 512,-0.04902276,0.00036686,0.00052164,-0.00097691,0.00151919,-0.005967
 02,0.05166345,0.00545280,-0.00665095,-0.01303269,0.00036481,-0.0003738
 7,0.00007509,0.00029380,0.00000568,0.00009387,0.00013176,0.00003035,0.
 00013244,0.00097462,-0.00064229,-0.00064116,0.00003600,-0.00006809,0.0
 0009515,-0.00007947,-0.00004618,0.00006025,0.00004977,-0.00002205,-0.0
 0001114,-0.00002839,0.00000503,0.00001179,0.00001966,-0.00001091,-0.00
 000968,0.00000671,0.00000086,-0.00000521,0.00000301,0.00000956,0.00000
 140,0.00002176,0.00002877,-0.00004127,-0.00002165,0.00006433,-0.000037
 49,-0.00008491,-0.00004195,0.00001678,0.00012313,-0.00013201,-0.000098
 69,-0.00030977,0.00005014,0.00001954,0.00006108,0.00006154,0.00007949,
 -0.00001095,0.00000172,0.00001073,0.00000147,-0.00001158,0.00000961,0.
 00000127,0.00000522,-0.00000390,-0.00128640,0.00134535,-0.00238260,0.0
 0081205,-0.00017050,-0.00087188,-0.00018494,0.00011746,0.00014020,0.00
 034178,0.00012002,-0.00029137,-0.09649065,0.04286317,0.09336164,-0.011
 78190,0.01329964,0.02657156,0.00101913,-0.00163249,-0.00416492,0.10056
 443,-0.00610688,0.00381351,0.01096699,-0.00070042,0.00081923,0.0006631
 6,0.00004562,0.00014332,-0.00012001,-0.00002812,0.00029793,-0.00007918
 ,-0.00025687,0.00022465,-0.00014918,0.00008753,-0.00031792,0.00000503,
 -0.00015599,0.00009988,0.00010670,-0.00002489,-0.00009295,-0.00001521,
 0.00006282,-0.00000930,0.00003658,0.00000718,0.00000062,0.00000198,-0.
 00001108,-0.00000006,-0.00000978,0.00000282,-0.00000966,-0.00001066,0.
 00005545,0.00007243,-0.00008853,0.00000320,-0.00001849,-0.00001796,-0.
 00004050,0.00004192,0.00001303,-0.00001841,-0.00010497,-0.00007228,-0.
 00011180,0.00004008,-0.00008608,0.00003367,0.00003358,0.00005096,0.000
 00753,0.00000496,-0.00000056,0.00000017,0.00000538,0.00000668,-0.00001
 322,0.00001972,0.00000856,0.00131374,-0.00079319,0.00198738,-0.0001321
 9,0.00077229,0.00071508,0.00005447,0.00038050,0.00030976,0.00018380,-0
 .00015473,-0.00017039,0.04283170,-0.08957741,-0.08599581,-0.00323852,0
 .00269606,0.00777147,0.01435511,-0.01093598,-0.02738177,-0.04820596,0.
 09254860,0.01041483,-0.00957999,-0.02137621,0.00035532,-0.00161299,0.0
 0047206,-0.00014027,0.00043223,0.00020149,-0.00044480,0.00007883,0.000
 20855,0.00164119,-0.00011907,0.00045644,-0.00035018,-0.00021948,0.0002
 7920,0.00002539,-0.00009707,-0.00006122,-0.00001921,0.00003453,0.00000
 493,-0.00005823,0.00009615,-0.00007046,-0.00002491,-0.00000016,-0.0000
 2100,0.00000182,0.00000523,0.00001424,-0.00002183,0.00000307,-0.000010
 07,0.00004228,0.00005564,0.00000015,-0.00010426,0.00004221,-0.00006801
 ,-0.00003349,0.00001439,0.00000464,0.00009592,-0.00000797,-0.00005897,
 0.00018787,0.00038107,0.00026737,-0.00005183,-0.00005149,-0.00000068,-
 0.00000611,0.00002081,-0.00001071,-0.00000465,-0.00000200,0.00001401,-
 0.00000327,0.00002352,-0.00002171,-0.00374305,0.00317878,-0.00407344,0
 .00079235,-0.00074347,-0.00149041,-0.00009923,0.00000175,0.00035534,-0
 .00001964,0.00010869,0.00036450,0.09197391,-0.08477813,-0.23011849,-0.
 00017575,0.00075106,0.00111593,-0.00114262,0.00042982,0.00194652,-0.09
 908753,0.09155403,0.25167601\\0.00006639,-0.00002576,0.00000681,0.0000
 6553,0.00004902,-0.00000251,-0.00008893,0.00001560,0.00000219,-0.00001
 996,0.00006897,-0.00000134,-0.00004273,-0.00008869,0.00000115,0.000036
 34,0.00001508,-0.00000007,-0.00005379,0.00002704,0.00000014,0.00001904
 ,-0.00005975,0.00000041,0.00003099,0.00002211,-0.00000108,-0.00000245,
 0.00000285,0.00000003,-0.00000721,-0.00000781,0.00000030,-0.00001292,0
 .00000070,0.00000019,0.00000921,-0.00000120,-0.00000010,-0.00001189,-0
 .00003834,0.00000020,0.00006293,-0.00001328,-0.00000104,-0.00003042,0.
 00005349,0.00000013,0.00000045,-0.00004073,0.00000003,-0.00000147,-0.0
 0001289,0.00000047,-0.00000352,0.00001325,-0.00000006,0.00000345,0.000
 00824,-0.00000026,-0.00000132,0.00000813,0.00000005,-0.00001238,0.0000
 0389,0.00000219,-0.00001355,0.00001108,0.00001011,0.00000866,-0.000008
 07,-0.00000732,0.00000889,-0.00000528,-0.00000876,-0.00001316,0.000004
 84,-0.00000612,0.00000956,-0.00000513,0.00000798,0.00000843,-0.0000080
 1,0.00000636,-0.00001417,0.00001067,-0.00001008\\\@


 MICHAEL FARADAY, ASKED BY A POLITICIAN WHAT GOOD
 HIS ELECTRICAL DISCOVERIES WERE, REPLIED 
 "AT PRESENT I DO NOT KNOW, BUT ONE DAY YOU WILL BE
 ABLE TO TAX THEM."
 Job cpu time:       0 days  0 hours 11 minutes 46.2 seconds.
 Elapsed time:       0 days  0 hours 11 minutes 47.3 seconds.
 File lengths (MBytes):  RWF=    215 Int=      0 D2E=      0 Chk=      8 Scr=      1
 Normal termination of Gaussian 16 at Thu Aug 20 10:14:45 2026.
