29
Generated from .fchk
C 0.000147 1.414794 0.000029
C -1.180259 0.445129 0.000050
C -0.733997 -0.888640 0.000019
C 0.733816 -0.888758 0.000023
C 1.180249 0.444946 0.000022
C 2.539289 0.727305 0.000039
C 3.454779 -0.328214 0.000032
C 3.010900 -1.651445 -0.000015
C 1.647610 -1.941720 -0.000000
H 1.309042 -2.972070 -0.000024
H 3.733238 -2.460030 -0.000009
H 4.518430 -0.118095 0.000064
H 2.895847 1.752181 0.000069
C -1.647756 -1.941633 -0.000027
C -3.011039 -1.651341 -0.000011
C -3.454796 -0.328078 0.000036
C -2.539307 0.727445 0.000070
H -2.895996 1.752277 0.000146
H -4.518440 -0.117902 0.000069
H -3.733478 -2.459835 -0.000035
H -1.309013 -2.971918 -0.000061
C 0.000170 2.300348 1.264891
H 0.000502 1.690359 2.170781
H 0.884203 2.943918 1.285443
H -0.884202 2.943428 1.285694
C 0.000125 2.300050 -1.265070
H -0.884308 2.943043 -1.286046
H 0.884105 2.943685 -1.285802
H 0.000486 1.689829 -2.170807