%chk=bz.chk
#p opt=tight freq b3lyp/6-31g(d)

Opt bz

0 1
 C                 -0.43805953    0.15220819    0.24892263
 C                  0.96334040    0.15213807    0.24935164
 C                  1.66410133    1.36575076    0.24878646
 C                  0.96346232    2.57943357    0.24779149
 C                 -0.43793761    2.57950369    0.24736453
 C                 -1.13869854    1.36589100    0.24792945
 H                 -0.97310605   -0.77441203    0.24935314
 H                  1.49829383   -0.77453568    0.25011021
 H                  2.73410128    1.36569723    0.24911358
 H                  1.49850884    3.50605379    0.24735845
 H                 -0.97289104    3.50617745    0.24660736
 H                 -2.20869849    1.36594453    0.24760328

