 Entering Gaussian System, Link 0=g16
 Initial command:
 /sw/cluster/pub/apps//g16/l1.exe "/data/mmaximo/44352/Gau-1956196.inp" -scrdir="/data/mmaximo/44352/"
 Entering Link 1 = /sw/cluster/pub/apps//g16/l1.exe PID=   1956197.
  
 Copyright (c) 1988,1990,1992,1993,1995,1998,2003,2009,2016,
            Gaussian, Inc.  All Rights Reserved.
  
 This is part of the Gaussian(R) 16 program.  It is based on
 the Gaussian(R) 09 system (copyright 2009, Gaussian, Inc.),
 the Gaussian(R) 03 system (copyright 2003, Gaussian, Inc.),
 the Gaussian(R) 98 system (copyright 1998, Gaussian, Inc.),
 the Gaussian(R) 94 system (copyright 1995, Gaussian, Inc.),
 the Gaussian 92(TM) system (copyright 1992, Gaussian, Inc.),
 the Gaussian 90(TM) system (copyright 1990, Gaussian, Inc.),
 the Gaussian 88(TM) system (copyright 1988, Gaussian, Inc.),
 the Gaussian 86(TM) system (copyright 1986, Carnegie Mellon
 University), and the Gaussian 82(TM) system (copyright 1983,
 Carnegie Mellon University). Gaussian is a federally registered
 trademark of Gaussian, Inc.
  
 This software contains proprietary and confidential information,
 including trade secrets, belonging to Gaussian, Inc.
  
 This software is provided under written license and may be
 used, copied, transmitted, or stored only in accord with that
 written license.
  
 The following legend is applicable only to US Government
 contracts under FAR:
  
                    RESTRICTED RIGHTS LEGEND
  
 Use, reproduction and disclosure by the US Government is
 subject to restrictions as set forth in subparagraphs (a)
 and (c) of the Commercial Computer Software - Restricted
 Rights clause in FAR 52.227-19.
  
 Gaussian, Inc.
 340 Quinnipiac St., Bldg. 40, Wallingford CT 06492
  
  
 ---------------------------------------------------------------
 Warning -- This program may not be used in any manner that
 competes with the business of Gaussian, Inc. or will provide
 assistance to any competitor of Gaussian, Inc.  The licensee
 of this program is prohibited from giving any competitor of
 Gaussian, Inc. access to this program.  By using this program,
 the user acknowledges that Gaussian, Inc. is engaged in the
 business of creating and licensing software in the field of
 computational chemistry and represents and warrants to the
 licensee that it is not a competitor of Gaussian, Inc. and that
 it will not use this program in any manner prohibited above.
 ---------------------------------------------------------------
  

 Cite this work as:
 Gaussian 16, Revision A.03,
 M. J. Frisch, G. W. Trucks, H. B. Schlegel, G. E. Scuseria, 
 M. A. Robb, J. R. Cheeseman, G. Scalmani, V. Barone, 
 G. A. Petersson, H. Nakatsuji, X. Li, M. Caricato, A. V. Marenich, 
 J. Bloino, B. G. Janesko, R. Gomperts, B. Mennucci, H. P. Hratchian, 
 J. V. Ortiz, A. F. Izmaylov, J. L. Sonnenberg, D. Williams-Young, 
 F. Ding, F. Lipparini, F. Egidi, J. Goings, B. Peng, A. Petrone, 
 T. Henderson, D. Ranasinghe, V. G. Zakrzewski, J. Gao, N. Rega, 
 G. Zheng, W. Liang, M. Hada, M. Ehara, K. Toyota, R. Fukuda, 
 J. Hasegawa, M. Ishida, T. Nakajima, Y. Honda, O. Kitao, H. Nakai, 
 T. Vreven, K. Throssell, J. A. Montgomery, Jr., J. E. Peralta, 
 F. Ogliaro, M. J. Bearpark, J. J. Heyd, E. N. Brothers, K. N. Kudin, 
 V. N. Staroverov, T. A. Keith, R. Kobayashi, J. Normand, 
 K. Raghavachari, A. P. Rendell, J. C. Burant, S. S. Iyengar, 
 J. Tomasi, M. Cossi, J. M. Millam, M. Klene, C. Adamo, R. Cammi, 
 J. W. Ochterski, R. L. Martin, K. Morokuma, O. Farkas, 
 J. B. Foresman, and D. J. Fox, Gaussian, Inc., Wallingford CT, 2016.
 
 ******************************************
 Gaussian 16:  ES64L-G16RevA.03 25-Dec-2016
                18-Mar-2026 
 ******************************************
 %chk=bz-def2TZVP.chk
 --------------------------
 #P B3LYP/def2TZVP OPT FREQ
 --------------------------
 1/18=20,19=15,26=3,38=1/1,3;
 2/9=110,12=2,17=6,18=5,40=1/2;
 3/5=44,7=101,11=2,25=1,30=1,71=1,74=-5/1,2,3;
 4//1;
 5/5=2,38=5/2;
 6/7=2,8=2,9=2,10=2,28=1/1;
 7//1,2,3,16;
 1/18=20,19=15,26=3/3(2);
 2/9=110/2;
 99//99;
 2/9=110/2;
 3/5=44,7=101,11=2,25=1,30=1,71=1,74=-5/1,2,3;
 4/5=5,16=3,69=1/1;
 5/5=2,38=5/2;
 7//1,2,3,16;
 1/18=20,19=15,26=3/3(-5);
 2/9=110/2;
 6/7=2,8=2,9=2,10=2,19=2,28=1/1;
 99/9=1/99;
 Leave Link    1 at Wed Mar 18 10:10:29 2026, MaxMem=           0 cpu:               0.0 elap:               0.0
 (Enter /sw/cluster/pub/apps//g16/l101.exe)
 -------------------------
 OPT FREQ benzene def2TZVP
 -------------------------
 Symbolic Z-matrix:
 Charge =  0 Multiplicity = 1
 C                    -0.43806   0.15221   0.24892 
 C                     0.96334   0.15214   0.24935 
 C                     1.6641    1.36575   0.24879 
 C                     0.96346   2.57943   0.24779 
 C                    -0.43794   2.5795    0.24736 
 C                    -1.1387    1.36589   0.24793 
 H                    -0.97311  -0.77441   0.24935 
 H                     1.49829  -0.77454   0.25011 
 H                     2.7341    1.3657    0.24911 
 H                     1.49851   3.50605   0.24736 
 H                    -0.97289   3.50618   0.24661 
 H                    -2.2087    1.36594   0.2476 
 
 ITRead=  0  0  0  0  0  0  0  0  0  0  0  0
 MicOpt= -1 -1 -1 -1 -1 -1 -1 -1 -1 -1 -1 -1
 NAtoms=     12 NQM=       12 NQMF=       0 NMMI=      0 NMMIF=      0
                NMic=       0 NMicF=      0.
                    Isotopes and Nuclear Properties:
 (Nuclear quadrupole moments (NQMom) in fm**2, nuclear magnetic moments (NMagM)
  in nuclear magnetons)

  Atom         1           2           3           4           5           6           7           8           9          10
 IAtWgt=          12          12          12          12          12          12           1           1           1           1
 AtmWgt=  12.0000000  12.0000000  12.0000000  12.0000000  12.0000000  12.0000000   1.0078250   1.0078250   1.0078250   1.0078250
 NucSpn=           0           0           0           0           0           0           1           1           1           1
 AtZEff=  -0.0000000  -0.0000000  -0.0000000  -0.0000000  -0.0000000  -0.0000000  -0.0000000  -0.0000000  -0.0000000  -0.0000000
 NQMom=    0.0000000   0.0000000   0.0000000   0.0000000   0.0000000   0.0000000   0.0000000   0.0000000   0.0000000   0.0000000
 NMagM=    0.0000000   0.0000000   0.0000000   0.0000000   0.0000000   0.0000000   2.7928460   2.7928460   2.7928460   2.7928460
 AtZNuc=   6.0000000   6.0000000   6.0000000   6.0000000   6.0000000   6.0000000   1.0000000   1.0000000   1.0000000   1.0000000

  Atom        11          12
 IAtWgt=           1           1
 AtmWgt=   1.0078250   1.0078250
 NucSpn=           1           1
 AtZEff=  -0.0000000  -0.0000000
 NQMom=    0.0000000   0.0000000
 NMagM=    2.7928460   2.7928460
 AtZNuc=   1.0000000   1.0000000
 Leave Link  101 at Wed Mar 18 10:10:29 2026, MaxMem=   104857600 cpu:               0.0 elap:               0.0
 (Enter /sw/cluster/pub/apps//g16/l103.exe)

 GradGradGradGradGradGradGradGradGradGradGradGradGradGradGradGradGradGrad
 Berny optimization.
 Initialization pass.
                           ----------------------------
                           !    Initial Parameters    !
                           ! (Angstroms and Degrees)  !
 --------------------------                            --------------------------
 ! Name  Definition              Value          Derivative Info.                !
 --------------------------------------------------------------------------------
 ! R1    R(1,2)                  1.4014         estimate D2E/DX2                !
 ! R2    R(1,6)                  1.4014         estimate D2E/DX2                !
 ! R3    R(1,7)                  1.07           estimate D2E/DX2                !
 ! R4    R(2,3)                  1.4014         estimate D2E/DX2                !
 ! R5    R(2,8)                  1.07           estimate D2E/DX2                !
 ! R6    R(3,4)                  1.4014         estimate D2E/DX2                !
 ! R7    R(3,9)                  1.07           estimate D2E/DX2                !
 ! R8    R(4,5)                  1.4014         estimate D2E/DX2                !
 ! R9    R(4,10)                 1.07           estimate D2E/DX2                !
 ! R10   R(5,6)                  1.4014         estimate D2E/DX2                !
 ! R11   R(5,11)                 1.07           estimate D2E/DX2                !
 ! R12   R(6,12)                 1.07           estimate D2E/DX2                !
 ! A1    A(2,1,6)              120.0            estimate D2E/DX2                !
 ! A2    A(2,1,7)              120.0            estimate D2E/DX2                !
 ! A3    A(6,1,7)              120.0            estimate D2E/DX2                !
 ! A4    A(1,2,3)              120.0            estimate D2E/DX2                !
 ! A5    A(1,2,8)              120.0            estimate D2E/DX2                !
 ! A6    A(3,2,8)              120.0            estimate D2E/DX2                !
 ! A7    A(2,3,4)              120.0            estimate D2E/DX2                !
 ! A8    A(2,3,9)              120.0            estimate D2E/DX2                !
 ! A9    A(4,3,9)              120.0            estimate D2E/DX2                !
 ! A10   A(3,4,5)              120.0            estimate D2E/DX2                !
 ! A11   A(3,4,10)             120.0            estimate D2E/DX2                !
 ! A12   A(5,4,10)             120.0            estimate D2E/DX2                !
 ! A13   A(4,5,6)              120.0            estimate D2E/DX2                !
 ! A14   A(4,5,11)             120.0            estimate D2E/DX2                !
 ! A15   A(6,5,11)             120.0            estimate D2E/DX2                !
 ! A16   A(1,6,5)              120.0            estimate D2E/DX2                !
 ! A17   A(1,6,12)             120.0            estimate D2E/DX2                !
 ! A18   A(5,6,12)             120.0            estimate D2E/DX2                !
 ! D1    D(6,1,2,3)              0.0            estimate D2E/DX2                !
 ! D2    D(6,1,2,8)            180.0            estimate D2E/DX2                !
 ! D3    D(7,1,2,3)            179.9999         estimate D2E/DX2                !
 ! D4    D(7,1,2,8)              0.0            estimate D2E/DX2                !
 ! D5    D(2,1,6,5)              0.0            estimate D2E/DX2                !
 ! D6    D(2,1,6,12)          -179.9999         estimate D2E/DX2                !
 ! D7    D(7,1,6,5)           -179.9999         estimate D2E/DX2                !
 ! D8    D(7,1,6,12)             0.0001         estimate D2E/DX2                !
 ! D9    D(1,2,3,4)              0.0            estimate D2E/DX2                !
 ! D10   D(1,2,3,9)           -180.0            estimate D2E/DX2                !
 ! D11   D(8,2,3,4)            179.9999         estimate D2E/DX2                !
 ! D12   D(8,2,3,9)              0.0            estimate D2E/DX2                !
 ! D13   D(2,3,4,5)              0.0001         estimate D2E/DX2                !
 ! D14   D(2,3,4,10)          -179.9999         estimate D2E/DX2                !
 ! D15   D(9,3,4,5)           -179.9999         estimate D2E/DX2                !
 ! D16   D(9,3,4,10)             0.0            estimate D2E/DX2                !
 ! D17   D(3,4,5,6)             -0.0001         estimate D2E/DX2                !
 ! D18   D(3,4,5,11)           179.9998         estimate D2E/DX2                !
 ! D19   D(10,4,5,6)           179.9999         estimate D2E/DX2                !
 ! D20   D(10,4,5,11)           -0.0001         estimate D2E/DX2                !
 ! D21   D(4,5,6,1)              0.0001         estimate D2E/DX2                !
 ! D22   D(4,5,6,12)          -180.0            estimate D2E/DX2                !
 ! D23   D(11,5,6,1)          -179.9999         estimate D2E/DX2                !
 ! D24   D(11,5,6,12)            0.0            estimate D2E/DX2                !
 --------------------------------------------------------------------------------
 Trust Radius=3.00D-01 FncErr=1.00D-07 GrdErr=1.00D-06 EigMax=2.50D+02 EigMin=1.00D-04
 Number of steps in this run=     64 maximum allowed number of steps=    100.
 GradGradGradGradGradGradGradGradGradGradGradGradGradGradGradGradGradGrad

 Leave Link  103 at Wed Mar 18 10:10:29 2026, MaxMem=   104857600 cpu:               0.0 elap:               0.0
 (Enter /sw/cluster/pub/apps//g16/l202.exe)
                          Input orientation:                          
 ---------------------------------------------------------------------
 Center     Atomic      Atomic             Coordinates (Angstroms)
 Number     Number       Type             X           Y           Z
 ---------------------------------------------------------------------
      1          6           0       -0.438060    0.152208    0.248923
      2          6           0        0.963340    0.152138    0.249352
      3          6           0        1.664101    1.365751    0.248786
      4          6           0        0.963462    2.579434    0.247791
      5          6           0       -0.437938    2.579504    0.247365
      6          6           0       -1.138699    1.365891    0.247929
      7          1           0       -0.973106   -0.774412    0.249353
      8          1           0        1.498294   -0.774536    0.250110
      9          1           0        2.734101    1.365697    0.249114
     10          1           0        1.498509    3.506054    0.247358
     11          1           0       -0.972891    3.506177    0.246607
     12          1           0       -2.208698    1.365945    0.247603
 ---------------------------------------------------------------------
                    Distance matrix (angstroms):
                    1          2          3          4          5
     1  C    0.000000
     2  C    1.401400   0.000000
     3  C    2.427296   1.401400   0.000000
     4  C    2.802800   2.427296   1.401400   0.000000
     5  C    2.427296   2.802800   2.427296   1.401400   0.000000
     6  C    1.401400   2.427296   2.802800   2.427296   1.401400
     7  H    1.070000   2.146700   3.396345   3.872800   3.396345
     8  H    2.146700   1.070000   2.146700   3.396345   3.872800
     9  H    3.396345   2.146700   1.070000   2.146700   3.396345
    10  H    3.872800   3.396345   2.146700   1.070000   2.146700
    11  H    3.396345   3.872800   3.396345   2.146700   1.070000
    12  H    2.146700   3.396345   3.872800   3.396345   2.146700
                    6          7          8          9         10
     6  C    0.000000
     7  H    2.146700   0.000000
     8  H    3.396345   2.471400   0.000000
     9  H    3.872800   4.280590   2.471400   0.000000
    10  H    3.396345   4.942800   4.280590   2.471400   0.000000
    11  H    2.146700   4.280590   4.942800   4.280590   2.471400
    12  H    1.070000   2.471400   4.280590   4.942800   4.280590
                   11         12
    11  H    0.000000
    12  H    2.471400   0.000000
 This structure is nearly, but not quite of a higher symmetry.
 Consider Symm=Loose if the higher symmetry is desired.
 Stoichiometry    C6H6
 Framework group  C1[X(C6H6)]
 Deg. of freedom    30
 Full point group                 C1      NOp   1
 Largest Abelian subgroup         C1      NOp   1
 Largest concise Abelian subgroup C1      NOp   1
                         Standard orientation:                         
 ---------------------------------------------------------------------
 Center     Atomic      Atomic             Coordinates (Angstroms)
 Number     Number       Type             X           Y           Z
 ---------------------------------------------------------------------
      1          6           0       -0.314045   -1.365759    0.000566
      2          6           0       -1.339804   -0.410908    0.000993
      3          6           0       -1.025759    0.954851    0.000428
      4          6           0        0.314045    1.365759   -0.000565
      5          6           0        1.339804    0.410908   -0.000994
      6          6           0        1.025759   -0.954851   -0.000428
      7          1           0       -0.553826   -2.408546    0.000999
      8          1           0       -2.362775   -0.724645    0.001752
      9          1           0       -1.808949    1.683901    0.000754
     10          1           0        0.553826    2.408546   -0.000995
     11          1           0        2.362775    0.724645   -0.001754
     12          1           0        1.808949   -1.683901   -0.000756
 ---------------------------------------------------------------------
 Rotational constants (GHZ):           5.6677156           5.6677155           2.8338578
 Leave Link  202 at Wed Mar 18 10:10:29 2026, MaxMem=   104857600 cpu:               0.0 elap:               0.0
 (Enter /sw/cluster/pub/apps//g16/l301.exe)
 Standard basis: def2TZVP (5D, 7F)
 Ernie: Thresh=  0.10000D-02 Tol=  0.10000D-05 Strict=F.
 There are   252 symmetry adapted cartesian basis functions of A   symmetry.
 There are   222 symmetry adapted basis functions of A   symmetry.
   222 basis functions,   354 primitive gaussians,   252 cartesian basis functions
    21 alpha electrons       21 beta electrons
       nuclear repulsion energy       203.0814684940 Hartrees.
 IExCor=  402 DFT=T Ex+Corr=B3LYP ExCW=0 ScaHFX=  0.200000
 ScaDFX=  0.800000  0.720000  1.000000  0.810000 ScalE2=  1.000000  1.000000
 IRadAn=      5 IRanWt=     -1 IRanGd=            0 ICorTp=0 IEmpDi=  4
 NAtoms=   12 NActive=   12 NUniq=   12 SFac= 1.00D+00 NAtFMM=   60 NAOKFM=F Big=F
 Integral buffers will be    131072 words long.
 Raffenetti 2 integral format.
 Two-electron integral symmetry is turned on.
 Leave Link  301 at Wed Mar 18 10:10:29 2026, MaxMem=   104857600 cpu:               0.0 elap:               0.0
 (Enter /sw/cluster/pub/apps//g16/l302.exe)
 NPDir=0 NMtPBC=     1 NCelOv=     1 NCel=       1 NClECP=     1 NCelD=      1
         NCelK=      1 NCelE2=     1 NClLst=     1 CellRange=     0.0.
 One-electron integrals computed using PRISM.
 One-electron integral symmetry used in STVInt
   1 Symmetry operations used in ECPInt.
 ECPInt:  NShTT=    4095 NPrTT=   12396 LenC2=    4075 LenP2D=   10419.
 LDataN:  DoStor=T MaxTD1= 6 Len=  172
 NBasis=   222 RedAO= T EigKep=  1.07D-05  NBF=   222
 NBsUse=   222 1.00D-06 EigRej= -1.00D+00 NBFU=   222
 Precomputing XC quadrature grid using
 IXCGrd= 4 IRadAn=           5 IRanWt=          -1 IRanGd=           0 AccXCQ= 0.00D+00.
 Generated NRdTot=       0 NPtTot=           0 NUsed=           0 NTot=          32
 NSgBfM=   251   251   251   251   251 MxSgAt=    12 MxSgA2=    12.
 Leave Link  302 at Wed Mar 18 10:10:29 2026, MaxMem=   104857600 cpu:               0.1 elap:               0.1
 (Enter /sw/cluster/pub/apps//g16/l303.exe)
 DipDrv:  MaxL=1.
 Leave Link  303 at Wed Mar 18 10:10:29 2026, MaxMem=   104857600 cpu:               0.0 elap:               0.0
 (Enter /sw/cluster/pub/apps//g16/l401.exe)
 ExpMin= 9.52D-02 ExpMax= 1.36D+04 ExpMxC= 4.63D+02 IAcc=3 IRadAn=         5 AccDes= 0.00D+00
 Harris functional with IExCor=  402 and IRadAn=       5 diagonalized for initial guess.
 HarFok:  IExCor=  402 AccDes= 0.00D+00 IRadAn=         5 IDoV= 1 UseB2=F ITyADJ=14
 ICtDFT=  3500011 ScaDFX=  1.000000  1.000000  1.000000  1.000000
 FoFCou: FMM=F IPFlag=           0 FMFlag=      100000 FMFlg1=           0
         NFxFlg=           0 DoJE=T BraDBF=F KetDBF=T FulRan=T
         wScrn=  0.000000 ICntrl=       500 IOpCl=  0 I1Cent=   200000004 NGrid=           0
         NMat0=    1 NMatS0=      1 NMatT0=    0 NMatD0=    1 NMtDS0=    0 NMtDT0=    0
 Petite list used in FoFCou.
 Harris En= -232.382146851659    
 JPrj=0 DoOrth=F DoCkMO=F.
 Leave Link  401 at Wed Mar 18 10:10:31 2026, MaxMem=   104857600 cpu:               1.4 elap:               1.4
 (Enter /sw/cluster/pub/apps//g16/l502.exe)
 Integral symmetry usage will be decided dynamically.
 Closed shell SCF:
 Using DIIS extrapolation, IDIIS=  1040.
 NGot=   104857600 LenX=   104726736 LenY=   104662791
 Requested convergence on RMS density matrix=1.00D-08 within 128 cycles.
 Requested convergence on MAX density matrix=1.00D-06.
 Requested convergence on             energy=1.00D-06.
 No special actions if energy rises.
 Fock matrices will be formed incrementally for  20 cycles.
 Integral accuracy reduced to 1.0D-05 until final iterations.

 Cycle   1  Pass 0  IDiag  1:
 FoFJK:  IHMeth= 1 ICntrl=       0 DoSepK=F KAlg= 0 I1Cent=           0 FoldK=F
 IRaf= 980000000 NMat=       1 IRICut=       1 DoRegI=T DoRafI=F ISym2E= 0 IDoP0=0 IntGTp=1.
 FoFCou: FMM=F IPFlag=           0 FMFlag=      100000 FMFlg1=           0
         NFxFlg=           0 DoJE=F BraDBF=F KetDBF=F FulRan=T
         wScrn=  0.000000 ICntrl=         0 IOpCl=  0 I1Cent=           0 NGrid=           0
         NMat0=    1 NMatS0=      1 NMatT0=    0 NMatD0=    1 NMtDS0=    0 NMtDT0=    0
 Symmetry not used in FoFCou.
 E= -232.162315532778    
 DIIS: error= 3.41D-02 at cycle   1 NSaved=   1.
 NSaved= 1 IEnMin= 1 EnMin= -232.162315532778     IErMin= 1 ErrMin= 3.41D-02
 ErrMax= 3.41D-02  0.00D+00 EMaxC= 1.00D-01 BMatC= 1.66D-01 BMatP= 1.66D-01
 IDIUse=3 WtCom= 6.59D-01 WtEn= 3.41D-01
 Coeff-Com:  0.100D+01
 Coeff-En:   0.100D+01
 Coeff:      0.100D+01
 Gap=     0.242 Goal=   None    Shift=    0.000
 GapD=    0.242 DampG=1.000 DampE=0.500 DampFc=0.5000 IDamp=-1.
 Damping current iteration by 5.00D-01
 RMSDP=3.39D-03 MaxDP=5.37D-02              OVMax= 1.77D-01

 Cycle   2  Pass 0  IDiag  1:
 RMSU=  1.61D-03    CP:  9.49D-01
 E= -232.237530180284     Delta-E=       -0.075214647507 Rises=F Damp=T
 DIIS: error= 9.94D-03 at cycle   2 NSaved=   2.
 NSaved= 2 IEnMin= 2 EnMin= -232.237530180284     IErMin= 2 ErrMin= 9.94D-03
 ErrMax= 9.94D-03  0.00D+00 EMaxC= 1.00D-01 BMatC= 9.51D-03 BMatP= 1.66D-01
 IDIUse=3 WtCom= 9.01D-01 WtEn= 9.94D-02
 Coeff-Com:  0.378D-01 0.962D+00
 Coeff-En:   0.112D+00 0.888D+00
 Coeff:      0.452D-01 0.955D+00
 Gap=     0.312 Goal=   None    Shift=    0.000
 RMSDP=8.51D-04 MaxDP=1.30D-02 DE=-7.52D-02 OVMax= 1.01D-01

 Cycle   3  Pass 0  IDiag  1:
 RMSU=  8.42D-04    CP:  9.40D-01  9.46D-01
 E= -232.333137240204     Delta-E=       -0.095607059920 Rises=F Damp=F
 DIIS: error= 7.83D-03 at cycle   3 NSaved=   3.
 NSaved= 3 IEnMin= 3 EnMin= -232.333137240204     IErMin= 3 ErrMin= 7.83D-03
 ErrMax= 7.83D-03  0.00D+00 EMaxC= 1.00D-01 BMatC= 3.10D-03 BMatP= 9.51D-03
 IDIUse=3 WtCom= 9.22D-01 WtEn= 7.83D-02
 Coeff-Com: -0.471D-01 0.336D+00 0.711D+00
 Coeff-En:   0.000D+00 0.000D+00 0.100D+01
 Coeff:     -0.434D-01 0.310D+00 0.733D+00
 Gap=     0.241 Goal=   None    Shift=    0.000
 RMSDP=1.85D-04 MaxDP=3.32D-03 DE=-9.56D-02 OVMax= 1.26D-02

 Cycle   4  Pass 0  IDiag  1:
 RMSU=  1.37D-04    CP:  9.38D-01  9.95D-01  8.88D-01
 E= -232.336108909173     Delta-E=       -0.002971668968 Rises=F Damp=F
 DIIS: error= 9.95D-04 at cycle   4 NSaved=   4.
 NSaved= 4 IEnMin= 4 EnMin= -232.336108909173     IErMin= 4 ErrMin= 9.95D-04
 ErrMax= 9.95D-04  0.00D+00 EMaxC= 1.00D-01 BMatC= 7.73D-05 BMatP= 3.10D-03
 IDIUse=3 WtCom= 9.90D-01 WtEn= 9.95D-03
 Coeff-Com: -0.123D-01 0.272D-01 0.177D+00 0.808D+00
 Coeff-En:   0.000D+00 0.000D+00 0.000D+00 0.100D+01
 Coeff:     -0.122D-01 0.269D-01 0.175D+00 0.810D+00
 Gap=     0.241 Goal=   None    Shift=    0.000
 RMSDP=4.69D-05 MaxDP=5.19D-04 DE=-2.97D-03 OVMax= 1.50D-03

 Cycle   5  Pass 0  IDiag  1:
 RMSU=  2.22D-05    CP:  9.37D-01  1.01D+00  9.26D-01  8.71D-01
 E= -232.336177480618     Delta-E=       -0.000068571445 Rises=F Damp=F
 DIIS: error= 3.35D-05 at cycle   5 NSaved=   5.
 NSaved= 5 IEnMin= 5 EnMin= -232.336177480618     IErMin= 5 ErrMin= 3.35D-05
 ErrMax= 3.35D-05  0.00D+00 EMaxC= 1.00D-01 BMatC= 1.17D-07 BMatP= 7.73D-05
 IDIUse=1 WtCom= 1.00D+00 WtEn= 0.00D+00
 Coeff-Com: -0.339D-03-0.111D-02 0.681D-02 0.629D-01 0.932D+00
 Coeff:     -0.339D-03-0.111D-02 0.681D-02 0.629D-01 0.932D+00
 Gap=     0.241 Goal=   None    Shift=    0.000
 RMSDP=4.34D-06 MaxDP=5.92D-05 DE=-6.86D-05 OVMax= 7.74D-05

 Initial convergence to 1.0D-05 achieved.  Increase integral accuracy.
 Cycle   6  Pass 1  IDiag  1:
 E= -232.336154686252     Delta-E=        0.000022794365 Rises=F Damp=F
 DIIS: error= 4.42D-05 at cycle   1 NSaved=   1.
 NSaved= 1 IEnMin= 1 EnMin= -232.336154686252     IErMin= 1 ErrMin= 4.42D-05
 ErrMax= 4.42D-05  0.00D+00 EMaxC= 1.00D-01 BMatC= 6.00D-08 BMatP= 6.00D-08
 IDIUse=1 WtCom= 1.00D+00 WtEn= 0.00D+00
 Coeff-Com:  0.100D+01
 Coeff:      0.100D+01
 Gap=     0.241 Goal=   None    Shift=    0.000
 RMSDP=4.34D-06 MaxDP=5.92D-05 DE= 2.28D-05 OVMax= 7.44D-05

 Cycle   7  Pass 1  IDiag  1:
 RMSU=  1.92D-05    CP:  1.00D+00
 E= -232.336154717569     Delta-E=       -0.000000031317 Rises=F Damp=F
 DIIS: error= 1.52D-06 at cycle   2 NSaved=   2.
 NSaved= 2 IEnMin= 2 EnMin= -232.336154717569     IErMin= 2 ErrMin= 1.52D-06
 ErrMax= 1.52D-06  0.00D+00 EMaxC= 1.00D-01 BMatC= 2.84D-10 BMatP= 6.00D-08
 IDIUse=1 WtCom= 1.00D+00 WtEn= 0.00D+00
 Coeff-Com: -0.313D-02 0.100D+01
 Coeff:     -0.313D-02 0.100D+01
 Gap=     0.241 Goal=   None    Shift=    0.000
 RMSDP=3.83D-07 MaxDP=5.67D-06 DE=-3.13D-08 OVMax= 9.73D-06

 Cycle   8  Pass 1  IDiag  1:
 RMSU=  1.69D-07    CP:  1.00D+00  1.02D+00
 E= -232.336154717642     Delta-E=       -0.000000000073 Rises=F Damp=F
 DIIS: error= 1.67D-06 at cycle   3 NSaved=   3.
 NSaved= 3 IEnMin= 3 EnMin= -232.336154717642     IErMin= 2 ErrMin= 1.52D-06
 ErrMax= 1.67D-06  0.00D+00 EMaxC= 1.00D-01 BMatC= 2.62D-10 BMatP= 2.84D-10
 IDIUse=1 WtCom= 1.00D+00 WtEn= 0.00D+00
 Coeff-Com: -0.524D-02 0.492D+00 0.513D+00
 Coeff:     -0.524D-02 0.492D+00 0.513D+00
 Gap=     0.241 Goal=   None    Shift=    0.000
 RMSDP=5.30D-08 MaxDP=1.66D-06 DE=-7.30D-11 OVMax= 6.05D-06

 Cycle   9  Pass 1  IDiag  1:
 RMSU=  4.70D-08    CP:  1.00D+00  1.02D+00  8.84D-01
 E= -232.336154717869     Delta-E=       -0.000000000227 Rises=F Damp=F
 DIIS: error= 4.65D-07 at cycle   4 NSaved=   4.
 NSaved= 4 IEnMin= 4 EnMin= -232.336154717869     IErMin= 4 ErrMin= 4.65D-07
 ErrMax= 4.65D-07  0.00D+00 EMaxC= 1.00D-01 BMatC= 1.85D-11 BMatP= 2.62D-10
 IDIUse=1 WtCom= 1.00D+00 WtEn= 0.00D+00
 Coeff-Com: -0.211D-02 0.158D+00 0.255D+00 0.589D+00
 Coeff:     -0.211D-02 0.158D+00 0.255D+00 0.589D+00
 Gap=     0.241 Goal=   None    Shift=    0.000
 RMSDP=1.44D-08 MaxDP=2.87D-07 DE=-2.27D-10 OVMax= 1.49D-06

 Cycle  10  Pass 1  IDiag  1:
 RMSU=  1.09D-08    CP:  1.00D+00  1.02D+00  9.02D-01  8.44D-01
 E= -232.336154717886     Delta-E=       -0.000000000017 Rises=F Damp=F
 DIIS: error= 4.32D-08 at cycle   5 NSaved=   5.
 NSaved= 5 IEnMin= 5 EnMin= -232.336154717886     IErMin= 5 ErrMin= 4.32D-08
 ErrMax= 4.32D-08  0.00D+00 EMaxC= 1.00D-01 BMatC= 2.28D-13 BMatP= 1.85D-11
 IDIUse=1 WtCom= 1.00D+00 WtEn= 0.00D+00
 Coeff-Com: -0.129D-03 0.683D-03 0.173D-01 0.121D+00 0.861D+00
 Coeff:     -0.129D-03 0.683D-03 0.173D-01 0.121D+00 0.861D+00
 Gap=     0.241 Goal=   None    Shift=    0.000
 RMSDP=2.67D-09 MaxDP=4.70D-08 DE=-1.71D-11 OVMax= 1.72D-07

 SCF Done:  E(RB3LYP) =  -232.336154718     A.U. after   10 cycles
            NFock= 10  Conv=0.27D-08     -V/T= 2.0055
 KE= 2.310625223912D+02 PE=-9.445882469708D+02 EE= 2.781081013677D+02
 Leave Link  502 at Wed Mar 18 10:11:08 2026, MaxMem=   104857600 cpu:              37.6 elap:              37.7
 (Enter /sw/cluster/pub/apps//g16/l601.exe)
 Copying SCF densities to generalized density rwf, IOpCl= 0 IROHF=0.

 **********************************************************************

            Population analysis using the SCF density.

 **********************************************************************

 Orbital symmetries:
       Occupied  (A) (A) (A) (A) (A) (A) (A) (A) (A) (A) (A) (A)
                 (A) (A) (A) (A) (A) (A) (A) (A) (A)
       Virtual   (A) (A) (A) (A) (A) (A) (A) (A) (A) (A) (A) (A)
                 (A) (A) (A) (A) (A) (A) (A) (A) (A) (A) (A) (A)
                 (A) (A) (A) (A) (A) (A) (A) (A) (A) (A) (A) (A)
                 (A) (A) (A) (A) (A) (A) (A) (A) (A) (A) (A) (A)
                 (A) (A) (A) (A) (A) (A) (A) (A) (A) (A) (A) (A)
                 (A) (A) (A) (A) (A) (A) (A) (A) (A) (A) (A) (A)
                 (A) (A) (A) (A) (A) (A) (A) (A) (A) (A) (A) (A)
                 (A) (A) (A) (A) (A) (A) (A) (A) (A) (A) (A) (A)
                 (A) (A) (A) (A) (A) (A) (A) (A) (A) (A) (A) (A)
                 (A) (A) (A) (A) (A) (A) (A) (A) (A) (A) (A) (A)
                 (A) (A) (A) (A) (A) (A) (A) (A) (A) (A) (A) (A)
                 (A) (A) (A) (A) (A) (A) (A) (A) (A) (A) (A) (A)
                 (A) (A) (A) (A) (A) (A) (A) (A) (A) (A) (A) (A)
                 (A) (A) (A) (A) (A) (A) (A) (A) (A) (A) (A) (A)
                 (A) (A) (A) (A) (A) (A) (A) (A) (A) (A) (A) (A)
                 (A) (A) (A) (A) (A) (A) (A) (A) (A) (A) (A) (A)
                 (A) (A) (A) (A) (A) (A) (A) (A) (A)
 The electronic state is 1-A.
 Alpha  occ. eigenvalues --  -10.17809 -10.17787 -10.17787 -10.17733 -10.17733
 Alpha  occ. eigenvalues --  -10.17707  -0.85334  -0.74802  -0.74802  -0.60714
 Alpha  occ. eigenvalues --   -0.60714  -0.52873  -0.47054  -0.44841  -0.42698
 Alpha  occ. eigenvalues --   -0.42698  -0.36954  -0.35033  -0.35033  -0.25782
 Alpha  occ. eigenvalues --   -0.25782
 Alpha virt. eigenvalues --   -0.01649  -0.01649   0.04794   0.07822   0.07822
 Alpha virt. eigenvalues --    0.10350   0.10350   0.12721   0.13529   0.14946
 Alpha virt. eigenvalues --    0.20662   0.20934   0.21363   0.21363   0.23212
 Alpha virt. eigenvalues --    0.23212   0.24787   0.24788   0.26523   0.26523
 Alpha virt. eigenvalues --    0.32587   0.32587   0.32786   0.35332   0.35332
 Alpha virt. eigenvalues --    0.38210   0.40141   0.41638   0.41639   0.43535
 Alpha virt. eigenvalues --    0.43535   0.43972   0.45901   0.46159   0.48760
 Alpha virt. eigenvalues --    0.48774   0.48775   0.50187   0.50188   0.64182
 Alpha virt. eigenvalues --    0.64183   0.64784   0.66700   0.67387   0.74175
 Alpha virt. eigenvalues --    0.74176   0.75488   0.75488   0.79652   0.83779
 Alpha virt. eigenvalues --    0.83779   0.85002   0.88726   0.89171   0.99719
 Alpha virt. eigenvalues --    0.99719   1.01091   1.01092   1.04712   1.04712
 Alpha virt. eigenvalues --    1.16334   1.16853   1.16854   1.19996   1.19996
 Alpha virt. eigenvalues --    1.21374   1.21375   1.24197   1.24197   1.27504
 Alpha virt. eigenvalues --    1.36814   1.36903   1.38589   1.44259   1.44259
 Alpha virt. eigenvalues --    1.47651   1.47651   1.47780   1.47780   1.58684
 Alpha virt. eigenvalues --    1.60156   1.65121   1.65915   1.65915   1.68322
 Alpha virt. eigenvalues --    1.68329   1.68329   1.69406   1.69406   1.75968
 Alpha virt. eigenvalues --    1.83439   1.91020   1.91020   2.04025   2.04025
 Alpha virt. eigenvalues --    2.05912   2.07575   2.07575   2.08407   2.14521
 Alpha virt. eigenvalues --    2.14521   2.21643   2.23110   2.23110   2.31279
 Alpha virt. eigenvalues --    2.46415   2.48858   2.48859   2.55216   2.55391
 Alpha virt. eigenvalues --    2.55391   2.55664   2.57588   2.64957   2.64957
 Alpha virt. eigenvalues --    2.66472   2.66472   2.67159   2.67299   2.67299
 Alpha virt. eigenvalues --    2.72881   2.73608   2.73608   2.80028   2.80028
 Alpha virt. eigenvalues --    2.80041   2.83614   2.84744   2.84744   2.85460
 Alpha virt. eigenvalues --    2.85460   2.89499   3.02027   3.09092   3.09093
 Alpha virt. eigenvalues --    3.09388   3.09388   3.12618   3.12618   3.13939
 Alpha virt. eigenvalues --    3.13939   3.19161   3.20802   3.20802   3.24116
 Alpha virt. eigenvalues --    3.24799   3.24799   3.29528   3.34200   3.35632
 Alpha virt. eigenvalues --    3.36688   3.36688   3.43842   3.43842   3.44825
 Alpha virt. eigenvalues --    3.48352   3.50420   3.50420   3.59966   3.62968
 Alpha virt. eigenvalues --    3.62969   3.73085   3.74175   3.74175   3.78055
 Alpha virt. eigenvalues --    3.88586   4.00222   4.00222   4.04980   4.05248
 Alpha virt. eigenvalues --    4.05248   4.10544   4.17583   4.17583   4.19150
 Alpha virt. eigenvalues --    4.19954   4.19954   4.26608   4.26608   4.27224
 Alpha virt. eigenvalues --    4.27224   4.59463   4.63396   4.63396   4.63412
 Alpha virt. eigenvalues --    4.82355   4.82355   4.88014   4.88014   5.18204
 Alpha virt. eigenvalues --    5.18204   5.26657   5.27475   5.40576   5.64029
 Alpha virt. eigenvalues --   21.88893  22.50652  22.50652  22.60404  22.60404
 Alpha virt. eigenvalues --   23.03693
          Condensed to atoms (all electrons):
               1          2          3          4          5          6
     1  C    4.867334   0.504557  -0.033338  -0.041701  -0.033343   0.504554
     2  C    0.504557   4.867338   0.504570  -0.033343  -0.041697  -0.033339
     3  C   -0.033338   0.504570   4.867375   0.504554  -0.033339  -0.041702
     4  C   -0.041701  -0.033343   0.504554   4.867334   0.504557  -0.033338
     5  C   -0.033343  -0.041697  -0.033339   0.504557   4.867338   0.504570
     6  C    0.504554  -0.033339  -0.041702  -0.033338   0.504570   4.867375
     7  H    0.422058  -0.047006   0.008040  -0.001467   0.008040  -0.047005
     8  H   -0.047004   0.422058  -0.047004   0.008040  -0.001467   0.008040
     9  H    0.008040  -0.047002   0.422057  -0.047001   0.008039  -0.001467
    10  H   -0.001467   0.008040  -0.047005   0.422058  -0.047006   0.008040
    11  H    0.008040  -0.001467   0.008040  -0.047004   0.422058  -0.047004
    12  H   -0.047001   0.008039  -0.001467   0.008040  -0.047002   0.422057
               7          8          9         10         11         12
     1  C    0.422058  -0.047004   0.008040  -0.001467   0.008040  -0.047001
     2  C   -0.047006   0.422058  -0.047002   0.008040  -0.001467   0.008039
     3  C    0.008040  -0.047004   0.422057  -0.047005   0.008040  -0.001467
     4  C   -0.001467   0.008040  -0.047001   0.422058  -0.047004   0.008040
     5  C    0.008040  -0.001467   0.008039  -0.047006   0.422058  -0.047002
     6  C   -0.047005   0.008040  -0.001467   0.008040  -0.047004   0.422057
     7  H    0.559663  -0.006306  -0.000273   0.000083  -0.000273  -0.006306
     8  H   -0.006306   0.559662  -0.006307  -0.000273   0.000083  -0.000273
     9  H   -0.000273  -0.006307   0.559658  -0.006306  -0.000273   0.000083
    10  H    0.000083  -0.000273  -0.006306   0.559663  -0.006306  -0.000273
    11  H   -0.000273   0.000083  -0.000273  -0.006306   0.559662  -0.006307
    12  H   -0.006306  -0.000273   0.000083  -0.000273  -0.006307   0.559658
 Mulliken charges:
               1
     1  C   -0.110728
     2  C   -0.110748
     3  C   -0.110781
     4  C   -0.110728
     5  C   -0.110748
     6  C   -0.110781
     7  H    0.110753
     8  H    0.110752
     9  H    0.110752
    10  H    0.110753
    11  H    0.110752
    12  H    0.110752
 Sum of Mulliken charges =  -0.00000
 Mulliken charges with hydrogens summed into heavy atoms:
               1
     1  C    0.000025
     2  C    0.000004
     3  C   -0.000029
     4  C    0.000025
     5  C    0.000004
     6  C   -0.000029
 Electronic spatial extent (au):  <R**2>=            460.6669
 Charge=             -0.0000 electrons
 Dipole moment (field-independent basis, Debye):
    X=              0.0000    Y=              0.0000    Z=              0.0000  Tot=              0.0000
 Quadrupole moment (field-independent basis, Debye-Ang):
   XX=            -32.0316   YY=            -32.0316   ZZ=            -39.9347
   XY=              0.0000   XZ=             -0.0052   YZ=             -0.0021
 Traceless Quadrupole moment (field-independent basis, Debye-Ang):
   XX=              2.6344   YY=              2.6344   ZZ=             -5.2687
   XY=              0.0000   XZ=             -0.0052   YZ=             -0.0021
 Octapole moment (field-independent basis, Debye-Ang**2):
  XXX=             -0.0000  YYY=              0.0000  ZZZ=              0.0000  XYY=              0.0000
  XXY=              0.0000  XXZ=             -0.0000  XZZ=              0.0000  YZZ=             -0.0000
  YYZ=              0.0000  XYZ=              0.0000
 Hexadecapole moment (field-independent basis, Debye-Ang**3):
 XXXX=           -276.0166 YYYY=           -276.0166 ZZZZ=            -48.4158 XXXY=              0.0001
 XXXZ=              0.0550 YYYX=              0.0000 YYYZ=              0.0218 ZZZX=              0.0955
 ZZZY=              0.0378 XXYY=            -92.0055 XXZZ=            -64.2851 YYZZ=            -64.2851
 XXYZ=              0.0073 YYXZ=              0.0183 ZZXY=              0.0001
 N-N= 2.030814684940D+02 E-N=-9.445882513872D+02  KE= 2.310625223912D+02
 No NMR shielding tensors so no spin-rotation constants.
 Leave Link  601 at Wed Mar 18 10:11:09 2026, MaxMem=   104857600 cpu:               0.1 elap:               0.1
 (Enter /sw/cluster/pub/apps//g16/l701.exe)
 ... and contract with generalized density number  0.
 Compute integral first derivatives.
   1 Symmetry operations used in ECPInt.
 ECPInt:  NShTT=    4095 NPrTT=   12396 LenC2=    4075 LenP2D=   10419.
 LDataN:  DoStor=T MaxTD1= 7 Len=  274
 Leave Link  701 at Wed Mar 18 10:11:09 2026, MaxMem=   104857600 cpu:               0.1 elap:               0.1
 (Enter /sw/cluster/pub/apps//g16/l702.exe)
 L702 exits ... SP integral derivatives will be done elsewhere.
 Leave Link  702 at Wed Mar 18 10:11:09 2026, MaxMem=   104857600 cpu:               0.0 elap:               0.0
 (Enter /sw/cluster/pub/apps//g16/l703.exe)
 Integral derivatives from FoFJK, PRISM(SPDF).
 Compute integral first derivatives, UseDBF=F ICtDFT=           0.
 Calling FoFJK, ICntrl=      2127 FMM=F ISym2X=0 I1Cent= 0 IOpClX= 0 NMat=1 NMatS=1 NMatT=0.
 FoFJK:  IHMeth= 1 ICntrl=    2127 DoSepK=F KAlg= 0 I1Cent=           0 FoldK=F
 IRaf=         0 NMat=       1 IRICut=       1 DoRegI=T DoRafI=F ISym2E= 0 IDoP0=0 IntGTp=1.
 FoFCou: FMM=F IPFlag=           0 FMFlag=      100000 FMFlg1=         800
         NFxFlg=           0 DoJE=F BraDBF=F KetDBF=F FulRan=T
         wScrn=  0.000000 ICntrl=      2127 IOpCl=  0 I1Cent=           0 NGrid=           0
         NMat0=    1 NMatS0=      1 NMatT0=    0 NMatD0=    1 NMtDS0=    0 NMtDT0=    0
 Symmetry not used in FoFCou.
 Leave Link  703 at Wed Mar 18 10:11:24 2026, MaxMem=   104857600 cpu:              15.3 elap:              15.3
 (Enter /sw/cluster/pub/apps//g16/l716.exe)
 Dipole        = 4.85421214D-09 1.22111037D-08 4.68484246D-08
 ***** Axes restored to original set *****
 -------------------------------------------------------------------
 Center     Atomic                   Forces (Hartrees/Bohr)
 Number     Number              X              Y              Z
 -------------------------------------------------------------------
      1        6           0.009174549    0.015883716   -0.000007358
      2        6          -0.009170662    0.015882877   -0.000012916
      3        6          -0.018337707    0.000015214   -0.000005775
      4        6          -0.009174548   -0.015883716    0.000007498
      5        6           0.009170660   -0.015882871    0.000012828
      6        6           0.018337706   -0.000015213    0.000005720
      7        1          -0.004441033   -0.007690951    0.000003609
      8        1           0.004440192   -0.007691859    0.000006324
      9        1           0.008881313   -0.000000153    0.000002714
     10        1           0.004441032    0.007690950   -0.000003543
     11        1          -0.004440190    0.007691854   -0.000006361
     12        1          -0.008881314    0.000000153   -0.000002740
 -------------------------------------------------------------------
 Cartesian Forces:  Max     0.018337707 RMS     0.008319103
 Leave Link  716 at Wed Mar 18 10:11:24 2026, MaxMem=   104857600 cpu:               0.0 elap:               0.0
 (Enter /sw/cluster/pub/apps//g16/l103.exe)

 GradGradGradGradGradGradGradGradGradGradGradGradGradGradGradGradGradGrad
 Berny optimization.
 FormGI is forming the generalized inverse of G from B-inverse, IUseBI=4.
 Internal  Forces:  Max     0.009464248 RMS     0.004325002
 Search for a local minimum.
 Step number   1 out of a maximum of   64
 All quantities printed in internal units (Hartrees-Bohrs-Radians)
 RMS Force = .43250D-02 SwitMx=.10000D-02 MixMth= 1
 Mixed Optimization -- RFO/linear search
 Second derivative matrix not updated -- first step.
 ITU=  0
     Eigenvalues ---    0.02070   0.02070   0.02070   0.02070   0.02070
     Eigenvalues ---    0.02070   0.02070   0.02070   0.02070   0.16000
     Eigenvalues ---    0.16000   0.16000   0.16000   0.16000   0.16000
     Eigenvalues ---    0.22000   0.22000   0.22000   0.37230   0.37230
     Eigenvalues ---    0.37230   0.37230   0.37230   0.37230   0.41268
     Eigenvalues ---    0.41268   0.45389   0.45389   0.45389   0.45389
 RFO step:  Lambda=-2.43933666D-03 EMin= 2.07023645D-02
 Linear search not attempted -- first point.
 Iteration  1 RMS(Cart)=  0.00698011 RMS(Int)=  0.00000004
 Iteration  2 RMS(Cart)=  0.00000004 RMS(Int)=  0.00000000
 ITry= 1 IFail=0 DXMaxC= 2.07D-02 DCOld= 1.00D+10 DXMaxT= 3.00D-01 DXLimC= 3.00D+00 Rises=F
 Variable       Old X    -DE/DX   Delta X   Delta X   Delta X     New X
                                 (Linear)    (Quad)   (Total)
    R1        2.64826  -0.00946   0.00000  -0.02073  -0.02073   2.62753
    R2        2.64826  -0.00946   0.00000  -0.02074  -0.02074   2.62752
    R3        2.02201   0.00888   0.00000   0.02370   0.02370   2.04571
    R4        2.64826  -0.00945   0.00000  -0.02071  -0.02071   2.62755
    R5        2.02201   0.00888   0.00000   0.02370   0.02370   2.04571
    R6        2.64826  -0.00946   0.00000  -0.02074  -0.02074   2.62752
    R7        2.02201   0.00888   0.00000   0.02370   0.02370   2.04571
    R8        2.64826  -0.00946   0.00000  -0.02073  -0.02073   2.62753
    R9        2.02201   0.00888   0.00000   0.02370   0.02370   2.04571
   R10        2.64826  -0.00945   0.00000  -0.02071  -0.02071   2.62755
   R11        2.02201   0.00888   0.00000   0.02370   0.02370   2.04571
   R12        2.02201   0.00888   0.00000   0.02370   0.02370   2.04571
    A1        2.09440  -0.00000   0.00000  -0.00000  -0.00000   2.09439
    A2        2.09440   0.00000   0.00000   0.00001   0.00001   2.09441
    A3        2.09440  -0.00000   0.00000  -0.00001  -0.00001   2.09438
    A4        2.09440   0.00000   0.00000   0.00001   0.00001   2.09440
    A5        2.09440  -0.00000   0.00000  -0.00002  -0.00002   2.09438
    A6        2.09440   0.00000   0.00000   0.00001   0.00001   2.09441
    A7        2.09440  -0.00000   0.00000  -0.00001  -0.00001   2.09439
    A8        2.09440  -0.00000   0.00000  -0.00001  -0.00001   2.09439
    A9        2.09440   0.00000   0.00000   0.00002   0.00002   2.09441
   A10        2.09440  -0.00000   0.00000  -0.00000  -0.00000   2.09439
   A11        2.09440  -0.00000   0.00000  -0.00001  -0.00001   2.09438
   A12        2.09440   0.00000   0.00000   0.00001   0.00001   2.09441
   A13        2.09440   0.00000   0.00000   0.00001   0.00001   2.09440
   A14        2.09440  -0.00000   0.00000  -0.00002  -0.00002   2.09438
   A15        2.09440   0.00000   0.00000   0.00001   0.00001   2.09441
   A16        2.09440  -0.00000   0.00000  -0.00001  -0.00001   2.09439
   A17        2.09440   0.00000   0.00000   0.00002   0.00002   2.09441
   A18        2.09440  -0.00000   0.00000  -0.00001  -0.00001   2.09439
    D1       -0.00000   0.00000   0.00000   0.00000   0.00000  -0.00000
    D2        3.14159   0.00000   0.00000   0.00000   0.00000  -3.14159
    D3        3.14159  -0.00000   0.00000  -0.00000  -0.00000   3.14159
    D4       -0.00000   0.00000   0.00000   0.00000   0.00000  -0.00000
    D5        0.00000  -0.00000   0.00000  -0.00000  -0.00000   0.00000
    D6       -3.14159  -0.00000   0.00000  -0.00000  -0.00000  -3.14159
    D7       -3.14159   0.00000   0.00000   0.00000   0.00000  -3.14159
    D8        0.00000  -0.00000   0.00000  -0.00000  -0.00000   0.00000
    D9       -0.00000   0.00000   0.00000   0.00000   0.00000   0.00000
   D10       -3.14159  -0.00000   0.00000  -0.00000  -0.00000   3.14159
   D11        3.14159   0.00000   0.00000   0.00000   0.00000   3.14159
   D12       -0.00000  -0.00000   0.00000  -0.00000  -0.00000  -0.00000
   D13        0.00000  -0.00000   0.00000  -0.00000  -0.00000  -0.00000
   D14       -3.14159  -0.00000   0.00000  -0.00000  -0.00000   3.14159
   D15       -3.14159  -0.00000   0.00000  -0.00000  -0.00000   3.14159
   D16        0.00000  -0.00000   0.00000  -0.00000  -0.00000  -0.00000
   D17       -0.00000   0.00000   0.00000   0.00000   0.00000   0.00000
   D18        3.14159   0.00000   0.00000   0.00000   0.00000   3.14159
   D19        3.14159   0.00000   0.00000   0.00000   0.00000  -3.14159
   D20       -0.00000   0.00000   0.00000   0.00000   0.00000  -0.00000
   D21        0.00000  -0.00000   0.00000  -0.00000  -0.00000  -0.00000
   D22       -3.14159  -0.00000   0.00000  -0.00000  -0.00000   3.14159
   D23       -3.14159  -0.00000   0.00000  -0.00000  -0.00000  -3.14159
   D24        0.00000   0.00000   0.00000   0.00000   0.00000   0.00000
         Item               Value     Threshold  Converged?
 Maximum Force            0.009464     0.000450     NO 
 RMS     Force            0.004325     0.000300     NO 
 Maximum Displacement     0.020722     0.001800     NO 
 RMS     Displacement     0.006980     0.001200     NO 
 Predicted change in Energy=-1.226923D-03
 Lowest energy point so far.  Saving SCF results.
 GradGradGradGradGradGradGradGradGradGradGradGradGradGradGradGradGradGrad

 Leave Link  103 at Wed Mar 18 10:11:24 2026, MaxMem=   104857600 cpu:               0.0 elap:               0.0
 (Enter /sw/cluster/pub/apps//g16/l202.exe)
                          Input orientation:                          
 ---------------------------------------------------------------------
 Center     Atomic      Atomic             Coordinates (Angstroms)
 Number     Number       Type             X           Y           Z
 ---------------------------------------------------------------------
      1          6           0       -0.432573    0.161704    0.248919
      2          6           0        0.957856    0.161644    0.249344
      3          6           0        1.653136    1.365764    0.248782
      4          6           0        0.957976    2.569938    0.247797
      5          6           0       -0.432454    2.569997    0.247372
      6          6           0       -1.127733    1.365877    0.247933
      7          1           0       -0.973898   -0.775773    0.249355
      8          1           0        1.499070   -0.775897    0.250111
      9          1           0        2.735677    1.365701    0.249113
     10          1           0        1.499301    3.507414    0.247360
     11          1           0       -0.973667    3.507539    0.246605
     12          1           0       -2.210274    1.365941    0.247602
 ---------------------------------------------------------------------
                    Distance matrix (angstroms):
                    1          2          3          4          5
     1  C    0.000000
     2  C    1.390430   0.000000
     3  C    2.408307   1.390438   0.000000
     4  C    2.780866   2.408294   1.390425   0.000000
     5  C    2.408294   2.780851   2.408290   1.390430   0.000000
     6  C    1.390425   2.408290   2.780869   2.408307   1.390438
     7  H    1.082541   2.147190   3.389320   3.863407   3.389298
     8  H    2.147171   1.082542   2.147196   3.389306   3.863392
     9  H    3.389310   2.147184   1.082541   2.147186   3.389305
    10  H    3.863407   3.389298   2.147168   1.082541   2.147190
    11  H    3.389306   3.863392   3.389291   2.147171   1.082542
    12  H    2.147186   3.389305   3.863411   3.389310   2.147184
                    6          7          8          9         10
     6  C    0.000000
     7  H    2.147168   0.000000
     8  H    3.389291   2.472968   0.000000
     9  H    3.863411   4.283323   2.472982   0.000000
    10  H    3.389320   4.945948   4.283312   2.472967   0.000000
    11  H    2.147196   4.283312   4.945934   4.283306   2.472968
    12  H    1.082541   2.472967   4.283306   4.945952   4.283323
                   11         12
    11  H    0.000000
    12  H    2.472982   0.000000
 Stoichiometry    C6H6
 Framework group  C1[X(C6H6)]
 Deg. of freedom    30
 Full point group                 C1      NOp   1
 RotChk:  IX=1 Diff= 1.81D+00
 Largest Abelian subgroup         C1      NOp   1
 Largest concise Abelian subgroup C1      NOp   1
                         Standard orientation:                         
 ---------------------------------------------------------------------
 Center     Atomic      Atomic             Coordinates (Angstroms)
 Number     Number       Type             X           Y           Z
 ---------------------------------------------------------------------
      1          6           0        1.276720   -0.550717   -0.000000
      2          6           0        0.161423   -1.381023   -0.000000
      3          6           0       -1.115303   -0.830306    0.000000
      4          6           0       -1.276720    0.550717    0.000000
      5          6           0       -0.161423    1.381023    0.000000
      6          6           0        1.115303    0.830306   -0.000000
      7          1           0        2.270733   -0.979476    0.000001
      8          1           0        0.287117   -2.456243    0.000000
      9          1           0       -1.983625   -1.476768   -0.000000
     10          1           0       -2.270733    0.979476   -0.000000
     11          1           0       -0.287117    2.456243   -0.000001
     12          1           0        1.983625    1.476768   -0.000000
 ---------------------------------------------------------------------
 Rotational constants (GHZ):           5.7371797           5.7370916           2.8685678
 Leave Link  202 at Wed Mar 18 10:11:24 2026, MaxMem=   104857600 cpu:               0.0 elap:               0.0
 (Enter /sw/cluster/pub/apps//g16/l301.exe)
 Standard basis: def2TZVP (5D, 7F)
 Ernie: Thresh=  0.10000D-02 Tol=  0.10000D-05 Strict=F.
 There are   252 symmetry adapted cartesian basis functions of A   symmetry.
 There are   222 symmetry adapted basis functions of A   symmetry.
   222 basis functions,   354 primitive gaussians,   252 cartesian basis functions
    21 alpha electrons       21 beta electrons
       nuclear repulsion energy       204.0807850573 Hartrees.
 IExCor=  402 DFT=T Ex+Corr=B3LYP ExCW=0 ScaHFX=  0.200000
 ScaDFX=  0.800000  0.720000  1.000000  0.810000 ScalE2=  1.000000  1.000000
 IRadAn=      5 IRanWt=     -1 IRanGd=            0 ICorTp=0 IEmpDi=  4
 NAtoms=   12 NActive=   12 NUniq=   12 SFac= 1.00D+00 NAtFMM=   60 NAOKFM=F Big=F
 Integral buffers will be    131072 words long.
 Raffenetti 2 integral format.
 Two-electron integral symmetry is turned on.
 Leave Link  301 at Wed Mar 18 10:11:24 2026, MaxMem=   104857600 cpu:               0.0 elap:               0.0
 (Enter /sw/cluster/pub/apps//g16/l302.exe)
 NPDir=0 NMtPBC=     1 NCelOv=     1 NCel=       1 NClECP=     1 NCelD=      1
         NCelK=      1 NCelE2=     1 NClLst=     1 CellRange=     0.0.
 One-electron integrals computed using PRISM.
 One-electron integral symmetry used in STVInt
   1 Symmetry operations used in ECPInt.
 ECPInt:  NShTT=    4095 NPrTT=   12396 LenC2=    4075 LenP2D=   10419.
 LDataN:  DoStor=T MaxTD1= 6 Len=  172
 NBasis=   222 RedAO= T EigKep=  9.97D-06  NBF=   222
 NBsUse=   222 1.00D-06 EigRej= -1.00D+00 NBFU=   222
 Precomputing XC quadrature grid using
 IXCGrd= 4 IRadAn=           5 IRanWt=          -1 IRanGd=           0 AccXCQ= 0.00D+00.
 Generated NRdTot=       0 NPtTot=           0 NUsed=           0 NTot=          32
 NSgBfM=   251   251   251   251   251 MxSgAt=    12 MxSgA2=    12.
 Leave Link  302 at Wed Mar 18 10:11:24 2026, MaxMem=   104857600 cpu:               0.1 elap:               0.1
 (Enter /sw/cluster/pub/apps//g16/l303.exe)
 DipDrv:  MaxL=1.
 Leave Link  303 at Wed Mar 18 10:11:24 2026, MaxMem=   104857600 cpu:               0.0 elap:               0.0
 (Enter /sw/cluster/pub/apps//g16/l401.exe)
 Initial guess from the checkpoint file:  "bz-def2TZVP.chk"
 B after Tr=     0.000000   -0.000000   -0.000000
         Rot=    0.768191   -0.000312    0.000170   -0.640220 Ang= -79.62 deg.
 Guess basis will be translated and rotated to current coordinates.
 JPrj=2 DoOrth=T DoCkMO=T.
 Generating alternative initial guess.
 ExpMin= 9.52D-02 ExpMax= 1.36D+04 ExpMxC= 4.63D+02 IAcc=2 IRadAn=         4 AccDes= 0.00D+00
 Harris functional with IExCor=  402 and IRadAn=       4 diagonalized for initial guess.
 HarFok:  IExCor=  402 AccDes= 0.00D+00 IRadAn=         4 IDoV= 1 UseB2=F ITyADJ=14
 ICtDFT=  3500011 ScaDFX=  1.000000  1.000000  1.000000  1.000000
 FoFCou: FMM=F IPFlag=           0 FMFlag=      100000 FMFlg1=           0
         NFxFlg=           0 DoJE=T BraDBF=F KetDBF=T FulRan=T
         wScrn=  0.000000 ICntrl=       500 IOpCl=  0 I1Cent=   200000004 NGrid=           0
         NMat0=    1 NMatS0=      1 NMatT0=    0 NMatD0=    1 NMtDS0=    0 NMtDT0=    0
 Petite list used in FoFCou.
 Harris En= -232.385632762985    
 Leave Link  401 at Wed Mar 18 10:11:25 2026, MaxMem=   104857600 cpu:               0.6 elap:               0.6
 (Enter /sw/cluster/pub/apps//g16/l502.exe)
 Integral symmetry usage will be decided dynamically.
 Closed shell SCF:
 Using DIIS extrapolation, IDIIS=  1040.
 NGot=   104857600 LenX=   104726736 LenY=   104662791
 Requested convergence on RMS density matrix=1.00D-08 within 128 cycles.
 Requested convergence on MAX density matrix=1.00D-06.
 Requested convergence on             energy=1.00D-06.
 No special actions if energy rises.
 Fock matrices will be formed incrementally for  20 cycles.
 Integral accuracy reduced to 1.0D-05 until final iterations.

 Cycle   1  Pass 0  IDiag  1:
 FoFJK:  IHMeth= 1 ICntrl=       0 DoSepK=F KAlg= 0 I1Cent=           0 FoldK=F
 IRaf= 980000000 NMat=       1 IRICut=       1 DoRegI=T DoRafI=F ISym2E= 0 IDoP0=0 IntGTp=1.
 FoFCou: FMM=F IPFlag=           0 FMFlag=      100000 FMFlg1=           0
         NFxFlg=           0 DoJE=F BraDBF=F KetDBF=F FulRan=T
         wScrn=  0.000000 ICntrl=         0 IOpCl=  0 I1Cent=           0 NGrid=           0
         NMat0=    1 NMatS0=      1 NMatT0=    0 NMatD0=    1 NMtDS0=    0 NMtDT0=    0
 Symmetry not used in FoFCou.
 E= -232.337016926460    
 DIIS: error= 1.33D-03 at cycle   1 NSaved=   1.
 NSaved= 1 IEnMin= 1 EnMin= -232.337016926460     IErMin= 1 ErrMin= 1.33D-03
 ErrMax= 1.33D-03  0.00D+00 EMaxC= 1.00D-01 BMatC= 3.78D-04 BMatP= 3.78D-04
 IDIUse=3 WtCom= 9.87D-01 WtEn= 1.33D-02
 Coeff-Com:  0.100D+01
 Coeff-En:   0.100D+01
 Coeff:      0.100D+01
 Gap=     0.757 Goal=   None    Shift=    0.000
 GapD=    0.757 DampG=2.000 DampE=1.000 DampFc=2.0000 IDamp=-1.
 RMSDP=1.12D-04 MaxDP=1.62D-03              OVMax= 4.94D-03

 Cycle   2  Pass 0  IDiag  1:
 RMSU=  1.12D-04    CP:  9.99D-01
 E= -232.337316297946     Delta-E=       -0.000299371486 Rises=F Damp=F
 DIIS: error= 8.04D-04 at cycle   2 NSaved=   2.
 NSaved= 2 IEnMin= 2 EnMin= -232.337316297946     IErMin= 2 ErrMin= 8.04D-04
 ErrMax= 8.04D-04  0.00D+00 EMaxC= 1.00D-01 BMatC= 3.87D-05 BMatP= 3.78D-04
 IDIUse=3 WtCom= 9.92D-01 WtEn= 8.04D-03
 Coeff-Com:  0.159D+00 0.841D+00
 Coeff-En:   0.000D+00 0.100D+01
 Coeff:      0.158D+00 0.842D+00
 Gap=     0.245 Goal=   None    Shift=    0.000
 RMSDP=3.25D-05 MaxDP=5.38D-04 DE=-2.99D-04 OVMax= 2.11D-03

 Cycle   3  Pass 0  IDiag  1:
 RMSU=  3.18D-05    CP:  9.99D-01  1.05D+00
 E= -232.337327614556     Delta-E=       -0.000011316610 Rises=F Damp=F
 DIIS: error= 5.81D-04 at cycle   3 NSaved=   3.
 NSaved= 3 IEnMin= 3 EnMin= -232.337327614556     IErMin= 3 ErrMin= 5.81D-04
 ErrMax= 5.81D-04  0.00D+00 EMaxC= 1.00D-01 BMatC= 2.12D-05 BMatP= 3.87D-05
 IDIUse=3 WtCom= 9.94D-01 WtEn= 5.81D-03
 Coeff-Com:  0.520D-02 0.423D+00 0.571D+00
 Coeff-En:   0.000D+00 0.399D+00 0.601D+00
 Coeff:      0.517D-02 0.423D+00 0.572D+00
 Gap=     0.245 Goal=   None    Shift=    0.000
 RMSDP=1.64D-05 MaxDP=2.41D-04 DE=-1.13D-05 OVMax= 1.06D-03

 Cycle   4  Pass 0  IDiag  1:
 RMSU=  1.15D-05    CP:  9.99D-01  1.03D+00  6.40D-01
 E= -232.337349313358     Delta-E=       -0.000021698802 Rises=F Damp=F
 DIIS: error= 6.08D-05 at cycle   4 NSaved=   4.
 NSaved= 4 IEnMin= 4 EnMin= -232.337349313358     IErMin= 4 ErrMin= 6.08D-05
 ErrMax= 6.08D-05  0.00D+00 EMaxC= 1.00D-01 BMatC= 3.46D-07 BMatP= 2.12D-05
 IDIUse=1 WtCom= 1.00D+00 WtEn= 0.00D+00
 Coeff-Com: -0.280D-02 0.608D-01 0.167D+00 0.775D+00
 Coeff:     -0.280D-02 0.608D-01 0.167D+00 0.775D+00
 Gap=     0.245 Goal=   None    Shift=    0.000
 RMSDP=2.57D-06 MaxDP=4.37D-05 DE=-2.17D-05 OVMax= 1.38D-04

 Initial convergence to 1.0D-05 achieved.  Increase integral accuracy.
 Cycle   5  Pass 1  IDiag  1:
 E= -232.337354881207     Delta-E=       -0.000005567849 Rises=F Damp=F
 DIIS: error= 7.32D-05 at cycle   1 NSaved=   1.
 NSaved= 1 IEnMin= 1 EnMin= -232.337354881207     IErMin= 1 ErrMin= 7.32D-05
 ErrMax= 7.32D-05  0.00D+00 EMaxC= 1.00D-01 BMatC= 8.73D-08 BMatP= 8.73D-08
 IDIUse=1 WtCom= 1.00D+00 WtEn= 0.00D+00
 Coeff-Com:  0.100D+01
 Coeff:      0.100D+01
 Gap=     0.245 Goal=   None    Shift=    0.000
 RMSDP=2.57D-06 MaxDP=4.37D-05 DE=-5.57D-06 OVMax= 3.44D-05

 Cycle   6  Pass 1  IDiag  1:
 RMSU=  2.12D-05    CP:  1.00D+00
 E= -232.337354911168     Delta-E=       -0.000000029961 Rises=F Damp=F
 DIIS: error= 3.72D-06 at cycle   2 NSaved=   2.
 NSaved= 2 IEnMin= 2 EnMin= -232.337354911168     IErMin= 2 ErrMin= 3.72D-06
 ErrMax= 3.72D-06  0.00D+00 EMaxC= 1.00D-01 BMatC= 1.51D-09 BMatP= 8.73D-08
 IDIUse=1 WtCom= 1.00D+00 WtEn= 0.00D+00
 Coeff-Com:  0.392D-01 0.961D+00
 Coeff:      0.392D-01 0.961D+00
 Gap=     0.245 Goal=   None    Shift=    0.000
 RMSDP=3.61D-07 MaxDP=5.52D-06 DE=-3.00D-08 OVMax= 1.15D-05

 Cycle   7  Pass 1  IDiag  1:
 RMSU=  2.37D-07    CP:  1.00D+00  1.01D+00
 E= -232.337354912245     Delta-E=       -0.000000001076 Rises=F Damp=F
 DIIS: error= 1.77D-06 at cycle   3 NSaved=   3.
 NSaved= 3 IEnMin= 3 EnMin= -232.337354912245     IErMin= 3 ErrMin= 1.77D-06
 ErrMax= 1.77D-06  0.00D+00 EMaxC= 1.00D-01 BMatC= 3.38D-10 BMatP= 1.51D-09
 IDIUse=1 WtCom= 1.00D+00 WtEn= 0.00D+00
 Coeff-Com: -0.231D-02 0.318D+00 0.684D+00
 Coeff:     -0.231D-02 0.318D+00 0.684D+00
 Gap=     0.245 Goal=   None    Shift=    0.000
 RMSDP=8.54D-08 MaxDP=1.59D-06 DE=-1.08D-09 OVMax= 3.65D-06

 Cycle   8  Pass 1  IDiag  1:
 RMSU=  5.22D-08    CP:  1.00D+00  1.01D+00  7.79D-01
 E= -232.337354912552     Delta-E=       -0.000000000307 Rises=F Damp=F
 DIIS: error= 2.70D-07 at cycle   4 NSaved=   4.
 NSaved= 4 IEnMin= 4 EnMin= -232.337354912552     IErMin= 4 ErrMin= 2.70D-07
 ErrMax= 2.70D-07  0.00D+00 EMaxC= 1.00D-01 BMatC= 8.45D-12 BMatP= 3.38D-10
 IDIUse=1 WtCom= 1.00D+00 WtEn= 0.00D+00
 Coeff-Com: -0.145D-02 0.168D+00 0.368D+00 0.465D+00
 Coeff:     -0.145D-02 0.168D+00 0.368D+00 0.465D+00
 Gap=     0.245 Goal=   None    Shift=    0.000
 RMSDP=8.67D-09 MaxDP=2.22D-07 DE=-3.07D-10 OVMax= 9.04D-07

 SCF Done:  E(RB3LYP) =  -232.337354913     A.U. after    8 cycles
            NFock=  8  Conv=0.87D-08     -V/T= 2.0053
 KE= 2.311189177314D+02 PE=-9.466451273183D+02 EE= 2.791080696170D+02
 Leave Link  502 at Wed Mar 18 10:11:55 2026, MaxMem=   104857600 cpu:              30.1 elap:              30.1
 (Enter /sw/cluster/pub/apps//g16/l701.exe)
 ... and contract with generalized density number  0.
 Compute integral first derivatives.
   1 Symmetry operations used in ECPInt.
 ECPInt:  NShTT=    4095 NPrTT=   12396 LenC2=    4075 LenP2D=   10419.
 LDataN:  DoStor=T MaxTD1= 7 Len=  274
 Leave Link  701 at Wed Mar 18 10:11:55 2026, MaxMem=   104857600 cpu:               0.1 elap:               0.1
 (Enter /sw/cluster/pub/apps//g16/l702.exe)
 L702 exits ... SP integral derivatives will be done elsewhere.
 Leave Link  702 at Wed Mar 18 10:11:55 2026, MaxMem=   104857600 cpu:               0.0 elap:               0.0
 (Enter /sw/cluster/pub/apps//g16/l703.exe)
 Integral derivatives from FoFJK, PRISM(SPDF).
 Compute integral first derivatives, UseDBF=F ICtDFT=           0.
 Calling FoFJK, ICntrl=      2127 FMM=F ISym2X=0 I1Cent= 0 IOpClX= 0 NMat=1 NMatS=1 NMatT=0.
 FoFJK:  IHMeth= 1 ICntrl=    2127 DoSepK=F KAlg= 0 I1Cent=           0 FoldK=F
 IRaf=         0 NMat=       1 IRICut=       1 DoRegI=T DoRafI=F ISym2E= 0 IDoP0=0 IntGTp=1.
 FoFCou: FMM=F IPFlag=           0 FMFlag=      100000 FMFlg1=         800
         NFxFlg=           0 DoJE=F BraDBF=F KetDBF=F FulRan=T
         wScrn=  0.000000 ICntrl=      2127 IOpCl=  0 I1Cent=           0 NGrid=           0
         NMat0=    1 NMatS0=      1 NMatT0=    0 NMatD0=    1 NMtDS0=    0 NMtDT0=    0
 Symmetry not used in FoFCou.
 Leave Link  703 at Wed Mar 18 10:12:11 2026, MaxMem=   104857600 cpu:              15.4 elap:              15.4
 (Enter /sw/cluster/pub/apps//g16/l716.exe)
 Dipole        =-3.92918125D-08 3.27807581D-08-3.91432585D-09
 ***** Axes restored to original set *****
 -------------------------------------------------------------------
 Center     Atomic                   Forces (Hartrees/Bohr)
 Number     Number              X              Y              Z
 -------------------------------------------------------------------
      1        6          -0.000149056   -0.000252127    0.000000065
      2        6           0.000148464   -0.000250775    0.000000127
      3        6           0.000293397   -0.000009139    0.000000156
      4        6           0.000149056    0.000252127   -0.000000145
      5        6          -0.000148463    0.000250776   -0.000000080
      6        6          -0.000293397    0.000009141   -0.000000124
      7        1          -0.000145672   -0.000255719    0.000000171
      8        1           0.000148931   -0.000254508    0.000000230
      9        1           0.000294096    0.000000677    0.000000083
     10        1           0.000145672    0.000255718   -0.000000134
     11        1          -0.000148931    0.000254507   -0.000000251
     12        1          -0.000294096   -0.000000677   -0.000000098
 -------------------------------------------------------------------
 Cartesian Forces:  Max     0.000294096 RMS     0.000169467
 Leave Link  716 at Wed Mar 18 10:12:11 2026, MaxMem=   104857600 cpu:               0.0 elap:               0.0
 (Enter /sw/cluster/pub/apps//g16/l103.exe)

 GradGradGradGradGradGradGradGradGradGradGradGradGradGradGradGradGradGrad
 Berny optimization.
 Using GEDIIS/GDIIS optimizer.
 FormGI is forming the generalized inverse of G from B-inverse, IUseBI=4.
 Internal  Forces:  Max     0.000589903 RMS     0.000218901
 Search for a local minimum.
 Step number   2 out of a maximum of   64
 All quantities printed in internal units (Hartrees-Bohrs-Radians)
 RMS Force = .21890D-03 SwitMx=.10000D-02 MixMth= 2
 Mixed Optimization -- En-DIIS/RFO-DIIS
 Update second derivatives using D2CorX and points    1    2
 DE= -1.20D-03 DEPred=-1.23D-03 R= 9.78D-01
 TightC=F SS=  1.41D+00  RLast= 7.71D-02 DXNew= 5.0454D-01 2.3137D-01
 Trust test= 9.78D-01 RLast= 7.71D-02 DXMaxT set to 3.00D-01
 ITU=  1  0
 Use linear search instead of GDIIS.
     Eigenvalues ---    0.02070   0.02070   0.02070   0.02070   0.02070
     Eigenvalues ---    0.02070   0.02070   0.02070   0.02070   0.16000
     Eigenvalues ---    0.16000   0.16000   0.16000   0.16000   0.16000
     Eigenvalues ---    0.22000   0.22000   0.22000   0.35860   0.37230
     Eigenvalues ---    0.37230   0.37230   0.37230   0.37230   0.41215
     Eigenvalues ---    0.41215   0.45389   0.45389   0.45389   0.48011
 RFO step:  Lambda=-5.41085246D-06 EMin= 2.07023645D-02
 Quartic linear search produced a step of -0.01272.
 Iteration  1 RMS(Cart)=  0.00080121 RMS(Int)=  0.00000000
 Iteration  2 RMS(Cart)=  0.00000000 RMS(Int)=  0.00000000
 ITry= 1 IFail=0 DXMaxC= 2.07D-03 DCOld= 1.00D+10 DXMaxT= 3.00D-01 DXLimC= 3.00D+00 Rises=F
 Variable       Old X    -DE/DX   Delta X   Delta X   Delta X     New X
                                 (Linear)    (Quad)   (Total)
    R1        2.62753   0.00059   0.00026   0.00097   0.00124   2.62877
    R2        2.62752   0.00059   0.00026   0.00097   0.00124   2.62876
    R3        2.04571   0.00029  -0.00030   0.00113   0.00083   2.04654
    R4        2.62755   0.00058   0.00026   0.00096   0.00122   2.62877
    R5        2.04571   0.00029  -0.00030   0.00113   0.00083   2.04654
    R6        2.62752   0.00059   0.00026   0.00097   0.00124   2.62876
    R7        2.04571   0.00029  -0.00030   0.00113   0.00083   2.04654
    R8        2.62753   0.00059   0.00026   0.00097   0.00124   2.62877
    R9        2.04571   0.00029  -0.00030   0.00113   0.00083   2.04654
   R10        2.62755   0.00058   0.00026   0.00096   0.00122   2.62877
   R11        2.04571   0.00029  -0.00030   0.00113   0.00083   2.04654
   R12        2.04571   0.00029  -0.00030   0.00113   0.00083   2.04654
    A1        2.09439   0.00000   0.00000   0.00001   0.00001   2.09440
    A2        2.09441  -0.00000  -0.00000  -0.00002  -0.00002   2.09439
    A3        2.09438   0.00000   0.00000   0.00001   0.00001   2.09439
    A4        2.09440  -0.00000  -0.00000  -0.00000  -0.00000   2.09440
    A5        2.09438   0.00000   0.00000   0.00001   0.00001   2.09439
    A6        2.09441  -0.00000  -0.00000  -0.00001  -0.00001   2.09439
    A7        2.09439  -0.00000   0.00000  -0.00001  -0.00001   2.09438
    A8        2.09439   0.00000   0.00000   0.00001   0.00001   2.09440
    A9        2.09441  -0.00000  -0.00000  -0.00000  -0.00000   2.09441
   A10        2.09439   0.00000   0.00000   0.00001   0.00001   2.09440
   A11        2.09438   0.00000   0.00000   0.00001   0.00001   2.09439
   A12        2.09441  -0.00000  -0.00000  -0.00002  -0.00002   2.09439
   A13        2.09440  -0.00000  -0.00000  -0.00000  -0.00000   2.09440
   A14        2.09438   0.00000   0.00000   0.00001   0.00001   2.09439
   A15        2.09441  -0.00000  -0.00000  -0.00001  -0.00001   2.09439
   A16        2.09439  -0.00000   0.00000  -0.00001  -0.00001   2.09438
   A17        2.09441  -0.00000  -0.00000  -0.00000  -0.00000   2.09441
   A18        2.09439   0.00000   0.00000   0.00001   0.00001   2.09440
    D1       -0.00000   0.00000  -0.00000   0.00000   0.00000   0.00000
    D2       -3.14159  -0.00000  -0.00000  -0.00000  -0.00000   3.14159
    D3        3.14159   0.00000   0.00000   0.00000   0.00000  -3.14159
    D4       -0.00000   0.00000  -0.00000   0.00000   0.00000  -0.00000
    D5        0.00000  -0.00000   0.00000  -0.00000  -0.00000  -0.00000
    D6       -3.14159  -0.00000   0.00000  -0.00000  -0.00000   3.14159
    D7       -3.14159  -0.00000  -0.00000  -0.00000  -0.00000   3.14159
    D8        0.00000  -0.00000   0.00000  -0.00000  -0.00000  -0.00000
    D9        0.00000  -0.00000  -0.00000  -0.00000  -0.00000  -0.00000
   D10        3.14159  -0.00000   0.00000  -0.00000  -0.00000   3.14159
   D11        3.14159   0.00000  -0.00000   0.00000   0.00000  -3.14159
   D12       -0.00000   0.00000   0.00000   0.00000   0.00000   0.00000
   D13       -0.00000   0.00000   0.00000   0.00000   0.00000   0.00000
   D14        3.14159   0.00000   0.00000   0.00000   0.00000  -3.14159
   D15        3.14159   0.00000   0.00000   0.00000   0.00000  -3.14159
   D16       -0.00000   0.00000   0.00000   0.00000   0.00000   0.00000
   D17        0.00000  -0.00000  -0.00000  -0.00000  -0.00000  -0.00000
   D18        3.14159   0.00000  -0.00000   0.00000   0.00000   3.14159
   D19       -3.14159  -0.00000  -0.00000  -0.00000  -0.00000   3.14159
   D20       -0.00000   0.00000  -0.00000   0.00000   0.00000  -0.00000
   D21       -0.00000   0.00000   0.00000   0.00000   0.00000   0.00000
   D22        3.14159   0.00000   0.00000   0.00000   0.00000  -3.14159
   D23       -3.14159  -0.00000   0.00000  -0.00000  -0.00000   3.14159
   D24        0.00000  -0.00000  -0.00000  -0.00000  -0.00000  -0.00000
         Item               Value     Threshold  Converged?
 Maximum Force            0.000590     0.000450     NO 
 RMS     Force            0.000219     0.000300     YES
 Maximum Displacement     0.002071     0.001800     NO 
 RMS     Displacement     0.000801     0.001200     YES
 Predicted change in Energy=-2.903643D-06
 Lowest energy point so far.  Saving SCF results.
 GradGradGradGradGradGradGradGradGradGradGradGradGradGradGradGradGradGrad

 Leave Link  103 at Wed Mar 18 10:12:11 2026, MaxMem=   104857600 cpu:               0.0 elap:               0.0
 (Enter /sw/cluster/pub/apps//g16/l202.exe)
                          Input orientation:                          
 ---------------------------------------------------------------------
 Center     Atomic      Atomic             Coordinates (Angstroms)
 Number     Number       Type             X           Y           Z
 ---------------------------------------------------------------------
      1          6           0       -0.432901    0.161147    0.248919
      2          6           0        0.958184    0.161079    0.249344
      3          6           0        1.653792    1.365754    0.248783
      4          6           0        0.958304    2.570495    0.247796
      5          6           0       -0.432781    2.570563    0.247372
      6          6           0       -1.128389    1.365887    0.247933
      7          1           0       -0.974437   -0.776716    0.249356
      8          1           0        1.499624   -0.776841    0.250112
      9          1           0        2.736773    1.365695    0.249114
     10          1           0        1.499839    3.508357    0.247359
     11          1           0       -0.974221    3.508482    0.246604
     12          1           0       -2.211370    1.365947    0.247602
 ---------------------------------------------------------------------
                    Distance matrix (angstroms):
                    1          2          3          4          5
     1  C    0.000000
     2  C    1.391085   0.000000
     3  C    2.409433   1.391084   0.000000
     4  C    2.782159   2.409416   1.391080   0.000000
     5  C    2.409416   2.782158   2.409430   1.391085   0.000000
     6  C    1.391080   2.409430   2.782182   2.409433   1.391084
     7  H    1.082981   2.148134   3.390835   3.865139   3.390821
     8  H    2.148133   1.082982   2.148135   3.390824   3.865140
     9  H    3.390836   2.148134   1.082981   2.148138   3.390838
    10  H    3.865139   3.390821   2.148127   1.082981   2.148134
    11  H    3.390824   3.865140   3.390832   2.148133   1.082982
    12  H    2.148138   3.390838   3.865163   3.390836   2.148134
                    6          7          8          9         10
     6  C    0.000000
     7  H    2.148127   0.000000
     8  H    3.390832   2.474061   0.000000
     9  H    3.865163   4.285207   2.474065   0.000000
    10  H    3.390835   4.948120   4.285199   2.474068   0.000000
    11  H    2.148135   4.285199   4.948122   4.285210   2.474061
    12  H    1.082981   2.474068   4.285210   4.948144   4.285207
                   11         12
    11  H    0.000000
    12  H    2.474065   0.000000
 Stoichiometry    C6H6
 Framework group  C1[X(C6H6)]
 Deg. of freedom    30
 Full point group                 C1      NOp   1
 RotChk:  IX=3 Diff= 8.40D-01
 Largest Abelian subgroup         C1      NOp   1
 Largest concise Abelian subgroup C1      NOp   1
                         Standard orientation:                         
 ---------------------------------------------------------------------
 Center     Atomic      Atomic             Coordinates (Angstroms)
 Number     Number       Type             X           Y           Z
 ---------------------------------------------------------------------
      1          6           0        0.739735   -1.178089    0.000000
      2          6           0       -0.650394   -1.229670    0.000000
      3          6           0       -1.390134   -0.051579   -0.000000
      4          6           0       -0.739735    1.178089    0.000000
      5          6           0        0.650394    1.229670   -0.000000
      6          6           0        1.390134    0.051579    0.000000
      7          1           0        1.315628   -2.095256    0.000000
      8          1           0       -1.156731   -2.186996   -0.000000
      9          1           0       -2.472370   -0.091742   -0.000000
     10          1           0       -1.315628    2.095256    0.000000
     11          1           0        1.156731    2.186996   -0.000000
     12          1           0        2.472370    0.091742    0.000000
 ---------------------------------------------------------------------
 Rotational constants (GHZ):           5.7318665           5.7317823           2.8659122
 Leave Link  202 at Wed Mar 18 10:12:11 2026, MaxMem=   104857600 cpu:               0.0 elap:               0.0
 (Enter /sw/cluster/pub/apps//g16/l301.exe)
 Standard basis: def2TZVP (5D, 7F)
 Ernie: Thresh=  0.10000D-02 Tol=  0.10000D-05 Strict=F.
 There are   252 symmetry adapted cartesian basis functions of A   symmetry.
 There are   222 symmetry adapted basis functions of A   symmetry.
   222 basis functions,   354 primitive gaussians,   252 cartesian basis functions
    21 alpha electrons       21 beta electrons
       nuclear repulsion energy       203.9870480381 Hartrees.
 IExCor=  402 DFT=T Ex+Corr=B3LYP ExCW=0 ScaHFX=  0.200000
 ScaDFX=  0.800000  0.720000  1.000000  0.810000 ScalE2=  1.000000  1.000000
 IRadAn=      5 IRanWt=     -1 IRanGd=            0 ICorTp=0 IEmpDi=  4
 NAtoms=   12 NActive=   12 NUniq=   12 SFac= 1.00D+00 NAtFMM=   60 NAOKFM=F Big=F
 Integral buffers will be    131072 words long.
 Raffenetti 2 integral format.
 Two-electron integral symmetry is turned on.
 Leave Link  301 at Wed Mar 18 10:12:11 2026, MaxMem=   104857600 cpu:               0.0 elap:               0.0
 (Enter /sw/cluster/pub/apps//g16/l302.exe)
 NPDir=0 NMtPBC=     1 NCelOv=     1 NCel=       1 NClECP=     1 NCelD=      1
         NCelK=      1 NCelE2=     1 NClLst=     1 CellRange=     0.0.
 One-electron integrals computed using PRISM.
 One-electron integral symmetry used in STVInt
   1 Symmetry operations used in ECPInt.
 ECPInt:  NShTT=    4095 NPrTT=   12396 LenC2=    4075 LenP2D=   10419.
 LDataN:  DoStor=T MaxTD1= 6 Len=  172
 NBasis=   222 RedAO= T EigKep=  1.00D-05  NBF=   222
 NBsUse=   222 1.00D-06 EigRej= -1.00D+00 NBFU=   222
 Precomputing XC quadrature grid using
 IXCGrd= 4 IRadAn=           5 IRanWt=          -1 IRanGd=           0 AccXCQ= 0.00D+00.
 Generated NRdTot=       0 NPtTot=           0 NUsed=           0 NTot=          32
 NSgBfM=   251   251   251   251   251 MxSgAt=    12 MxSgA2=    12.
 Leave Link  302 at Wed Mar 18 10:12:11 2026, MaxMem=   104857600 cpu:               0.1 elap:               0.1
 (Enter /sw/cluster/pub/apps//g16/l303.exe)
 DipDrv:  MaxL=1.
 Leave Link  303 at Wed Mar 18 10:12:11 2026, MaxMem=   104857600 cpu:               0.0 elap:               0.0
 (Enter /sw/cluster/pub/apps//g16/l401.exe)
 Initial guess from the checkpoint file:  "bz-def2TZVP.chk"
 B after Tr=    -0.000000    0.000000    0.000000
         Rot=    0.954912   -0.000000   -0.000000    0.296890 Ang=  34.54 deg.
 Guess basis will be translated and rotated to current coordinates.
 JPrj=2 DoOrth=T DoCkMO=T.
 Leave Link  401 at Wed Mar 18 10:12:11 2026, MaxMem=   104857600 cpu:               0.0 elap:               0.0
 (Enter /sw/cluster/pub/apps//g16/l502.exe)
 Integral symmetry usage will be decided dynamically.
 Closed shell SCF:
 Using DIIS extrapolation, IDIIS=  1040.
 NGot=   104857600 LenX=   104726736 LenY=   104662791
 Requested convergence on RMS density matrix=1.00D-08 within 128 cycles.
 Requested convergence on MAX density matrix=1.00D-06.
 Requested convergence on             energy=1.00D-06.
 No special actions if energy rises.
 Fock matrices will be formed incrementally for  20 cycles.

 Cycle   1  Pass 1  IDiag  1:
 FoFJK:  IHMeth= 1 ICntrl=       0 DoSepK=F KAlg= 0 I1Cent=           0 FoldK=F
 IRaf= 980000000 NMat=       1 IRICut=       1 DoRegI=T DoRafI=F ISym2E= 0 IDoP0=0 IntGTp=1.
 FoFCou: FMM=F IPFlag=           0 FMFlag=      100000 FMFlg1=           0
         NFxFlg=           0 DoJE=F BraDBF=F KetDBF=F FulRan=T
         wScrn=  0.000000 ICntrl=         0 IOpCl=  0 I1Cent=           0 NGrid=           0
         NMat0=    1 NMatS0=      1 NMatT0=    0 NMatD0=    1 NMtDS0=    0 NMtDT0=    0
 Symmetry not used in FoFCou.
 E= -232.337354608586    
 DIIS: error= 6.76D-05 at cycle   1 NSaved=   1.
 NSaved= 1 IEnMin= 1 EnMin= -232.337354608586     IErMin= 1 ErrMin= 6.76D-05
 ErrMax= 6.76D-05  0.00D+00 EMaxC= 1.00D-01 BMatC= 8.74D-07 BMatP= 8.74D-07
 IDIUse=1 WtCom= 1.00D+00 WtEn= 0.00D+00
 Coeff-Com:  0.100D+01
 Coeff:      0.100D+01
 Gap=     0.759 Goal=   None    Shift=    0.000
 RMSDP=5.31D-06 MaxDP=1.24D-04              OVMax= 2.39D-04

 Cycle   2  Pass 1  IDiag  1:
 RMSU=  5.30D-06    CP:  1.00D+00
 E= -232.337355061452     Delta-E=       -0.000000452866 Rises=F Damp=F
 DIIS: error= 4.29D-05 at cycle   2 NSaved=   2.
 NSaved= 2 IEnMin= 2 EnMin= -232.337355061452     IErMin= 2 ErrMin= 4.29D-05
 ErrMax= 4.29D-05  0.00D+00 EMaxC= 1.00D-01 BMatC= 1.68D-07 BMatP= 8.74D-07
 IDIUse=1 WtCom= 1.00D+00 WtEn= 0.00D+00
 Coeff-Com:  0.238D+00 0.762D+00
 Coeff:      0.238D+00 0.762D+00
 Gap=     0.245 Goal=   None    Shift=    0.000
 RMSDP=2.28D-06 MaxDP=3.90D-05 DE=-4.53D-07 OVMax= 1.34D-04

 Cycle   3  Pass 1  IDiag  1:
 RMSU=  2.06D-06    CP:  1.00D+00  8.24D-01
 E= -232.337355157655     Delta-E=       -0.000000096203 Rises=F Damp=F
 DIIS: error= 3.18D-05 at cycle   3 NSaved=   3.
 NSaved= 3 IEnMin= 3 EnMin= -232.337355157655     IErMin= 3 ErrMin= 3.18D-05
 ErrMax= 3.18D-05  0.00D+00 EMaxC= 1.00D-01 BMatC= 7.49D-08 BMatP= 1.68D-07
 IDIUse=1 WtCom= 1.00D+00 WtEn= 0.00D+00
 Coeff-Com:  0.126D-01 0.400D+00 0.587D+00
 Coeff:      0.126D-01 0.400D+00 0.587D+00
 Gap=     0.245 Goal=   None    Shift=    0.000
 RMSDP=9.43D-07 MaxDP=1.55D-05 DE=-9.62D-08 OVMax= 6.20D-05

 Cycle   4  Pass 1  IDiag  1:
 RMSU=  3.82D-07    CP:  1.00D+00  8.88D-01  6.18D-01
 E= -232.337355236736     Delta-E=       -0.000000079080 Rises=F Damp=F
 DIIS: error= 2.94D-06 at cycle   4 NSaved=   4.
 NSaved= 4 IEnMin= 4 EnMin= -232.337355236736     IErMin= 4 ErrMin= 2.94D-06
 ErrMax= 2.94D-06  0.00D+00 EMaxC= 1.00D-01 BMatC= 5.16D-10 BMatP= 7.49D-08
 IDIUse=1 WtCom= 1.00D+00 WtEn= 0.00D+00
 Coeff-Com: -0.127D-02 0.102D+00 0.181D+00 0.719D+00
 Coeff:     -0.127D-02 0.102D+00 0.181D+00 0.719D+00
 Gap=     0.245 Goal=   None    Shift=    0.000
 RMSDP=8.42D-08 MaxDP=1.73D-06 DE=-7.91D-08 OVMax= 4.11D-06

 Cycle   5  Pass 1  IDiag  1:
 RMSU=  4.79D-08    CP:  1.00D+00  8.94D-01  6.23D-01  8.40D-01
 E= -232.337355237205     Delta-E=       -0.000000000469 Rises=F Damp=F
 DIIS: error= 2.72D-07 at cycle   5 NSaved=   5.
 NSaved= 5 IEnMin= 5 EnMin= -232.337355237205     IErMin= 5 ErrMin= 2.72D-07
 ErrMax= 2.72D-07  0.00D+00 EMaxC= 1.00D-01 BMatC= 5.70D-12 BMatP= 5.16D-10
 IDIUse=1 WtCom= 1.00D+00 WtEn= 0.00D+00
 Coeff-Com: -0.678D-03 0.465D-02 0.153D-01 0.113D+00 0.867D+00
 Coeff:     -0.678D-03 0.465D-02 0.153D-01 0.113D+00 0.867D+00
 Gap=     0.245 Goal=   None    Shift=    0.000
 RMSDP=1.18D-08 MaxDP=2.05D-07 DE=-4.69D-10 OVMax= 6.32D-07

 Cycle   6  Pass 1  IDiag  1:
 RMSU=  6.74D-09    CP:  1.00D+00  8.93D-01  6.26D-01  8.37D-01  8.87D-01
 E= -232.337355237211     Delta-E=       -0.000000000005 Rises=F Damp=F
 DIIS: error= 3.35D-08 at cycle   6 NSaved=   6.
 NSaved= 6 IEnMin= 6 EnMin= -232.337355237211     IErMin= 6 ErrMin= 3.35D-08
 ErrMax= 3.35D-08  0.00D+00 EMaxC= 1.00D-01 BMatC= 1.68D-13 BMatP= 5.70D-12
 IDIUse=1 WtCom= 1.00D+00 WtEn= 0.00D+00
 Coeff-Com: -0.149D-03 0.362D-03 0.201D-02 0.204D-01 0.201D+00 0.777D+00
 Coeff:     -0.149D-03 0.362D-03 0.201D-02 0.204D-01 0.201D+00 0.777D+00
 Gap=     0.245 Goal=   None    Shift=    0.000
 RMSDP=2.05D-09 MaxDP=6.36D-08 DE=-5.46D-12 OVMax= 2.37D-07

 SCF Done:  E(RB3LYP) =  -232.337355237     A.U. after    6 cycles
            NFock=  6  Conv=0.20D-08     -V/T= 2.0053
 KE= 2.311053902361D+02 PE=-9.464462970772D+02 EE= 2.790165035657D+02
 Leave Link  502 at Wed Mar 18 10:12:39 2026, MaxMem=   104857600 cpu:              28.0 elap:              28.1
 (Enter /sw/cluster/pub/apps//g16/l701.exe)
 ... and contract with generalized density number  0.
 Compute integral first derivatives.
   1 Symmetry operations used in ECPInt.
 ECPInt:  NShTT=    4095 NPrTT=   12396 LenC2=    4075 LenP2D=   10419.
 LDataN:  DoStor=T MaxTD1= 7 Len=  274
 Leave Link  701 at Wed Mar 18 10:12:39 2026, MaxMem=   104857600 cpu:               0.1 elap:               0.1
 (Enter /sw/cluster/pub/apps//g16/l702.exe)
 L702 exits ... SP integral derivatives will be done elsewhere.
 Leave Link  702 at Wed Mar 18 10:12:39 2026, MaxMem=   104857600 cpu:               0.0 elap:               0.0
 (Enter /sw/cluster/pub/apps//g16/l703.exe)
 Integral derivatives from FoFJK, PRISM(SPDF).
 Compute integral first derivatives, UseDBF=F ICtDFT=           0.
 Calling FoFJK, ICntrl=      2127 FMM=F ISym2X=0 I1Cent= 0 IOpClX= 0 NMat=1 NMatS=1 NMatT=0.
 FoFJK:  IHMeth= 1 ICntrl=    2127 DoSepK=F KAlg= 0 I1Cent=           0 FoldK=F
 IRaf=         0 NMat=       1 IRICut=       1 DoRegI=T DoRafI=F ISym2E= 0 IDoP0=0 IntGTp=1.
 FoFCou: FMM=F IPFlag=           0 FMFlag=      100000 FMFlg1=         800
         NFxFlg=           0 DoJE=F BraDBF=F KetDBF=F FulRan=T
         wScrn=  0.000000 ICntrl=      2127 IOpCl=  0 I1Cent=           0 NGrid=           0
         NMat0=    1 NMatS0=      1 NMatT0=    0 NMatD0=    1 NMtDS0=    0 NMtDT0=    0
 Symmetry not used in FoFCou.
 Leave Link  703 at Wed Mar 18 10:12:54 2026, MaxMem=   104857600 cpu:              15.4 elap:              15.5
 (Enter /sw/cluster/pub/apps//g16/l716.exe)
 Dipole        =-4.67512287D-08 1.67755131D-07 2.18288137D-09
 ***** Axes restored to original set *****
 -------------------------------------------------------------------
 Center     Atomic                   Forces (Hartrees/Bohr)
 Number     Number              X              Y              Z
 -------------------------------------------------------------------
      1        6           0.000018631    0.000030548   -0.000000018
      2        6          -0.000018349    0.000025491   -0.000000004
      3        6          -0.000035420   -0.000002055   -0.000000024
      4        6          -0.000018633   -0.000030548    0.000000023
      5        6           0.000018353   -0.000025489   -0.000000000
      6        6           0.000035419    0.000002062    0.000000021
      7        1           0.000008549    0.000013472   -0.000000009
      8        1          -0.000008522    0.000014847   -0.000000015
      9        1          -0.000017061    0.000000514   -0.000000009
     10        1          -0.000008551   -0.000013476    0.000000015
     11        1           0.000008523   -0.000014850    0.000000012
     12        1           0.000017060   -0.000000515    0.000000007
 -------------------------------------------------------------------
 Cartesian Forces:  Max     0.000035420 RMS     0.000015572
 Leave Link  716 at Wed Mar 18 10:12:54 2026, MaxMem=   104857600 cpu:               0.0 elap:               0.0
 (Enter /sw/cluster/pub/apps//g16/l103.exe)

 GradGradGradGradGradGradGradGradGradGradGradGradGradGradGradGradGradGrad
 Berny optimization.
 Using GEDIIS/GDIIS optimizer.
 FormGI is forming the generalized inverse of G from B-inverse, IUseBI=4.
 Internal  Forces:  Max     0.000053269 RMS     0.000017872
 Search for a local minimum.
 Step number   3 out of a maximum of   64
 All quantities printed in internal units (Hartrees-Bohrs-Radians)
 RMS Force = .17872D-04 SwitMx=.10000D-02 MixMth= 2
 Mixed Optimization -- En-DIIS/RFO-DIIS
 Swapping is turned off.
 Update second derivatives using D2CorX and points    1    2    3
 DE= -3.25D-07 DEPred=-2.90D-06 R= 1.12D-01
 Trust test= 1.12D-01 RLast= 3.64D-03 DXMaxT set to 3.00D-01
 ITU=  0  1  0
     Eigenvalues ---    0.02070   0.02070   0.02070   0.02070   0.02070
     Eigenvalues ---    0.02070   0.02070   0.02070   0.02070   0.15999
     Eigenvalues ---    0.16000   0.16000   0.16000   0.16000   0.16000
     Eigenvalues ---    0.22000   0.22000   0.22000   0.36227   0.37230
     Eigenvalues ---    0.37230   0.37230   0.37230   0.37230   0.41218
     Eigenvalues ---    0.41218   0.45388   0.45389   0.45389   0.51285
 En-DIIS/RFO-DIIS/Sim-DIIS IScMMF=       -3 using points:     3    2
 RFO step:  Lambda=-3.27183205D-08.
 NNeg= 0 NGDIIS= 2 SimSw=  2.50D-03 Rises=F DC= -3.25D-07 SmlDif=  1.00D-05
 NRisDI= 0 DoIntr=F SqrtH=F CThrHd= 10.0 CDAdj=  3.0
 RMS Error=  0.3617030518D-04 NUsed= 2 OKEnD=F EnDIS=F
 InvSVX:  RCond= 1.49D-05 Info=           0 Equed=N FErr=  9.58D-16 BErr=  4.37D-17
 DidBck=F Rises=F RFO-DIIS coefs:    0.92856    0.07144
 Iteration  1 RMS(Cart)=  0.00005796 RMS(Int)=  0.00000000
 Iteration  2 RMS(Cart)=  0.00000000 RMS(Int)=  0.00000000
 ITry= 1 IFail=0 DXMaxC= 1.53D-04 DCOld= 1.00D+10 DXMaxT= 3.00D-01 DXLimC= 3.00D+00 Rises=F
 Variable       Old X    -DE/DX   Delta X   Delta X   Delta X     New X
                                 (Linear)    (Quad)   (Total)
    R1        2.62877  -0.00005  -0.00009  -0.00001  -0.00010   2.62867
    R2        2.62876  -0.00005  -0.00009  -0.00001  -0.00009   2.62867
    R3        2.04654  -0.00002  -0.00006   0.00002  -0.00004   2.04650
    R4        2.62877  -0.00005  -0.00009  -0.00001  -0.00010   2.62867
    R5        2.04654  -0.00002  -0.00006   0.00001  -0.00004   2.04649
    R6        2.62876  -0.00005  -0.00009  -0.00001  -0.00009   2.62867
    R7        2.04654  -0.00002  -0.00006   0.00001  -0.00004   2.04649
    R8        2.62877  -0.00005  -0.00009  -0.00002  -0.00010   2.62867
    R9        2.04654  -0.00002  -0.00006   0.00002  -0.00004   2.04650
   R10        2.62877  -0.00005  -0.00009  -0.00001  -0.00010   2.62867
   R11        2.04654  -0.00002  -0.00006   0.00001  -0.00004   2.04649
   R12        2.04654  -0.00002  -0.00006   0.00001  -0.00004   2.04649
    A1        2.09440   0.00000  -0.00000   0.00000   0.00000   2.09440
    A2        2.09439  -0.00000   0.00000  -0.00001  -0.00001   2.09439
    A3        2.09439   0.00000  -0.00000   0.00001   0.00000   2.09439
    A4        2.09440  -0.00000   0.00000  -0.00001  -0.00001   2.09439
    A5        2.09439   0.00000  -0.00000   0.00001   0.00001   2.09440
    A6        2.09439   0.00000   0.00000   0.00000   0.00000   2.09440
    A7        2.09438   0.00000   0.00000   0.00001   0.00001   2.09439
    A8        2.09440  -0.00000  -0.00000   0.00000   0.00000   2.09440
    A9        2.09441  -0.00000   0.00000  -0.00001  -0.00001   2.09440
   A10        2.09440   0.00000  -0.00000   0.00000   0.00000   2.09440
   A11        2.09439   0.00000  -0.00000   0.00001   0.00000   2.09439
   A12        2.09439  -0.00000   0.00000  -0.00001  -0.00001   2.09439
   A13        2.09440  -0.00000   0.00000  -0.00001  -0.00001   2.09439
   A14        2.09439   0.00000  -0.00000   0.00001   0.00001   2.09440
   A15        2.09439   0.00000   0.00000   0.00000   0.00000   2.09440
   A16        2.09438   0.00000   0.00000   0.00001   0.00001   2.09439
   A17        2.09441  -0.00000   0.00000  -0.00001  -0.00001   2.09440
   A18        2.09440  -0.00000  -0.00000   0.00000   0.00000   2.09440
    D1        0.00000  -0.00000  -0.00000  -0.00000  -0.00000  -0.00000
    D2        3.14159   0.00000   0.00000   0.00000   0.00000   3.14159
    D3       -3.14159  -0.00000  -0.00000  -0.00000  -0.00000   3.14159
    D4       -0.00000   0.00000  -0.00000   0.00000   0.00000  -0.00000
    D5       -0.00000   0.00000   0.00000   0.00000   0.00000   0.00000
    D6        3.14159   0.00000   0.00000   0.00000   0.00000  -3.14159
    D7        3.14159   0.00000   0.00000   0.00000   0.00000  -3.14159
    D8       -0.00000   0.00000   0.00000  -0.00000   0.00000   0.00000
    D9       -0.00000   0.00000   0.00000   0.00000   0.00000   0.00000
   D10        3.14159   0.00000   0.00000   0.00000   0.00000   3.14159
   D11       -3.14159   0.00000  -0.00000   0.00000   0.00000  -3.14159
   D12        0.00000  -0.00000  -0.00000  -0.00000  -0.00000   0.00000
   D13        0.00000  -0.00000  -0.00000  -0.00000  -0.00000  -0.00000
   D14       -3.14159  -0.00000  -0.00000  -0.00000  -0.00000   3.14159
   D15       -3.14159  -0.00000  -0.00000  -0.00000  -0.00000   3.14159
   D16        0.00000  -0.00000  -0.00000  -0.00000  -0.00000   0.00000
   D17       -0.00000   0.00000   0.00000   0.00000   0.00000   0.00000
   D18        3.14159   0.00000  -0.00000   0.00000   0.00000  -3.14159
   D19        3.14159   0.00000   0.00000   0.00000   0.00000   3.14159
   D20       -0.00000   0.00000  -0.00000   0.00000   0.00000  -0.00000
   D21        0.00000  -0.00000  -0.00000  -0.00000  -0.00000  -0.00000
   D22       -3.14159  -0.00000  -0.00000  -0.00000  -0.00000   3.14159
   D23        3.14159   0.00000   0.00000  -0.00000   0.00000   3.14159
   D24       -0.00000   0.00000   0.00000   0.00000   0.00000   0.00000
         Item               Value     Threshold  Converged?
 Maximum Force            0.000053     0.000450     YES
 RMS     Force            0.000018     0.000300     YES
 Maximum Displacement     0.000153     0.001800     YES
 RMS     Displacement     0.000058     0.001200     YES
 Predicted change in Energy=-1.733467D-08
 Optimization completed.
    -- Stationary point found.
                           ----------------------------
                           !   Optimized Parameters   !
                           ! (Angstroms and Degrees)  !
 --------------------------                            --------------------------
 ! Name  Definition              Value          Derivative Info.                !
 --------------------------------------------------------------------------------
 ! R1    R(1,2)                  1.3911         -DE/DX =   -0.0001              !
 ! R2    R(1,6)                  1.3911         -DE/DX =    0.0                 !
 ! R3    R(1,7)                  1.083          -DE/DX =    0.0                 !
 ! R4    R(2,3)                  1.3911         -DE/DX =   -0.0001              !
 ! R5    R(2,8)                  1.083          -DE/DX =    0.0                 !
 ! R6    R(3,4)                  1.3911         -DE/DX =    0.0                 !
 ! R7    R(3,9)                  1.083          -DE/DX =    0.0                 !
 ! R8    R(4,5)                  1.3911         -DE/DX =   -0.0001              !
 ! R9    R(4,10)                 1.083          -DE/DX =    0.0                 !
 ! R10   R(5,6)                  1.3911         -DE/DX =   -0.0001              !
 ! R11   R(5,11)                 1.083          -DE/DX =    0.0                 !
 ! R12   R(6,12)                 1.083          -DE/DX =    0.0                 !
 ! A1    A(2,1,6)              120.0004         -DE/DX =    0.0                 !
 ! A2    A(2,1,7)              119.9999         -DE/DX =    0.0                 !
 ! A3    A(6,1,7)              119.9997         -DE/DX =    0.0                 !
 ! A4    A(1,2,3)              120.0003         -DE/DX =    0.0                 !
 ! A5    A(1,2,8)              119.9997         -DE/DX =    0.0                 !
 ! A6    A(3,2,8)              120.0            -DE/DX =    0.0                 !
 ! A7    A(2,3,4)              119.9993         -DE/DX =    0.0                 !
 ! A8    A(2,3,9)              120.0            -DE/DX =    0.0                 !
 ! A9    A(4,3,9)              120.0007         -DE/DX =    0.0                 !
 ! A10   A(3,4,5)              120.0004         -DE/DX =    0.0                 !
 ! A11   A(3,4,10)             119.9997         -DE/DX =    0.0                 !
 ! A12   A(5,4,10)             119.9999         -DE/DX =    0.0                 !
 ! A13   A(4,5,6)              120.0003         -DE/DX =    0.0                 !
 ! A14   A(4,5,11)             119.9997         -DE/DX =    0.0                 !
 ! A15   A(6,5,11)             120.0            -DE/DX =    0.0                 !
 ! A16   A(1,6,5)              119.9993         -DE/DX =    0.0                 !
 ! A17   A(1,6,12)             120.0007         -DE/DX =    0.0                 !
 ! A18   A(5,6,12)             120.0            -DE/DX =    0.0                 !
 ! D1    D(6,1,2,3)              0.0            -DE/DX =    0.0                 !
 ! D2    D(6,1,2,8)            180.0            -DE/DX =    0.0                 !
 ! D3    D(7,1,2,3)            180.0            -DE/DX =    0.0                 !
 ! D4    D(7,1,2,8)              0.0            -DE/DX =    0.0                 !
 ! D5    D(2,1,6,5)              0.0            -DE/DX =    0.0                 !
 ! D6    D(2,1,6,12)          -180.0            -DE/DX =    0.0                 !
 ! D7    D(7,1,6,5)           -180.0            -DE/DX =    0.0                 !
 ! D8    D(7,1,6,12)             0.0            -DE/DX =    0.0                 !
 ! D9    D(1,2,3,4)              0.0            -DE/DX =    0.0                 !
 ! D10   D(1,2,3,9)            180.0            -DE/DX =    0.0                 !
 ! D11   D(8,2,3,4)           -180.0            -DE/DX =    0.0                 !
 ! D12   D(8,2,3,9)              0.0            -DE/DX =    0.0                 !
 ! D13   D(2,3,4,5)              0.0            -DE/DX =    0.0                 !
 ! D14   D(2,3,4,10)           180.0            -DE/DX =    0.0                 !
 ! D15   D(9,3,4,5)            180.0            -DE/DX =    0.0                 !
 ! D16   D(9,3,4,10)             0.0            -DE/DX =    0.0                 !
 ! D17   D(3,4,5,6)              0.0            -DE/DX =    0.0                 !
 ! D18   D(3,4,5,11)          -180.0            -DE/DX =    0.0                 !
 ! D19   D(10,4,5,6)           180.0            -DE/DX =    0.0                 !
 ! D20   D(10,4,5,11)            0.0            -DE/DX =    0.0                 !
 ! D21   D(4,5,6,1)              0.0            -DE/DX =    0.0                 !
 ! D22   D(4,5,6,12)           180.0            -DE/DX =    0.0                 !
 ! D23   D(11,5,6,1)           180.0            -DE/DX =    0.0                 !
 ! D24   D(11,5,6,12)            0.0            -DE/DX =    0.0                 !
 --------------------------------------------------------------------------------
 Lowest energy point so far.  Saving SCF results.
 Largest change from initial coordinates is atom   12       1.896 Angstoms.
 GradGradGradGradGradGradGradGradGradGradGradGradGradGradGradGradGradGrad

 Leave Link  103 at Wed Mar 18 10:12:54 2026, MaxMem=   104857600 cpu:               0.0 elap:               0.0
 (Enter /sw/cluster/pub/apps//g16/l202.exe)
                          Input orientation:                          
 ---------------------------------------------------------------------
 Center     Atomic      Atomic             Coordinates (Angstroms)
 Number     Number       Type             X           Y           Z
 ---------------------------------------------------------------------
      1          6           0       -0.432901    0.161147    0.248919
      2          6           0        0.958184    0.161079    0.249344
      3          6           0        1.653792    1.365754    0.248783
      4          6           0        0.958304    2.570495    0.247796
      5          6           0       -0.432781    2.570563    0.247372
      6          6           0       -1.128389    1.365887    0.247933
      7          1           0       -0.974437   -0.776716    0.249356
      8          1           0        1.499624   -0.776841    0.250112
      9          1           0        2.736773    1.365695    0.249114
     10          1           0        1.499839    3.508357    0.247359
     11          1           0       -0.974221    3.508482    0.246604
     12          1           0       -2.211370    1.365947    0.247602
 ---------------------------------------------------------------------
                    Distance matrix (angstroms):
                    1          2          3          4          5
     1  C    0.000000
     2  C    1.391085   0.000000
     3  C    2.409433   1.391084   0.000000
     4  C    2.782159   2.409416   1.391080   0.000000
     5  C    2.409416   2.782158   2.409430   1.391085   0.000000
     6  C    1.391080   2.409430   2.782182   2.409433   1.391084
     7  H    1.082981   2.148134   3.390835   3.865139   3.390821
     8  H    2.148133   1.082982   2.148135   3.390824   3.865140
     9  H    3.390836   2.148134   1.082981   2.148138   3.390838
    10  H    3.865139   3.390821   2.148127   1.082981   2.148134
    11  H    3.390824   3.865140   3.390832   2.148133   1.082982
    12  H    2.148138   3.390838   3.865163   3.390836   2.148134
                    6          7          8          9         10
     6  C    0.000000
     7  H    2.148127   0.000000
     8  H    3.390832   2.474061   0.000000
     9  H    3.865163   4.285207   2.474065   0.000000
    10  H    3.390835   4.948120   4.285199   2.474068   0.000000
    11  H    2.148135   4.285199   4.948122   4.285210   2.474061
    12  H    1.082981   2.474068   4.285210   4.948144   4.285207
                   11         12
    11  H    0.000000
    12  H    2.474065   0.000000
 Stoichiometry    C6H6
 Framework group  C1[X(C6H6)]
 Deg. of freedom    30
 Full point group                 C1      NOp   1
 RotChk:  IX=3 Diff= 1.91D-10
 Largest Abelian subgroup         C1      NOp   1
 Largest concise Abelian subgroup C1      NOp   1
                         Standard orientation:                         
 ---------------------------------------------------------------------
 Center     Atomic      Atomic             Coordinates (Angstroms)
 Number     Number       Type             X           Y           Z
 ---------------------------------------------------------------------
      1          6           0        0.739735   -1.178089    0.000000
      2          6           0       -0.650394   -1.229670    0.000000
      3          6           0       -1.390134   -0.051579   -0.000000
      4          6           0       -0.739735    1.178089    0.000000
      5          6           0        0.650394    1.229670   -0.000000
      6          6           0        1.390134    0.051579    0.000000
      7          1           0        1.315628   -2.095256    0.000000
      8          1           0       -1.156731   -2.186996   -0.000000
      9          1           0       -2.472370   -0.091742   -0.000000
     10          1           0       -1.315628    2.095256    0.000000
     11          1           0        1.156731    2.186996   -0.000000
     12          1           0        2.472370    0.091742    0.000000
 ---------------------------------------------------------------------
 Rotational constants (GHZ):           5.7318665           5.7317823           2.8659122
 Leave Link  202 at Wed Mar 18 10:12:55 2026, MaxMem=   104857600 cpu:               0.0 elap:               0.0
 (Enter /sw/cluster/pub/apps//g16/l601.exe)
 Copying SCF densities to generalized density rwf, IOpCl= 0 IROHF=0.

 **********************************************************************

            Population analysis using the SCF density.

 **********************************************************************

 Orbital symmetries:
       Occupied  (A) (A) (A) (A) (A) (A) (A) (A) (A) (A) (A) (A)
                 (A) (A) (A) (A) (A) (A) (A) (A) (A)
       Virtual   (A) (A) (A) (A) (A) (A) (A) (A) (A) (A) (A) (A)
                 (A) (A) (A) (A) (A) (A) (A) (A) (A) (A) (A) (A)
                 (A) (A) (A) (A) (A) (A) (A) (A) (A) (A) (A) (A)
                 (A) (A) (A) (A) (A) (A) (A) (A) (A) (A) (A) (A)
                 (A) (A) (A) (A) (A) (A) (A) (A) (A) (A) (A) (A)
                 (A) (A) (A) (A) (A) (A) (A) (A) (A) (A) (A) (A)
                 (A) (A) (A) (A) (A) (A) (A) (A) (A) (A) (A) (A)
                 (A) (A) (A) (A) (A) (A) (A) (A) (A) (A) (A) (A)
                 (A) (A) (A) (A) (A) (A) (A) (A) (A) (A) (A) (A)
                 (A) (A) (A) (A) (A) (A) (A) (A) (A) (A) (A) (A)
                 (A) (A) (A) (A) (A) (A) (A) (A) (A) (A) (A) (A)
                 (A) (A) (A) (A) (A) (A) (A) (A) (A) (A) (A) (A)
                 (A) (A) (A) (A) (A) (A) (A) (A) (A) (A) (A) (A)
                 (A) (A) (A) (A) (A) (A) (A) (A) (A) (A) (A) (A)
                 (A) (A) (A) (A) (A) (A) (A) (A) (A) (A) (A) (A)
                 (A) (A) (A) (A) (A) (A) (A) (A) (A) (A) (A) (A)
                 (A) (A) (A) (A) (A) (A) (A) (A) (A)
 The electronic state is 1-A.
 Alpha  occ. eigenvalues --  -10.17697 -10.17673 -10.17673 -10.17615 -10.17615
 Alpha  occ. eigenvalues --  -10.17587  -0.85831  -0.74952  -0.74951  -0.60634
 Alpha  occ. eigenvalues --   -0.60634  -0.52859  -0.46433  -0.45160  -0.42598
 Alpha  occ. eigenvalues --   -0.42598  -0.37323  -0.34868  -0.34867  -0.25933
 Alpha  occ. eigenvalues --   -0.25933
 Alpha virt. eigenvalues --   -0.01439  -0.01439   0.04468   0.07651   0.07651
 Alpha virt. eigenvalues --    0.10353   0.10353   0.12628   0.14005   0.14883
 Alpha virt. eigenvalues --    0.20534   0.20869   0.21450   0.21450   0.23198
 Alpha virt. eigenvalues --    0.23199   0.24694   0.24694   0.26806   0.26806
 Alpha virt. eigenvalues --    0.32595   0.32620   0.32621   0.35583   0.35583
 Alpha virt. eigenvalues --    0.38124   0.40287   0.41163   0.41163   0.43555
 Alpha virt. eigenvalues --    0.43555   0.43737   0.46150   0.46210   0.48836
 Alpha virt. eigenvalues --    0.48837   0.49029   0.50566   0.50566   0.64265
 Alpha virt. eigenvalues --    0.64265   0.65088   0.67836   0.68498   0.74509
 Alpha virt. eigenvalues --    0.74509   0.75354   0.75355   0.79881   0.84325
 Alpha virt. eigenvalues --    0.84325   0.85013   0.88680   0.88953   0.99904
 Alpha virt. eigenvalues --    0.99904   1.00855   1.00856   1.04940   1.04940
 Alpha virt. eigenvalues --    1.16524   1.17316   1.17316   1.20186   1.20186
 Alpha virt. eigenvalues --    1.22030   1.22030   1.24805   1.24806   1.28174
 Alpha virt. eigenvalues --    1.37398   1.37429   1.38379   1.44888   1.44889
 Alpha virt. eigenvalues --    1.47704   1.47704   1.48047   1.48047   1.59471
 Alpha virt. eigenvalues --    1.60681   1.64828   1.66228   1.66228   1.67713
 Alpha virt. eigenvalues --    1.68817   1.68817   1.70075   1.70077   1.76148
 Alpha virt. eigenvalues --    1.83727   1.90233   1.90233   2.03240   2.03241
 Alpha virt. eigenvalues --    2.06140   2.07251   2.07251   2.08218   2.15466
 Alpha virt. eigenvalues --    2.15467   2.21678   2.23096   2.23096   2.31569
 Alpha virt. eigenvalues --    2.45982   2.48079   2.48079   2.54800   2.55535
 Alpha virt. eigenvalues --    2.55536   2.55996   2.58162   2.65275   2.65276
 Alpha virt. eigenvalues --    2.66483   2.66484   2.66699   2.67434   2.67434
 Alpha virt. eigenvalues --    2.73562   2.74329   2.74329   2.80019   2.80157
 Alpha virt. eigenvalues --    2.80157   2.83758   2.84267   2.84267   2.84542
 Alpha virt. eigenvalues --    2.84542   2.89456   3.00821   3.09169   3.09169
 Alpha virt. eigenvalues --    3.09204   3.09204   3.13288   3.13289   3.13835
 Alpha virt. eigenvalues --    3.13836   3.18597   3.21295   3.21295   3.24156
 Alpha virt. eigenvalues --    3.25422   3.25422   3.30250   3.34671   3.37123
 Alpha virt. eigenvalues --    3.37124   3.37647   3.43887   3.43888   3.47363
 Alpha virt. eigenvalues --    3.49717   3.52179   3.52179   3.60120   3.63336
 Alpha virt. eigenvalues --    3.63337   3.74927   3.75574   3.75575   3.79186
 Alpha virt. eigenvalues --    3.86249   3.99434   3.99434   4.06437   4.06791
 Alpha virt. eigenvalues --    4.06791   4.11115   4.19741   4.19807   4.19808
 Alpha virt. eigenvalues --    4.22080   4.22081   4.28479   4.28481   4.29248
 Alpha virt. eigenvalues --    4.29249   4.62473   4.63712   4.63713   4.65458
 Alpha virt. eigenvalues --    4.82665   4.82666   4.88463   4.88464   5.20360
 Alpha virt. eigenvalues --    5.20361   5.27310   5.28601   5.41658   5.61781
 Alpha virt. eigenvalues --   21.85395  22.52949  22.52950  22.62836  22.62836
 Alpha virt. eigenvalues --   23.05464
          Condensed to atoms (all electrons):
               1          2          3          4          5          6
     1  C    4.862716   0.508642  -0.034833  -0.042738  -0.034840   0.508635
     2  C    0.508642   4.862734   0.508639  -0.034840  -0.042740  -0.034832
     3  C   -0.034833   0.508639   4.862741   0.508635  -0.034832  -0.042741
     4  C   -0.042738  -0.034840   0.508635   4.862716   0.508642  -0.034833
     5  C   -0.034840  -0.042740  -0.034832   0.508642   4.862734   0.508639
     6  C    0.508635  -0.034832  -0.042741  -0.034833   0.508639   4.862741
     7  H    0.419047  -0.046458   0.008350  -0.001560   0.008351  -0.046458
     8  H   -0.046456   0.419042  -0.046456   0.008350  -0.001560   0.008350
     9  H    0.008350  -0.046456   0.419044  -0.046454   0.008350  -0.001560
    10  H   -0.001560   0.008351  -0.046458   0.419047  -0.046458   0.008350
    11  H    0.008350  -0.001560   0.008350  -0.046456   0.419042  -0.046456
    12  H   -0.046454   0.008350  -0.001560   0.008350  -0.046456   0.419044
               7          8          9         10         11         12
     1  C    0.419047  -0.046456   0.008350  -0.001560   0.008350  -0.046454
     2  C   -0.046458   0.419042  -0.046456   0.008351  -0.001560   0.008350
     3  C    0.008350  -0.046456   0.419044  -0.046458   0.008350  -0.001560
     4  C   -0.001560   0.008350  -0.046454   0.419047  -0.046456   0.008350
     5  C    0.008351  -0.001560   0.008350  -0.046458   0.419042  -0.046456
     6  C   -0.046458   0.008350  -0.001560   0.008350  -0.046456   0.419044
     7  H    0.564038  -0.006843  -0.000291   0.000088  -0.000291  -0.006843
     8  H   -0.006843   0.564039  -0.006843  -0.000291   0.000088  -0.000291
     9  H   -0.000291  -0.006843   0.564035  -0.006843  -0.000291   0.000088
    10  H    0.000088  -0.000291  -0.006843   0.564038  -0.006843  -0.000291
    11  H   -0.000291   0.000088  -0.000291  -0.006843   0.564039  -0.006843
    12  H   -0.006843  -0.000291   0.000088  -0.000291  -0.006843   0.564035
 Mulliken charges:
               1
     1  C   -0.108858
     2  C   -0.108871
     3  C   -0.108878
     4  C   -0.108858
     5  C   -0.108871
     6  C   -0.108878
     7  H    0.108869
     8  H    0.108869
     9  H    0.108870
    10  H    0.108869
    11  H    0.108869
    12  H    0.108870
 Sum of Mulliken charges =  -0.00000
 Mulliken charges with hydrogens summed into heavy atoms:
               1
     1  C    0.000011
     2  C   -0.000002
     3  C   -0.000009
     4  C    0.000011
     5  C   -0.000002
     6  C   -0.000009
 Electronic spatial extent (au):  <R**2>=            457.3349
 Charge=             -0.0000 electrons
 Dipole moment (field-independent basis, Debye):
    X=             -0.0000    Y=              0.0000    Z=             -0.0000  Tot=              0.0000
 Quadrupole moment (field-independent basis, Debye-Ang):
   XX=            -32.1312   YY=            -32.1314   ZZ=            -39.8555
   XY=              0.0000   XZ=             -0.0000   YZ=              0.0000
 Traceless Quadrupole moment (field-independent basis, Debye-Ang):
   XX=              2.5748   YY=              2.5746   ZZ=             -5.1495
   XY=              0.0000   XZ=             -0.0000   YZ=              0.0000
 Octapole moment (field-independent basis, Debye-Ang**2):
  XXX=             -0.0000  YYY=              0.0000  ZZZ=              0.0000  XYY=             -0.0000
  XXY=              0.0000  XXZ=             -0.0000  XZZ=             -0.0000  YZZ=              0.0000
  YYZ=              0.0000  XYZ=             -0.0000
 Hexadecapole moment (field-independent basis, Debye-Ang**3):
 XXXX=           -274.7956 YYYY=           -274.7939 ZZZZ=            -48.0966 XXXY=              0.0001
 XXXZ=              0.0000 YYYX=              0.0000 YYYZ=              0.0000 ZZZX=             -0.0000
 ZZZY=              0.0000 XXYY=            -91.5985 XXZZ=            -63.9092 YYZZ=            -63.9086
 XXYZ=              0.0000 YYXZ=             -0.0000 ZZXY=             -0.0000
 N-N= 2.039870480381D+02 E-N=-9.464462956961D+02  KE= 2.311053902361D+02
 No NMR shielding tensors so no spin-rotation constants.
 Leave Link  601 at Wed Mar 18 10:12:55 2026, MaxMem=   104857600 cpu:               0.1 elap:               0.1
 (Enter /sw/cluster/pub/apps//g16/l9999.exe)
 1\1\GINC-N07\FOpt\RB3LYP\def2TZVP\C6H6\UNKNOWN\18-Mar-2026\0\\#P B3LYP
 /def2TZVP OPT FREQ\\OPT FREQ benzene def2TZVP\\0,1\C,-0.4329008138,0.1
 611471569,0.2489188274\C,0.9581840745,0.1610788053,0.249343757\C,1.653
 7922058,1.3657543081,0.2487826636\C,0.9583036029,2.5704946048,0.247796
 4688\C,-0.4327812829,2.570562957,0.2473716605\C,-1.128389416,1.3658874
 56,0.2479327396\H,-0.9744365829,-0.776715604,0.2493557319\H,1.49962403
 24,-0.7768405953,0.2501115463\H,2.7367731632,1.3656949127,0.2491135413
 \H,1.4998393712,3.5083573631,0.2473594101\H,-0.9742212405,3.5084823555
 ,0.2466039555\H,-2.211370374,1.3659468499,0.2476019227\\Version=ES64L-
 G16RevA.03\State=1-A\HF=-232.3373552\RMSD=2.047e-09\RMSF=1.557e-05\Dip
 ole=0.,0.0000002,0.\Quadrupole=1.9143178,1.9141769,-3.8284947,-0.00001
 01,0.0017541,-0.0036883\PG=C01 [X(C6H6)]\\@


 THE WORLD IS MADE UP OF THE WILLS, THE WON'TS, AND THE CANT'S:
 THE WILLS DO EVERYTHING,
 THE WON'TS DO NOTHING,
 THE CAN'TS CAN'T DO ANYTHING.

                               -- FROM WALT DISNEY'S "BLACK HOLE"
 Leave Link 9999 at Wed Mar 18 10:12:55 2026, MaxMem=   104857600 cpu:               0.0 elap:               0.0
 Job cpu time:       0 days  0 hours  2 minutes 25.0 seconds.
 Elapsed time:       0 days  0 hours  2 minutes 25.1 seconds.
 File lengths (MBytes):  RWF=     33 Int=      0 D2E=      0 Chk=      5 Scr=      1
 Normal termination of Gaussian 16 at Wed Mar 18 10:12:55 2026.
 (Enter /sw/cluster/pub/apps//g16/l1.exe)
 Link1:  Proceeding to internal job step number  2.
 --------------------------------------------------------------------
 #P Geom=AllCheck Guess=TCheck SCRF=Check GenChk RB3LYP/def2TZVP Freq
 --------------------------------------------------------------------
 1/10=4,29=7,30=1,38=1,40=1/1,3;
 2/12=2,40=1/2;
 3/5=44,7=101,11=2,14=-4,25=1,30=1,70=2,71=2,74=-5,116=1,140=1/1,2,3;
 4/5=101/1;
 5/5=2,38=6,98=1/2;
 8/6=4,10=90,11=11/1;
 11/6=1,8=1,9=11,15=111,16=1/1,2,10;
 10/6=1/2;
 6/7=2,8=2,9=2,10=2,28=1/1;
 7/8=1,10=1,25=1/1,2,3,16;
 1/10=4,30=1/3;
 99//99;
 Leave Link    1 at Wed Mar 18 10:12:55 2026, MaxMem=   104857600 cpu:               0.0 elap:               0.0
 (Enter /sw/cluster/pub/apps//g16/l101.exe)
 Structure from the checkpoint file:  "bz-def2TZVP.chk"
 -------------------------
 OPT FREQ benzene def2TZVP
 -------------------------
 Charge =  0 Multiplicity = 1
 Redundant internal coordinates found in file.  (old form).
 C,0,-0.4329008138,0.1611471569,0.2489188274
 C,0,0.9581840745,0.1610788053,0.249343757
 C,0,1.6537922058,1.3657543081,0.2487826636
 C,0,0.9583036029,2.5704946048,0.2477964688
 C,0,-0.4327812829,2.570562957,0.2473716605
 C,0,-1.128389416,1.365887456,0.2479327396
 H,0,-0.9744365829,-0.776715604,0.2493557319
 H,0,1.4996240324,-0.7768405953,0.2501115463
 H,0,2.7367731632,1.3656949127,0.2491135413
 H,0,1.4998393712,3.5083573631,0.2473594101
 H,0,-0.9742212405,3.5084823555,0.2466039555
 H,0,-2.211370374,1.3659468499,0.2476019227
 Recover connectivity data from disk.
 ITRead=  0  0  0  0  0  0  0  0  0  0  0  0
 MicOpt= -1 -1 -1 -1 -1 -1 -1 -1 -1 -1 -1 -1
 NAtoms=     12 NQM=       12 NQMF=       0 NMMI=      0 NMMIF=      0
                NMic=       0 NMicF=      0.
                    Isotopes and Nuclear Properties:
 (Nuclear quadrupole moments (NQMom) in fm**2, nuclear magnetic moments (NMagM)
  in nuclear magnetons)

  Atom         1           2           3           4           5           6           7           8           9          10
 IAtWgt=          12          12          12          12          12          12           1           1           1           1
 AtmWgt=  12.0000000  12.0000000  12.0000000  12.0000000  12.0000000  12.0000000   1.0078250   1.0078250   1.0078250   1.0078250
 NucSpn=           0           0           0           0           0           0           1           1           1           1
 AtZEff=   3.6000000   3.6000000   3.6000000   3.6000000   3.6000000   3.6000000   1.0000000   1.0000000   1.0000000   1.0000000
 NQMom=    0.0000000   0.0000000   0.0000000   0.0000000   0.0000000   0.0000000   0.0000000   0.0000000   0.0000000   0.0000000
 NMagM=    0.0000000   0.0000000   0.0000000   0.0000000   0.0000000   0.0000000   2.7928460   2.7928460   2.7928460   2.7928460
 AtZNuc=   6.0000000   6.0000000   6.0000000   6.0000000   6.0000000   6.0000000   1.0000000   1.0000000   1.0000000   1.0000000

  Atom        11          12
 IAtWgt=           1           1
 AtmWgt=   1.0078250   1.0078250
 NucSpn=           1           1
 AtZEff=   1.0000000   1.0000000
 NQMom=    0.0000000   0.0000000
 NMagM=    2.7928460   2.7928460
 AtZNuc=   1.0000000   1.0000000
 Leave Link  101 at Wed Mar 18 10:12:55 2026, MaxMem=   104857600 cpu:               0.0 elap:               0.0
 (Enter /sw/cluster/pub/apps//g16/l103.exe)

 GradGradGradGradGradGradGradGradGradGradGradGradGradGradGradGradGradGrad
 Berny optimization.
 Initialization pass.
                           ----------------------------
                           !    Initial Parameters    !
                           ! (Angstroms and Degrees)  !
 --------------------------                            --------------------------
 ! Name  Definition              Value          Derivative Info.                !
 --------------------------------------------------------------------------------
 ! R1    R(1,2)                  1.3911         calculate D2E/DX2 analytically  !
 ! R2    R(1,6)                  1.3911         calculate D2E/DX2 analytically  !
 ! R3    R(1,7)                  1.083          calculate D2E/DX2 analytically  !
 ! R4    R(2,3)                  1.3911         calculate D2E/DX2 analytically  !
 ! R5    R(2,8)                  1.083          calculate D2E/DX2 analytically  !
 ! R6    R(3,4)                  1.3911         calculate D2E/DX2 analytically  !
 ! R7    R(3,9)                  1.083          calculate D2E/DX2 analytically  !
 ! R8    R(4,5)                  1.3911         calculate D2E/DX2 analytically  !
 ! R9    R(4,10)                 1.083          calculate D2E/DX2 analytically  !
 ! R10   R(5,6)                  1.3911         calculate D2E/DX2 analytically  !
 ! R11   R(5,11)                 1.083          calculate D2E/DX2 analytically  !
 ! R12   R(6,12)                 1.083          calculate D2E/DX2 analytically  !
 ! A1    A(2,1,6)              120.0004         calculate D2E/DX2 analytically  !
 ! A2    A(2,1,7)              119.9999         calculate D2E/DX2 analytically  !
 ! A3    A(6,1,7)              119.9997         calculate D2E/DX2 analytically  !
 ! A4    A(1,2,3)              120.0003         calculate D2E/DX2 analytically  !
 ! A5    A(1,2,8)              119.9997         calculate D2E/DX2 analytically  !
 ! A6    A(3,2,8)              120.0            calculate D2E/DX2 analytically  !
 ! A7    A(2,3,4)              119.9993         calculate D2E/DX2 analytically  !
 ! A8    A(2,3,9)              120.0            calculate D2E/DX2 analytically  !
 ! A9    A(4,3,9)              120.0007         calculate D2E/DX2 analytically  !
 ! A10   A(3,4,5)              120.0004         calculate D2E/DX2 analytically  !
 ! A11   A(3,4,10)             119.9997         calculate D2E/DX2 analytically  !
 ! A12   A(5,4,10)             119.9999         calculate D2E/DX2 analytically  !
 ! A13   A(4,5,6)              120.0003         calculate D2E/DX2 analytically  !
 ! A14   A(4,5,11)             119.9997         calculate D2E/DX2 analytically  !
 ! A15   A(6,5,11)             120.0            calculate D2E/DX2 analytically  !
 ! A16   A(1,6,5)              119.9993         calculate D2E/DX2 analytically  !
 ! A17   A(1,6,12)             120.0007         calculate D2E/DX2 analytically  !
 ! A18   A(5,6,12)             120.0            calculate D2E/DX2 analytically  !
 ! D1    D(6,1,2,3)              0.0            calculate D2E/DX2 analytically  !
 ! D2    D(6,1,2,8)            180.0            calculate D2E/DX2 analytically  !
 ! D3    D(7,1,2,3)           -180.0            calculate D2E/DX2 analytically  !
 ! D4    D(7,1,2,8)              0.0            calculate D2E/DX2 analytically  !
 ! D5    D(2,1,6,5)              0.0            calculate D2E/DX2 analytically  !
 ! D6    D(2,1,6,12)           180.0            calculate D2E/DX2 analytically  !
 ! D7    D(7,1,6,5)            180.0            calculate D2E/DX2 analytically  !
 ! D8    D(7,1,6,12)             0.0            calculate D2E/DX2 analytically  !
 ! D9    D(1,2,3,4)              0.0            calculate D2E/DX2 analytically  !
 ! D10   D(1,2,3,9)            180.0            calculate D2E/DX2 analytically  !
 ! D11   D(8,2,3,4)            180.0            calculate D2E/DX2 analytically  !
 ! D12   D(8,2,3,9)              0.0            calculate D2E/DX2 analytically  !
 ! D13   D(2,3,4,5)              0.0            calculate D2E/DX2 analytically  !
 ! D14   D(2,3,4,10)          -180.0            calculate D2E/DX2 analytically  !
 ! D15   D(9,3,4,5)           -180.0            calculate D2E/DX2 analytically  !
 ! D16   D(9,3,4,10)             0.0            calculate D2E/DX2 analytically  !
 ! D17   D(3,4,5,6)              0.0            calculate D2E/DX2 analytically  !
 ! D18   D(3,4,5,11)           180.0            calculate D2E/DX2 analytically  !
 ! D19   D(10,4,5,6)           180.0            calculate D2E/DX2 analytically  !
 ! D20   D(10,4,5,11)            0.0            calculate D2E/DX2 analytically  !
 ! D21   D(4,5,6,1)              0.0            calculate D2E/DX2 analytically  !
 ! D22   D(4,5,6,12)          -180.0            calculate D2E/DX2 analytically  !
 ! D23   D(11,5,6,1)           180.0            calculate D2E/DX2 analytically  !
 ! D24   D(11,5,6,12)            0.0            calculate D2E/DX2 analytically  !
 --------------------------------------------------------------------------------
 Trust Radius=3.00D-01 FncErr=1.00D-07 GrdErr=1.00D-07 EigMax=2.50D+02 EigMin=1.00D-04
 Number of steps in this run=      2 maximum allowed number of steps=      2.
 GradGradGradGradGradGradGradGradGradGradGradGradGradGradGradGradGradGrad

 Leave Link  103 at Wed Mar 18 10:12:55 2026, MaxMem=   104857600 cpu:               0.0 elap:               0.0
 (Enter /sw/cluster/pub/apps//g16/l202.exe)
                          Input orientation:                          
 ---------------------------------------------------------------------
 Center     Atomic      Atomic             Coordinates (Angstroms)
 Number     Number       Type             X           Y           Z
 ---------------------------------------------------------------------
      1          6           0       -0.432901    0.161147    0.248919
      2          6           0        0.958184    0.161079    0.249344
      3          6           0        1.653792    1.365754    0.248783
      4          6           0        0.958304    2.570495    0.247796
      5          6           0       -0.432781    2.570563    0.247372
      6          6           0       -1.128389    1.365887    0.247933
      7          1           0       -0.974437   -0.776716    0.249356
      8          1           0        1.499624   -0.776841    0.250112
      9          1           0        2.736773    1.365695    0.249114
     10          1           0        1.499839    3.508357    0.247359
     11          1           0       -0.974221    3.508482    0.246604
     12          1           0       -2.211370    1.365947    0.247602
 ---------------------------------------------------------------------
                    Distance matrix (angstroms):
                    1          2          3          4          5
     1  C    0.000000
     2  C    1.391085   0.000000
     3  C    2.409433   1.391084   0.000000
     4  C    2.782159   2.409416   1.391080   0.000000
     5  C    2.409416   2.782158   2.409430   1.391085   0.000000
     6  C    1.391080   2.409430   2.782182   2.409433   1.391084
     7  H    1.082981   2.148134   3.390835   3.865139   3.390821
     8  H    2.148133   1.082982   2.148135   3.390824   3.865140
     9  H    3.390836   2.148134   1.082981   2.148138   3.390838
    10  H    3.865139   3.390821   2.148127   1.082981   2.148134
    11  H    3.390824   3.865140   3.390832   2.148133   1.082982
    12  H    2.148138   3.390838   3.865163   3.390836   2.148134
                    6          7          8          9         10
     6  C    0.000000
     7  H    2.148127   0.000000
     8  H    3.390832   2.474061   0.000000
     9  H    3.865163   4.285207   2.474065   0.000000
    10  H    3.390835   4.948120   4.285199   2.474068   0.000000
    11  H    2.148135   4.285199   4.948122   4.285210   2.474061
    12  H    1.082981   2.474068   4.285210   4.948144   4.285207
                   11         12
    11  H    0.000000
    12  H    2.474065   0.000000
 Stoichiometry    C6H6
 Framework group  C1[X(C6H6)]
 Deg. of freedom    30
 Full point group                 C1      NOp   1
 RotChk:  IX=3 Diff= 3.89D-11
 Largest Abelian subgroup         C1      NOp   1
 Largest concise Abelian subgroup C1      NOp   1
                         Standard orientation:                         
 ---------------------------------------------------------------------
 Center     Atomic      Atomic             Coordinates (Angstroms)
 Number     Number       Type             X           Y           Z
 ---------------------------------------------------------------------
      1          6           0        0.739735   -1.178089    0.000000
      2          6           0       -0.650394   -1.229670    0.000000
      3          6           0       -1.390134   -0.051579   -0.000000
      4          6           0       -0.739735    1.178089    0.000000
      5          6           0        0.650394    1.229670   -0.000000
      6          6           0        1.390134    0.051579    0.000000
      7          1           0        1.315628   -2.095256    0.000000
      8          1           0       -1.156731   -2.186996   -0.000000
      9          1           0       -2.472370   -0.091742   -0.000000
     10          1           0       -1.315628    2.095256    0.000000
     11          1           0        1.156731    2.186996   -0.000000
     12          1           0        2.472370    0.091742    0.000000
 ---------------------------------------------------------------------
 Rotational constants (GHZ):           5.7318665           5.7317823           2.8659122
 Leave Link  202 at Wed Mar 18 10:12:55 2026, MaxMem=   104857600 cpu:               0.0 elap:               0.0
 (Enter /sw/cluster/pub/apps//g16/l301.exe)
 Standard basis: def2TZVP (5D, 7F)
 Ernie: Thresh=  0.10000D-02 Tol=  0.10000D-05 Strict=F.
 There are   252 symmetry adapted cartesian basis functions of A   symmetry.
 There are   222 symmetry adapted basis functions of A   symmetry.
   222 basis functions,   354 primitive gaussians,   252 cartesian basis functions
    21 alpha electrons       21 beta electrons
       nuclear repulsion energy       203.9870480381 Hartrees.
 IExCor=  402 DFT=T Ex+Corr=B3LYP ExCW=0 ScaHFX=  0.200000
 ScaDFX=  0.800000  0.720000  1.000000  0.810000 ScalE2=  1.000000  1.000000
 IRadAn=      5 IRanWt=     -1 IRanGd=            0 ICorTp=0 IEmpDi=  4
 NAtoms=   12 NActive=   12 NUniq=   12 SFac= 1.00D+00 NAtFMM=   60 NAOKFM=F Big=F
 Integral buffers will be    131072 words long.
 Raffenetti 2 integral format.
 Two-electron integral symmetry is turned on.
 Leave Link  301 at Wed Mar 18 10:12:55 2026, MaxMem=   104857600 cpu:               0.0 elap:               0.0
 (Enter /sw/cluster/pub/apps//g16/l302.exe)
 NPDir=0 NMtPBC=     1 NCelOv=     1 NCel=       1 NClECP=     1 NCelD=      1
         NCelK=      1 NCelE2=     1 NClLst=     1 CellRange=     0.0.
 One-electron integrals computed using PRISM.
 One-electron integral symmetry used in STVInt
   1 Symmetry operations used in ECPInt.
 ECPInt:  NShTT=    4095 NPrTT=   12396 LenC2=    4075 LenP2D=   10419.
 LDataN:  DoStor=T MaxTD1= 6 Len=  172
 NBasis=   222 RedAO= T EigKep=  1.00D-05  NBF=   222
 NBsUse=   222 1.00D-06 EigRej= -1.00D+00 NBFU=   222
 Precomputing XC quadrature grid using
 IXCGrd= 4 IRadAn=           5 IRanWt=          -1 IRanGd=           0 AccXCQ= 0.00D+00.
 Generated NRdTot=       0 NPtTot=           0 NUsed=           0 NTot=          32
 NSgBfM=   251   251   251   251   251 MxSgAt=    12 MxSgA2=    12.
 Leave Link  302 at Wed Mar 18 10:12:55 2026, MaxMem=   104857600 cpu:               0.1 elap:               0.1
 (Enter /sw/cluster/pub/apps//g16/l303.exe)
 DipDrv:  MaxL=1.
 Leave Link  303 at Wed Mar 18 10:12:55 2026, MaxMem=   104857600 cpu:               0.0 elap:               0.0
 (Enter /sw/cluster/pub/apps//g16/l401.exe)
 Initial guess from the checkpoint file:  "bz-def2TZVP.chk"
 B after Tr=     0.000000   -0.000000   -0.000000
         Rot=    1.000000   -0.000000   -0.000000   -0.000000 Ang=   0.00 deg.
 Guess basis will be translated and rotated to current coordinates.
 JPrj=2 DoOrth=T DoCkMO=T.
 Leave Link  401 at Wed Mar 18 10:12:55 2026, MaxMem=   104857600 cpu:               0.0 elap:               0.0
 (Enter /sw/cluster/pub/apps//g16/l502.exe)
 Integral symmetry usage will be decided dynamically.
 Closed shell SCF:
 Using DIIS extrapolation, IDIIS=  1040.
 NGot=   104857600 LenX=   104726736 LenY=   104662791
 Requested convergence on RMS density matrix=1.00D-08 within 128 cycles.
 Requested convergence on MAX density matrix=1.00D-06.
 Requested convergence on             energy=1.00D-06.
 No special actions if energy rises.
 Fock matrices will be formed incrementally for  20 cycles.

 Cycle   1  Pass 1  IDiag  1:
 FoFJK:  IHMeth= 1 ICntrl=       0 DoSepK=F KAlg= 0 I1Cent=           0 FoldK=F
 IRaf= 980000000 NMat=       1 IRICut=       1 DoRegI=T DoRafI=F ISym2E= 0 IDoP0=0 IntGTp=1.
 FoFCou: FMM=F IPFlag=           0 FMFlag=      100000 FMFlg1=           0
         NFxFlg=           0 DoJE=F BraDBF=F KetDBF=F FulRan=T
         wScrn=  0.000000 ICntrl=         0 IOpCl=  0 I1Cent=           0 NGrid=           0
         NMat0=    1 NMatS0=      1 NMatT0=    0 NMatD0=    1 NMtDS0=    0 NMtDT0=    0
 Symmetry not used in FoFCou.
 E= -232.337355237209    
 DIIS: error= 3.07D-08 at cycle   1 NSaved=   1.
 NSaved= 1 IEnMin= 1 EnMin= -232.337355237209     IErMin= 1 ErrMin= 3.07D-08
 ErrMax= 3.07D-08  0.00D+00 EMaxC= 1.00D-01 BMatC= 1.26D-13 BMatP= 1.26D-13
 IDIUse=1 WtCom= 1.00D+00 WtEn= 0.00D+00
 Coeff-Com:  0.100D+01
 Coeff:      0.100D+01
 Gap=     0.245 Goal=   None    Shift=    0.000
 RMSDP=2.28D-09 MaxDP=7.99D-08              OVMax= 2.82D-07

 SCF Done:  E(RB3LYP) =  -232.337355237     A.U. after    1 cycles
            NFock=  1  Conv=0.23D-08     -V/T= 2.0053
 KE= 2.311053899890D+02 PE=-9.464462954490D+02 EE= 2.790165021847D+02
 Leave Link  502 at Wed Mar 18 10:13:00 2026, MaxMem=   104857600 cpu:               4.8 elap:               4.8
 (Enter /sw/cluster/pub/apps//g16/l801.exe)
 DoSCS=F DFT=T ScalE2(SS,OS)=  1.000000  1.000000
 Range of M.O.s used for correlation:     1   222
 NBasis=   222 NAE=    21 NBE=    21 NFC=     0 NFV=     0
 NROrb=    222 NOA=    21 NOB=    21 NVA=   201 NVB=   201

 **** Warning!!: The largest alpha MO coefficient is  0.79648754D+02

 Leave Link  801 at Wed Mar 18 10:13:00 2026, MaxMem=   104857600 cpu:               0.0 elap:               0.0
 (Enter /sw/cluster/pub/apps//g16/l1101.exe)
 Using compressed storage, NAtomX=    12.
 Will process     13 centers per pass.
   1 Symmetry operations used in ECPInt.
 ECPInt:  NShTT=    4095 NPrTT=   12396 LenC2=    4075 LenP2D=   10419.
 LDataN:  DoStor=T MaxTD1= 7 Len=  274
 Leave Link 1101 at Wed Mar 18 10:13:00 2026, MaxMem=   104857600 cpu:               0.1 elap:               0.1
 (Enter /sw/cluster/pub/apps//g16/l1102.exe)
 Symmetrizing basis deriv contribution to polar:
 IMax=3 JMax=2 DiffMx= 0.00D+00
 Leave Link 1102 at Wed Mar 18 10:13:00 2026, MaxMem=   104857600 cpu:               0.0 elap:               0.0
 (Enter /sw/cluster/pub/apps//g16/l1110.exe)
 Forming Gx(P) for the SCF density, NAtomX=    12.
 Integral derivatives from FoFJK, PRISM(SPDF).
 Do as many integral derivatives as possible in FoFJK.
 G2DrvN: MDV=     104856624.
 G2DrvN: will do    13 centers at a time, making    1 passes.
 Calling FoFCou, ICntrl=  3107 FMM=F I1Cent=   0 AccDes= 0.00D+00.
 FoFJK:  IHMeth= 1 ICntrl=    3107 DoSepK=F KAlg= 0 I1Cent=           0 FoldK=F
 IRaf=         0 NMat=       1 IRICut=       1 DoRegI=T DoRafI=F ISym2E= 0 IDoP0=0 IntGTp=1.
 FoFCou: FMM=F IPFlag=           0 FMFlag=      100000 FMFlg1=           0
         NFxFlg=           0 DoJE=F BraDBF=F KetDBF=F FulRan=T
         wScrn=  0.000000 ICntrl=      3107 IOpCl=  0 I1Cent=           0 NGrid=           0
         NMat0=    1 NMatS0=      1 NMatT0=    0 NMatD0=    1 NMtDS0=    0 NMtDT0=    0
 Symmetry not used in FoFCou.
 End of G2Drv F.D. properties file   721 does not exist.
 End of G2Drv F.D. properties file   722 does not exist.
 End of G2Drv F.D. properties file   788 does not exist.
 Leave Link 1110 at Wed Mar 18 10:14:17 2026, MaxMem=   104857600 cpu:              76.6 elap:              76.8
 (Enter /sw/cluster/pub/apps//g16/l1002.exe)
 Minotr:  Closed shell wavefunction.
          IDoAtm=111111111111
          Direct CPHF calculation.
          Differentiating once with respect to electric field.
                with respect to dipole field.
          Differentiating once with respect to nuclear coordinates.
          Requested convergence is 1.0D-08 RMS, and 1.0D-07 maximum.
          Secondary convergence is 1.0D-12 RMS, and 1.0D-12 maximum.
          NewPWx=T KeepS1=F KeepF1=F KeepIn=T MapXYZ=F SortEE=F KeepMc=T.
         3535 words used for storage of precomputed grid.
 Two-electron integrals replicated using symmetry.
          MDV=     104857600 using IRadAn=       1.
          Solving linear equations simultaneously, MaxMat=     384.
 FoF2E skips out because all densities are zero.
 CalDSu exits because no D1Ps are significant.
 FoFJK:  IHMeth= 1 ICntrl=       0 DoSepK=F KAlg= 0 I1Cent=           0 FoldK=F
 IRaf= 980000000 NMat=      36 IRICut=      90 DoRegI=T DoRafI=T ISym2E= 2 IDoP0=3 IntGTp=3.
 FoFCou: FMM=F IPFlag=           0 FMFlag=      100000 FMFlg1=           0
         NFxFlg=           0 DoJE=F BraDBF=F KetDBF=F FulRan=T
         wScrn=  0.000000 ICntrl=         0 IOpCl=  0 I1Cent=           0 NGrid=           0
         NMat0=   36 NMatS0=     36 NMatT0=    0 NMatD0=   36 NMtDS0=    0 NMtDT0=    0
 Integrals replicated using symmetry in FoFCou.
 Raff kept on since  96.48% of shell-pairs survive, threshold=   0.20 IRatSp=96.
          There are    39 degrees of freedom in the 1st order CPHF.  IDoFFX=6 NUNeed=     3.
     36 vectors produced by pass  0 Test12= 1.08D-14 2.56D-09 XBig12= 9.50D+01 5.54D+00.
 AX will form    36 AO Fock derivatives at one time.
     36 vectors produced by pass  1 Test12= 1.08D-14 2.56D-09 XBig12= 1.52D+01 9.61D-01.
     36 vectors produced by pass  2 Test12= 1.08D-14 2.56D-09 XBig12= 1.50D-01 1.05D-01.
     36 vectors produced by pass  3 Test12= 1.08D-14 2.56D-09 XBig12= 3.35D-04 3.63D-03.
     36 vectors produced by pass  4 Test12= 1.08D-14 2.56D-09 XBig12= 5.18D-07 2.01D-04.
     30 vectors produced by pass  5 Test12= 1.08D-14 2.56D-09 XBig12= 4.36D-10 5.10D-06.
      8 vectors produced by pass  6 Test12= 1.08D-14 2.56D-09 XBig12= 5.34D-13 2.27D-07.
      2 vectors produced by pass  7 Test12= 1.08D-14 2.56D-09 XBig12= 3.19D-16 3.43D-09.
 InvSVY:  IOpt=1 It=  1 EMax= 3.55D-15
 Solved reduced A of dimension   220 with    39 vectors.
 FullF1:  Do perturbations      1 to       3.
 Isotropic polarizability for W=    0.000000       64.93 Bohr**3.
 End of Minotr F.D. properties file   721 does not exist.
 End of Minotr F.D. properties file   722 does not exist.
 End of Minotr F.D. properties file   788 does not exist.
 Leave Link 1002 at Wed Mar 18 10:16:08 2026, MaxMem=   104857600 cpu:             111.3 elap:             111.4
 (Enter /sw/cluster/pub/apps//g16/l601.exe)
 Copying SCF densities to generalized density rwf, IOpCl= 0 IROHF=0.

 **********************************************************************

            Population analysis using the SCF density.

 **********************************************************************

 Orbital symmetries:
       Occupied  (A) (A) (A) (A) (A) (A) (A) (A) (A) (A) (A) (A)
                 (A) (A) (A) (A) (A) (A) (A) (A) (A)
       Virtual   (A) (A) (A) (A) (A) (A) (A) (A) (A) (A) (A) (A)
                 (A) (A) (A) (A) (A) (A) (A) (A) (A) (A) (A) (A)
                 (A) (A) (A) (A) (A) (A) (A) (A) (A) (A) (A) (A)
                 (A) (A) (A) (A) (A) (A) (A) (A) (A) (A) (A) (A)
                 (A) (A) (A) (A) (A) (A) (A) (A) (A) (A) (A) (A)
                 (A) (A) (A) (A) (A) (A) (A) (A) (A) (A) (A) (A)
                 (A) (A) (A) (A) (A) (A) (A) (A) (A) (A) (A) (A)
                 (A) (A) (A) (A) (A) (A) (A) (A) (A) (A) (A) (A)
                 (A) (A) (A) (A) (A) (A) (A) (A) (A) (A) (A) (A)
                 (A) (A) (A) (A) (A) (A) (A) (A) (A) (A) (A) (A)
                 (A) (A) (A) (A) (A) (A) (A) (A) (A) (A) (A) (A)
                 (A) (A) (A) (A) (A) (A) (A) (A) (A) (A) (A) (A)
                 (A) (A) (A) (A) (A) (A) (A) (A) (A) (A) (A) (A)
                 (A) (A) (A) (A) (A) (A) (A) (A) (A) (A) (A) (A)
                 (A) (A) (A) (A) (A) (A) (A) (A) (A) (A) (A) (A)
                 (A) (A) (A) (A) (A) (A) (A) (A) (A) (A) (A) (A)
                 (A) (A) (A) (A) (A) (A) (A) (A) (A)
 The electronic state is 1-A.
 Alpha  occ. eigenvalues --  -10.17697 -10.17673 -10.17673 -10.17615 -10.17615
 Alpha  occ. eigenvalues --  -10.17587  -0.85831  -0.74952  -0.74951  -0.60634
 Alpha  occ. eigenvalues --   -0.60634  -0.52859  -0.46433  -0.45160  -0.42598
 Alpha  occ. eigenvalues --   -0.42598  -0.37323  -0.34868  -0.34867  -0.25933
 Alpha  occ. eigenvalues --   -0.25933
 Alpha virt. eigenvalues --   -0.01439  -0.01439   0.04468   0.07651   0.07651
 Alpha virt. eigenvalues --    0.10353   0.10353   0.12628   0.14005   0.14883
 Alpha virt. eigenvalues --    0.20534   0.20869   0.21450   0.21450   0.23198
 Alpha virt. eigenvalues --    0.23199   0.24694   0.24694   0.26806   0.26806
 Alpha virt. eigenvalues --    0.32595   0.32620   0.32621   0.35583   0.35583
 Alpha virt. eigenvalues --    0.38124   0.40287   0.41163   0.41163   0.43555
 Alpha virt. eigenvalues --    0.43555   0.43737   0.46150   0.46210   0.48836
 Alpha virt. eigenvalues --    0.48837   0.49029   0.50566   0.50566   0.64265
 Alpha virt. eigenvalues --    0.64265   0.65088   0.67836   0.68498   0.74509
 Alpha virt. eigenvalues --    0.74509   0.75354   0.75355   0.79881   0.84325
 Alpha virt. eigenvalues --    0.84325   0.85013   0.88680   0.88953   0.99904
 Alpha virt. eigenvalues --    0.99904   1.00855   1.00856   1.04940   1.04940
 Alpha virt. eigenvalues --    1.16524   1.17316   1.17316   1.20186   1.20186
 Alpha virt. eigenvalues --    1.22030   1.22030   1.24805   1.24806   1.28174
 Alpha virt. eigenvalues --    1.37398   1.37429   1.38379   1.44888   1.44889
 Alpha virt. eigenvalues --    1.47704   1.47704   1.48047   1.48047   1.59471
 Alpha virt. eigenvalues --    1.60681   1.64828   1.66228   1.66228   1.67713
 Alpha virt. eigenvalues --    1.68817   1.68817   1.70075   1.70077   1.76148
 Alpha virt. eigenvalues --    1.83727   1.90233   1.90233   2.03240   2.03241
 Alpha virt. eigenvalues --    2.06140   2.07251   2.07251   2.08218   2.15466
 Alpha virt. eigenvalues --    2.15467   2.21678   2.23096   2.23096   2.31569
 Alpha virt. eigenvalues --    2.45982   2.48079   2.48079   2.54800   2.55535
 Alpha virt. eigenvalues --    2.55536   2.55996   2.58162   2.65275   2.65276
 Alpha virt. eigenvalues --    2.66483   2.66484   2.66699   2.67434   2.67434
 Alpha virt. eigenvalues --    2.73562   2.74329   2.74329   2.80019   2.80157
 Alpha virt. eigenvalues --    2.80157   2.83758   2.84267   2.84267   2.84542
 Alpha virt. eigenvalues --    2.84542   2.89456   3.00821   3.09169   3.09169
 Alpha virt. eigenvalues --    3.09204   3.09204   3.13288   3.13289   3.13835
 Alpha virt. eigenvalues --    3.13836   3.18597   3.21295   3.21295   3.24156
 Alpha virt. eigenvalues --    3.25422   3.25422   3.30250   3.34671   3.37123
 Alpha virt. eigenvalues --    3.37124   3.37647   3.43887   3.43888   3.47363
 Alpha virt. eigenvalues --    3.49717   3.52179   3.52179   3.60120   3.63336
 Alpha virt. eigenvalues --    3.63337   3.74927   3.75574   3.75575   3.79186
 Alpha virt. eigenvalues --    3.86249   3.99434   3.99434   4.06437   4.06791
 Alpha virt. eigenvalues --    4.06791   4.11115   4.19741   4.19807   4.19808
 Alpha virt. eigenvalues --    4.22080   4.22081   4.28479   4.28481   4.29248
 Alpha virt. eigenvalues --    4.29249   4.62473   4.63712   4.63713   4.65458
 Alpha virt. eigenvalues --    4.82665   4.82666   4.88463   4.88464   5.20360
 Alpha virt. eigenvalues --    5.20361   5.27310   5.28601   5.41658   5.61781
 Alpha virt. eigenvalues --   21.85395  22.52949  22.52950  22.62835  22.62836
 Alpha virt. eigenvalues --   23.05464
          Condensed to atoms (all electrons):
               1          2          3          4          5          6
     1  C    4.862714   0.508642  -0.034833  -0.042738  -0.034840   0.508635
     2  C    0.508642   4.862734   0.508639  -0.034840  -0.042740  -0.034832
     3  C   -0.034833   0.508639   4.862742   0.508635  -0.034832  -0.042741
     4  C   -0.042738  -0.034840   0.508635   4.862715   0.508642  -0.034833
     5  C   -0.034840  -0.042740  -0.034832   0.508642   4.862734   0.508639
     6  C    0.508635  -0.034832  -0.042741  -0.034833   0.508639   4.862742
     7  H    0.419047  -0.046458   0.008350  -0.001560   0.008351  -0.046458
     8  H   -0.046456   0.419042  -0.046456   0.008350  -0.001560   0.008350
     9  H    0.008350  -0.046456   0.419044  -0.046454   0.008350  -0.001560
    10  H   -0.001560   0.008351  -0.046458   0.419047  -0.046458   0.008350
    11  H    0.008350  -0.001560   0.008350  -0.046456   0.419042  -0.046456
    12  H   -0.046454   0.008350  -0.001560   0.008350  -0.046456   0.419044
               7          8          9         10         11         12
     1  C    0.419047  -0.046456   0.008350  -0.001560   0.008350  -0.046454
     2  C   -0.046458   0.419042  -0.046456   0.008351  -0.001560   0.008350
     3  C    0.008350  -0.046456   0.419044  -0.046458   0.008350  -0.001560
     4  C   -0.001560   0.008350  -0.046454   0.419047  -0.046456   0.008350
     5  C    0.008351  -0.001560   0.008350  -0.046458   0.419042  -0.046456
     6  C   -0.046458   0.008350  -0.001560   0.008350  -0.046456   0.419044
     7  H    0.564038  -0.006843  -0.000291   0.000088  -0.000291  -0.006843
     8  H   -0.006843   0.564039  -0.006843  -0.000291   0.000088  -0.000291
     9  H   -0.000291  -0.006843   0.564035  -0.006843  -0.000291   0.000088
    10  H    0.000088  -0.000291  -0.006843   0.564038  -0.006843  -0.000291
    11  H   -0.000291   0.000088  -0.000291  -0.006843   0.564039  -0.006843
    12  H   -0.006843  -0.000291   0.000088  -0.000291  -0.006843   0.564035
 Mulliken charges:
               1
     1  C   -0.108857
     2  C   -0.108871
     3  C   -0.108879
     4  C   -0.108857
     5  C   -0.108871
     6  C   -0.108879
     7  H    0.108869
     8  H    0.108869
     9  H    0.108870
    10  H    0.108869
    11  H    0.108869
    12  H    0.108870
 Sum of Mulliken charges =  -0.00000
 Mulliken charges with hydrogens summed into heavy atoms:
               1
     1  C    0.000012
     2  C   -0.000002
     3  C   -0.000009
     4  C    0.000011
     5  C   -0.000002
     6  C   -0.000009
 APT charges:
               1
     1  C   -0.031556
     2  C   -0.031524
     3  C   -0.031556
     4  C   -0.031556
     5  C   -0.031524
     6  C   -0.031556
     7  H    0.031547
     8  H    0.031544
     9  H    0.031546
    10  H    0.031547
    11  H    0.031544
    12  H    0.031546
 Sum of APT charges =   0.00000
 APT charges with hydrogens summed into heavy atoms:
               1
     1  C   -0.000009
     2  C    0.000019
     3  C   -0.000010
     4  C   -0.000009
     5  C    0.000019
     6  C   -0.000010
 Electronic spatial extent (au):  <R**2>=            457.3349
 Charge=             -0.0000 electrons
 Dipole moment (field-independent basis, Debye):
    X=              0.0000    Y=             -0.0000    Z=              0.0000  Tot=              0.0000
 Quadrupole moment (field-independent basis, Debye-Ang):
   XX=            -32.1313   YY=            -32.1314   ZZ=            -39.8555
   XY=              0.0000   XZ=             -0.0000   YZ=              0.0000
 Traceless Quadrupole moment (field-independent basis, Debye-Ang):
   XX=              2.5748   YY=              2.5746   ZZ=             -5.1495
   XY=              0.0000   XZ=             -0.0000   YZ=              0.0000
 Octapole moment (field-independent basis, Debye-Ang**2):
  XXX=              0.0000  YYY=             -0.0000  ZZZ=              0.0000  XYY=              0.0000
  XXY=             -0.0000  XXZ=             -0.0000  XZZ=              0.0000  YZZ=             -0.0000
  YYZ=              0.0000  XYZ=             -0.0000
 Hexadecapole moment (field-independent basis, Debye-Ang**3):
 XXXX=           -274.7956 YYYY=           -274.7939 ZZZZ=            -48.0966 XXXY=              0.0001
 XXXZ=              0.0000 YYYX=              0.0000 YYYZ=              0.0000 ZZZX=             -0.0000
 ZZZY=              0.0000 XXYY=            -91.5985 XXZZ=            -63.9092 YYZZ=            -63.9086
 XXYZ=              0.0000 YYXZ=             -0.0000 ZZXY=             -0.0000
 N-N= 2.039870480381D+02 E-N=-9.464462947888D+02  KE= 2.311053899890D+02
  Exact polarizability:  78.082   0.000  78.081   0.000  -0.000  38.622
 Approx polarizability: 128.567   0.000 128.566   0.000  -0.000  59.824
 No NMR shielding tensors so no spin-rotation constants.
 Leave Link  601 at Wed Mar 18 10:16:08 2026, MaxMem=   104857600 cpu:               0.1 elap:               0.1
 (Enter /sw/cluster/pub/apps//g16/l701.exe)
 ... and contract with generalized density number  0.
 Compute integral second derivatives.
   1 Symmetry operations used in ECPInt.
 ECPInt:  NShTT=    4095 NPrTT=   12396 LenC2=    4075 LenP2D=   10419.
 LDataN:  DoStor=T MaxTD1= 8 Len=  415
 Leave Link  701 at Wed Mar 18 10:16:08 2026, MaxMem=   104857600 cpu:               0.1 elap:               0.1
 (Enter /sw/cluster/pub/apps//g16/l702.exe)
 L702 exits ... SP integral derivatives will be done elsewhere.
 Leave Link  702 at Wed Mar 18 10:16:08 2026, MaxMem=   104857600 cpu:               0.0 elap:               0.0
 (Enter /sw/cluster/pub/apps//g16/l703.exe)
 Integral derivatives from FoFJK, PRISM(SPDF).
 Compute integral second derivatives, UseDBF=F ICtDFT=           0.
 Calling FoFJK, ICntrl=    100127 FMM=F ISym2X=0 I1Cent= 0 IOpClX= 0 NMat=1 NMatS=1 NMatT=0.
 FoFJK:  IHMeth= 1 ICntrl=  100127 DoSepK=F KAlg= 0 I1Cent=           0 FoldK=F
 IRaf=         0 NMat=       1 IRICut=       1 DoRegI=T DoRafI=F ISym2E= 0 IDoP0=0 IntGTp=1.
 FoFCou: FMM=F IPFlag=           0 FMFlag=      100000 FMFlg1=         800
         NFxFlg=           0 DoJE=F BraDBF=F KetDBF=F FulRan=T
         wScrn=  0.000000 ICntrl=    100127 IOpCl=  0 I1Cent=           0 NGrid=           0
         NMat0=    1 NMatS0=      1 NMatT0=    0 NMatD0=    1 NMtDS0=    0 NMtDT0=    0
 Symmetry not used in FoFCou.
 Leave Link  703 at Wed Mar 18 10:19:15 2026, MaxMem=   104857600 cpu:             186.6 elap:             186.9
 (Enter /sw/cluster/pub/apps//g16/l716.exe)
 Dipole        = 9.31228345D-08-3.34425723D-07 2.29694859D-09
 Polarizability= 7.80816858D+01 3.82013997D-04 7.80808078D+01
                 1.19404372D-08-2.46198636D-07 3.86218401D+01
 Full mass-weighted force constant matrix:
 Low frequencies ---   -5.7065   -3.0401   -0.0005    0.0003    0.0015    3.2568
 Low frequencies ---  412.5129  412.5691  623.7549
 Diagonal vibrational polarizability:
        0.3047885       0.3047842       6.5094292
 Harmonic frequencies (cm**-1), IR intensities (KM/Mole), Raman scattering
 activities (A**4/AMU), depolarization ratios for plane and unpolarized
 incident light, reduced masses (AMU), force constants (mDyne/A),
 and normal coordinates:
                      1                      2                      3
                      A                      A                      A
 Frequencies --    412.5129               412.5691               623.7549
 Red. masses --      2.9155                 2.9152                 6.0824
 Frc consts  --      0.2923                 0.2924                 1.3943
 IR Inten    --      0.0000                 0.0000                 0.0000
  Atom  AN      X      Y      Z        X      Y      Z        X      Y      Z
     1   6    -0.00  -0.00  -0.21     0.00   0.00  -0.12     0.08  -0.30  -0.00
     2   6     0.00  -0.00  -0.00    -0.00   0.00   0.24     0.13  -0.10   0.00
     3   6    -0.00  -0.00   0.21    -0.00  -0.00  -0.12     0.32   0.08   0.00
     4   6    -0.00   0.00  -0.21    -0.00   0.00  -0.12    -0.08   0.30   0.00
     5   6     0.00  -0.00  -0.00     0.00   0.00   0.24    -0.13   0.10   0.00
     6   6     0.00   0.00   0.21     0.00  -0.00  -0.12    -0.32  -0.08  -0.00
     7   1     0.00   0.00  -0.45    -0.00  -0.00  -0.27     0.26  -0.19  -0.00
     8   1    -0.00  -0.00  -0.00    -0.00  -0.00   0.52    -0.21   0.08  -0.00
     9   1    -0.00  -0.00   0.46     0.00  -0.00  -0.26     0.33  -0.09  -0.00
    10   1    -0.00   0.00  -0.45    -0.00   0.00  -0.27    -0.26   0.19  -0.00
    11   1     0.00   0.00  -0.00     0.00   0.00   0.52     0.21  -0.08  -0.00
    12   1     0.00   0.00   0.46     0.00  -0.00  -0.26    -0.33   0.09  -0.00
                      4                      5                      6
                      A                      A                      A
 Frequencies --    623.7746               689.1088               716.9272
 Red. masses --      6.0825                 1.0848                 4.0391
 Frc consts  --      1.3944                 0.3035                 1.2232
 IR Inten    --      0.0000               114.8644                 0.0000
  Atom  AN      X      Y      Z        X      Y      Z        X      Y      Z
     1   6     0.22  -0.10   0.00     0.00  -0.00  -0.03    -0.00   0.00   0.21
     2   6     0.18   0.31  -0.00     0.00   0.00  -0.03    -0.00  -0.00  -0.21
     3   6    -0.16   0.13   0.00    -0.00   0.00  -0.03    -0.00  -0.00   0.21
     4   6    -0.22   0.10  -0.00    -0.00   0.00  -0.03    -0.00   0.00  -0.21
     5   6    -0.18  -0.31   0.00    -0.00   0.00  -0.03     0.00   0.00   0.21
     6   6     0.16  -0.13   0.00    -0.00  -0.00  -0.03     0.00  -0.00  -0.21
     7   1    -0.05  -0.27  -0.00     0.00  -0.00   0.41     0.00   0.00   0.35
     8   1     0.15   0.32  -0.00    -0.00  -0.00   0.41     0.00  -0.00  -0.35
     9   1    -0.15  -0.21  -0.00    -0.00  -0.00   0.41    -0.00  -0.00   0.35
    10   1     0.05   0.27  -0.00     0.00  -0.00   0.41    -0.00   0.00  -0.35
    11   1    -0.15  -0.32  -0.00     0.00  -0.00   0.41     0.00   0.00   0.35
    12   1     0.15   0.21  -0.00    -0.00   0.00   0.41     0.00  -0.00  -0.35
                      7                      8                      9
                      A                      A                      A
 Frequencies --    862.5829               862.6056               963.0575
 Red. masses --      1.2477                 1.2477                 1.3651
 Frc consts  --      0.5470                 0.5470                 0.7459
 IR Inten    --      0.0000                 0.0000                 0.0000
  Atom  AN      X      Y      Z        X      Y      Z        X      Y      Z
     1   6    -0.00  -0.00  -0.01    -0.00   0.00  -0.08    -0.00  -0.00   0.03
     2   6     0.00  -0.00  -0.08    -0.00  -0.00  -0.03    -0.00  -0.00   0.07
     3   6     0.00   0.00  -0.07     0.00  -0.00   0.05     0.00   0.00  -0.10
     4   6    -0.00  -0.00   0.01     0.00  -0.00   0.08    -0.00  -0.00   0.03
     5   6     0.00  -0.00   0.08    -0.00  -0.00   0.03     0.00  -0.00   0.07
     6   6     0.00   0.00   0.07     0.00  -0.00  -0.05     0.00   0.00  -0.10
     7   1    -0.00  -0.00   0.09     0.00   0.00   0.56    -0.00   0.00  -0.18
     8   1    -0.00  -0.00   0.53    -0.00  -0.00   0.21     0.00   0.00  -0.37
     9   1    -0.00   0.00   0.44     0.00   0.00  -0.36    -0.00   0.00   0.56
    10   1    -0.00  -0.00  -0.09    -0.00   0.00  -0.56    -0.00   0.00  -0.18
    11   1    -0.00   0.00  -0.53    -0.00   0.00  -0.21    -0.00  -0.00  -0.37
    12   1     0.00  -0.00  -0.44     0.00   0.00   0.36     0.00   0.00   0.56
                     10                     11                     12
                      A                      A                      A
 Frequencies --    963.0652               992.1595              1015.2227
 Red. masses --      1.3651                 1.2077                 6.0437
 Frc consts  --      0.7460                 0.7005                 3.6701
 IR Inten    --      0.0000                 0.0000                 0.0000
  Atom  AN      X      Y      Z        X      Y      Z        X      Y      Z
     1   6    -0.00   0.00  -0.10    -0.00   0.00  -0.06    -0.15   0.23   0.00
     2   6    -0.00  -0.00   0.08     0.00   0.00   0.06     0.13   0.24  -0.00
     3   6     0.00  -0.00   0.02     0.00   0.00  -0.06     0.28   0.01   0.00
     4   6    -0.00   0.00  -0.10     0.00  -0.00   0.06     0.15  -0.23  -0.00
     5   6     0.00  -0.00   0.08    -0.00  -0.00  -0.06    -0.13  -0.24   0.00
     6   6     0.00  -0.00   0.02    -0.00  -0.00   0.06    -0.28  -0.01  -0.00
     7   1     0.00   0.00   0.54    -0.00   0.00   0.40    -0.16   0.25  -0.00
     8   1     0.00  -0.00  -0.43     0.00   0.00  -0.40     0.14   0.27   0.00
     9   1     0.00  -0.00  -0.11     0.00   0.00   0.40     0.30   0.01  -0.00
    10   1     0.00  -0.00   0.54    -0.00   0.00  -0.40     0.16  -0.25   0.00
    11   1    -0.00  -0.00  -0.43    -0.00  -0.00   0.40    -0.14  -0.27  -0.00
    12   1     0.00  -0.00  -0.11    -0.00  -0.00  -0.40    -0.30  -0.01   0.00
                     13                     14                     15
                      A                      A                      A
 Frequencies --   1028.8372              1061.4398              1061.4958
 Red. masses --      6.5386                 1.7120                 1.7117
 Frc consts  --      4.0778                 1.1364                 1.1363
 IR Inten    --      0.0000                 5.0953                 5.1000
  Atom  AN      X      Y      Z        X      Y      Z        X      Y      Z
     1   6    -0.15   0.25   0.00     0.08   0.04   0.00    -0.06   0.10  -0.00
     2   6    -0.14  -0.26  -0.00    -0.02  -0.11  -0.00     0.09   0.01  -0.00
     3   6     0.29   0.01  -0.00    -0.10   0.04  -0.00    -0.06  -0.07  -0.00
     4   6    -0.15   0.25   0.00     0.08   0.04  -0.00    -0.06   0.10   0.00
     5   6    -0.14  -0.26  -0.00    -0.02  -0.11   0.00     0.09   0.01  -0.00
     6   6     0.29   0.01  -0.00    -0.10   0.04   0.00    -0.06  -0.07  -0.00
     7   1    -0.15   0.24  -0.00     0.46   0.28  -0.00    -0.03   0.13  -0.00
     8   1    -0.13  -0.25   0.00     0.15  -0.21   0.00     0.46  -0.18   0.00
     9   1     0.29   0.01   0.00    -0.12   0.30  -0.00    -0.06  -0.45   0.00
    10   1    -0.15   0.24  -0.00     0.46   0.28  -0.00    -0.03   0.13  -0.00
    11   1    -0.13  -0.25   0.00     0.15  -0.21   0.00     0.46  -0.18  -0.00
    12   1     0.29   0.01   0.00    -0.12   0.30  -0.00    -0.06  -0.45   0.00
                     16                     17                     18
                      A                      A                      A
 Frequencies --   1176.5047              1199.7017              1199.7173
 Red. masses --      1.1066                 1.1401                 1.1401
 Frc consts  --      0.9025                 0.9668                 0.9669
 IR Inten    --      0.0000                 0.0000                 0.0000
  Atom  AN      X      Y      Z        X      Y      Z        X      Y      Z
     1   6    -0.03  -0.02  -0.00    -0.01  -0.01  -0.00     0.05   0.03   0.00
     2   6     0.03  -0.02   0.00     0.05  -0.03   0.00    -0.02   0.01   0.00
     3   6    -0.00   0.04   0.00    -0.00   0.05  -0.00    -0.00   0.04   0.00
     4   6    -0.03  -0.02  -0.00     0.01   0.01  -0.00    -0.05  -0.03  -0.00
     5   6     0.03  -0.02  -0.00    -0.05   0.03  -0.00     0.02  -0.01  -0.00
     6   6    -0.00   0.04   0.00     0.00  -0.05   0.00     0.00  -0.04  -0.00
     7   1    -0.34  -0.22   0.00    -0.08  -0.05  -0.00     0.48   0.30  -0.00
     8   1     0.36  -0.19   0.00     0.48  -0.25   0.00    -0.17   0.09  -0.00
     9   1    -0.02   0.41  -0.00    -0.01   0.44  -0.00    -0.02   0.37  -0.00
    10   1    -0.34  -0.22   0.00     0.08   0.05   0.00    -0.48  -0.30   0.00
    11   1     0.36  -0.19   0.00    -0.48   0.25   0.00     0.17  -0.09  -0.00
    12   1    -0.02   0.41  -0.00     0.01  -0.44   0.00     0.02  -0.37   0.00
                     19                     20                     21
                      A                      A                      A
 Frequencies --   1335.8365              1388.4108              1517.8900
 Red. masses --      5.8170                 1.2477                 2.0018
 Frc consts  --      6.1158                 1.4171                 2.7174
 IR Inten    --      0.0000                 0.0000                 7.6359
  Atom  AN      X      Y      Z        X      Y      Z        X      Y      Z
     1   6    -0.23  -0.14   0.00     0.05   0.03   0.00    -0.13  -0.07  -0.00
     2   6     0.24  -0.13   0.00     0.05  -0.03   0.00    -0.02   0.10  -0.00
     3   6    -0.01   0.27   0.00     0.00  -0.06  -0.00     0.08  -0.08   0.00
     4   6    -0.23  -0.14   0.00    -0.05  -0.03  -0.00    -0.13  -0.07   0.00
     5   6     0.24  -0.13  -0.00    -0.05   0.03   0.00    -0.02   0.10  -0.00
     6   6    -0.01   0.27  -0.00    -0.00   0.06  -0.00     0.08  -0.08   0.00
     7   1     0.26   0.16   0.00    -0.34  -0.21   0.00     0.45   0.29  -0.00
     8   1    -0.27   0.14  -0.00    -0.36   0.19  -0.00     0.25  -0.02   0.00
     9   1     0.01  -0.31  -0.00    -0.01   0.40   0.00     0.08   0.31   0.00
    10   1     0.26   0.16   0.00     0.34   0.21  -0.00     0.45   0.29  -0.00
    11   1    -0.27   0.14   0.00     0.36  -0.19  -0.00     0.25  -0.02  -0.00
    12   1     0.01  -0.31   0.00     0.01  -0.40   0.00     0.08   0.31  -0.00
                     22                     23                     24
                      A                      A                      A
 Frequencies --   1517.9306              1636.7671              1636.7854
 Red. masses --      2.0023                 5.2641                 5.2647
 Frc consts  --      2.7181                 8.3091                 8.3101
 IR Inten    --      7.6294                 0.0000                 0.0000
  Atom  AN      X      Y      Z        X      Y      Z        X      Y      Z
     1   6    -0.04   0.08   0.00     0.24   0.20   0.00    -0.15   0.07   0.00
     2   6     0.14  -0.03   0.00    -0.14  -0.09  -0.00     0.26  -0.18   0.00
     3   6    -0.05  -0.12  -0.00     0.09   0.24   0.00    -0.12   0.22  -0.00
     4   6    -0.04   0.08   0.00    -0.24  -0.20  -0.00     0.15  -0.07  -0.00
     5   6     0.14  -0.03  -0.00     0.14   0.09  -0.00    -0.26   0.18   0.00
     6   6    -0.05  -0.12   0.00    -0.09  -0.24   0.00     0.12  -0.22   0.00
     7   1    -0.09   0.07  -0.00    -0.37  -0.17  -0.00     0.02   0.20  -0.00
     8   1    -0.41   0.27  -0.00     0.01  -0.19   0.00    -0.38   0.16  -0.00
     9   1    -0.08   0.44   0.00     0.12  -0.30  -0.00    -0.11  -0.29  -0.00
    10   1    -0.09   0.07   0.00     0.37   0.17   0.00    -0.02  -0.20  -0.00
    11   1    -0.41   0.27   0.00    -0.01   0.19  -0.00     0.38  -0.16  -0.00
    12   1    -0.08   0.44  -0.00    -0.12   0.30  -0.00     0.11   0.29  -0.00
                     25                     26                     27
                      A                      A                      A
 Frequencies --   3160.2374              3169.7616              3169.7968
 Red. masses --      1.0839                 1.0873                 1.0873
 Frc consts  --      6.3777                 6.4367                 6.4369
 IR Inten    --      0.0000                 0.0000                 0.0000
  Atom  AN      X      Y      Z        X      Y      Z        X      Y      Z
     1   6     0.02  -0.03  -0.00    -0.01   0.01   0.00     0.03  -0.04  -0.00
     2   6     0.02   0.03   0.00     0.02   0.03   0.00     0.01   0.03   0.00
     3   6    -0.03  -0.00  -0.00    -0.05  -0.00  -0.00     0.02  -0.00   0.00
     4   6     0.02  -0.03  -0.00     0.01  -0.01  -0.00    -0.03   0.04   0.00
     5   6     0.02   0.03   0.00    -0.02  -0.03  -0.00    -0.01  -0.03  -0.00
     6   6    -0.03  -0.00   0.00     0.05   0.00  -0.00    -0.02   0.00   0.00
     7   1    -0.22   0.34   0.00     0.06  -0.09  -0.00    -0.30   0.48   0.00
     8   1    -0.19  -0.36  -0.00    -0.21  -0.38  -0.00    -0.17  -0.33  -0.00
     9   1     0.41   0.02   0.00     0.54   0.02   0.00    -0.19  -0.00  -0.00
    10   1    -0.22   0.34   0.00    -0.06   0.09   0.00     0.30  -0.48  -0.00
    11   1    -0.19  -0.36  -0.00     0.21   0.38   0.00     0.17   0.33   0.00
    12   1     0.41   0.02  -0.00    -0.54  -0.02   0.00     0.19   0.00   0.00
                     28                     29                     30
                      A                      A                      A
 Frequencies --   3185.2056              3185.2414              3195.1214
 Red. masses --      1.0944                 1.0944                 1.0988
 Frc consts  --      6.5420                 6.5421                 6.6090
 IR Inten    --     35.3948                35.3929                 0.0000
  Atom  AN      X      Y      Z        X      Y      Z        X      Y      Z
     1   6    -0.00   0.01   0.00     0.03  -0.04  -0.00     0.02  -0.03  -0.00
     2   6    -0.02  -0.04  -0.00    -0.02  -0.03  -0.00    -0.02  -0.03  -0.00
     3   6    -0.05  -0.00  -0.00     0.02   0.00   0.00    -0.04  -0.00  -0.00
     4   6    -0.00   0.01   0.00     0.03  -0.04  -0.00    -0.02   0.03   0.00
     5   6    -0.02  -0.04   0.00    -0.02  -0.03   0.00     0.02   0.03  -0.00
     6   6    -0.05  -0.00  -0.00     0.02   0.00  -0.00     0.04   0.00   0.00
     7   1     0.04  -0.08  -0.00    -0.30   0.48   0.00    -0.22   0.34   0.00
     8   1     0.21   0.40   0.00     0.17   0.32   0.00     0.19   0.36   0.00
     9   1     0.54   0.02   0.00    -0.21  -0.01  -0.00     0.41   0.02   0.00
    10   1     0.04  -0.08  -0.00    -0.30   0.48   0.00     0.22  -0.34  -0.00
    11   1     0.21   0.40   0.00     0.17   0.32   0.00    -0.19  -0.36  -0.00
    12   1     0.54   0.02  -0.00    -0.21  -0.01   0.00    -0.41  -0.02   0.00

 -------------------
 - Thermochemistry -
 -------------------
 Temperature   298.150 Kelvin.  Pressure   1.00000 Atm.
 Atom     1 has atomic number  6 and mass  12.00000
 Atom     2 has atomic number  6 and mass  12.00000
 Atom     3 has atomic number  6 and mass  12.00000
 Atom     4 has atomic number  6 and mass  12.00000
 Atom     5 has atomic number  6 and mass  12.00000
 Atom     6 has atomic number  6 and mass  12.00000
 Atom     7 has atomic number  1 and mass   1.00783
 Atom     8 has atomic number  1 and mass   1.00783
 Atom     9 has atomic number  1 and mass   1.00783
 Atom    10 has atomic number  1 and mass   1.00783
 Atom    11 has atomic number  1 and mass   1.00783
 Atom    12 has atomic number  1 and mass   1.00783
 Molecular mass:    78.04695 amu.
 Principal axes and moments of inertia in atomic units:
                           1         2         3
     Eigenvalues --   314.86100 314.86562 629.72662
           X            0.99991   0.01335  -0.00000
           Y           -0.01335   0.99991   0.00000
           Z            0.00000  -0.00000   1.00000
 This molecule is an asymmetric top.
 Rotational symmetry number  1.
 Rotational temperatures (Kelvin)      0.27509     0.27508     0.13754
 Rotational constants (GHZ):           5.73187     5.73178     2.86591
 Zero-point vibrational energy     262963.2 (Joules/Mol)
                                   62.84972 (Kcal/Mol)
 Warning -- explicit consideration of   2 degrees of freedom as
           vibrations may cause significant error
 Vibrational temperatures:    593.51   593.59   897.44   897.47   991.47
          (Kelvin)           1031.50  1241.06  1241.10  1385.62  1385.64
                             1427.50  1460.68  1480.27  1527.18  1527.26
                             1692.73  1726.10  1726.13  1921.97  1997.61
                             2183.91  2183.96  2354.94  2354.97  4546.88
                             4560.58  4560.63  4582.80  4582.85  4597.07
 
 Zero-point correction=                           0.100157 (Hartree/Particle)
 Thermal correction to Energy=                    0.104560
 Thermal correction to Enthalpy=                  0.105504
 Thermal correction to Gibbs Free Energy=         0.072701
 Sum of electronic and zero-point Energies=           -232.237198
 Sum of electronic and thermal Energies=              -232.232796
 Sum of electronic and thermal Enthalpies=            -232.231852
 Sum of electronic and thermal Free Energies=         -232.264654
 
                     E (Thermal)             CV                S
                      KCal/Mol        Cal/Mol-Kelvin    Cal/Mol-Kelvin
 Total                   65.612             17.232             69.040
 Electronic               0.000              0.000              0.000
 Translational            0.889              2.981             38.979
 Rotational               0.889              2.981             25.638
 Vibrational             63.835             11.271              4.423
 Vibration     1          0.776              1.443              0.918
 Vibration     2          0.776              1.443              0.918
                       Q            Log10(Q)             Ln(Q)
 Total Bot       0.363066D-33        -33.440015        -76.998479
 Total V=0       0.425751D+13         12.629156         29.079706
 Vib (Bot)       0.149780D-45        -45.824546       -105.514917
 Vib (Bot)    1  0.428081D+00         -0.368475         -0.848444
 Vib (Bot)    2  0.428004D+00         -0.368552         -0.848622
 Vib (V=0)       0.175640D+01          0.244625          0.563269
 Vib (V=0)    1  0.115822D+01          0.063791          0.146884
 Vib (V=0)    2  0.115817D+01          0.063772          0.146841
 Electronic      0.100000D+01          0.000000          0.000000
 Translational   0.271012D+08          7.432988         17.115087
 Rotational      0.894424D+05          4.951544         11.401351
 
                                                      OPT FREQ benzene def2TZVP
                                                             IR Spectrum
 
    3333                                                           1    1    1 1     11   111                                        
    1111                                                           6    5    3 3     21   00099   8     76  6       4                
    9876                                                           3    1    8 3     07   62196   6     18  2       1                
    5500                                                           7    8    8 6     07   19523   3     79  4       3                
 
     X                                                                  X                 X              X                           
     X                                                                  X                 X              X                           
     X                                                                  X                                X                           
     X                                                                                                   X                           
     X                                                                                                   X                           
     X                                                                                                   X                           
     X                                                                                                   X                           
     X                                                                                                   X                           
     X                                                                                                   X                           
     X                                                                                                   X                           
     X                                                                                                   X                           
     X                                                                                                   X                           
                                                                                                         X                           
                                                                                                         X                           
                                                                                                         X                           
                                                                                                         X                           
                                                                                                         X                           
                                                                                                         X                           
                                                                                                         X                           
                                                                                                         X                           
 
 ***** Axes restored to original set *****
 -------------------------------------------------------------------
 Center     Atomic                   Forces (Hartrees/Bohr)
 Number     Number              X              Y              Z
 -------------------------------------------------------------------
      1        6           0.000018631    0.000030477   -0.000000018
      2        6          -0.000018467    0.000025448   -0.000000004
      3        6          -0.000035472   -0.000001987   -0.000000024
      4        6          -0.000018624   -0.000030478    0.000000023
      5        6           0.000018453   -0.000025453   -0.000000000
      6        6           0.000035473    0.000001966    0.000000022
      7        1           0.000008582    0.000013537   -0.000000009
      8        1          -0.000008506    0.000014846   -0.000000015
      9        1          -0.000017012    0.000000508   -0.000000009
     10        1          -0.000008576   -0.000013524    0.000000015
     11        1           0.000008502   -0.000014836    0.000000012
     12        1           0.000017016   -0.000000504    0.000000007
 -------------------------------------------------------------------
 Cartesian Forces:  Max     0.000035473 RMS     0.000015573
 Force constants in Cartesian coordinates: 
                1             2             3             4             5 
      1  0.676872D+00
      2  0.351187D-01  0.717405D+00
      3  0.144395D-03 -0.366324D-03  0.130275D+00
      4 -0.329818D+00 -0.324301D-01 -0.615852D-04  0.676908D+00
      5  0.324117D-01 -0.129933D+00  0.548125D-04 -0.350592D-01  0.717418D+00
      6 -0.103230D-03  0.350065D-04 -0.600005D-01  0.189503D-03 -0.387777D-03
      7 -0.280409D-01 -0.301527D-01  0.864524D-05 -0.179925D+00 -0.118969D+00
      8 -0.775529D-01  0.341235D-01 -0.410760D-04 -0.541319D-01 -0.279837D+00
      9  0.390868D-04 -0.265964D-04  0.704929D-02 -0.188038D-05  0.104840D-03
     10 -0.520135D-01  0.296976D-01 -0.326125D-04  0.652213D-01  0.236860D-01
     11  0.296976D-01 -0.177078D-01  0.155104D-04 -0.237182D-01 -0.591390D-01
     12 -0.326143D-04  0.155088D-04 -0.767971D-02  0.329981D-04  0.497376D-04
     13  0.652213D-01 -0.237182D-01  0.329993D-04 -0.520023D-01 -0.296884D-01
     14  0.236860D-01 -0.591390D-01  0.497371D-04 -0.296884D-01 -0.177236D-01
     15  0.255784D-05  0.352616D-04  0.704881D-02  0.552632D-05 -0.261343D-05
     16 -0.179878D+00  0.118968D+00 -0.113017D-03 -0.280668D-01  0.301521D-01
     17  0.541221D-01 -0.279865D+00  0.157735D-03  0.775600D-01  0.341134D-01
     18 -0.713736D-04  0.177538D-03 -0.599854D-01 -0.605298D-04 -0.817807D-05
     19 -0.128534D+00 -0.118869D+00  0.477875D-04 -0.109355D-01 -0.293937D-01
     20 -0.118869D+00 -0.265762D+00  0.111854D-03  0.175187D-02  0.355902D-02
     21  0.477870D-04  0.111856D-03 -0.350562D-01 -0.508935D-05 -0.995114D-05
     22 -0.109324D-01  0.293950D-01 -0.228426D-04 -0.128503D+00  0.118851D+00
     23 -0.175041D-02  0.355614D-02 -0.150604D-05  0.118851D+00 -0.265781D+00
     24 -0.283813D-05  0.800678D-05  0.204331D-02 -0.104883D-03  0.184495D-03
     25  0.713435D-03 -0.330019D-02  0.000000D+00 -0.120367D-01  0.238692D-02
     26 -0.236159D-02 -0.451868D-02  0.692982D-05 -0.287574D-01  0.466040D-02
     27  0.000000D+00  0.664201D-05  0.739550D-02  0.141643D-04  0.000000D+00
     28 -0.796260D-03  0.888913D-03  0.000000D+00 -0.759107D-03  0.321159D-02
     29  0.888989D-03  0.229899D-03  0.000000D+00  0.415028D-02 -0.304709D-02
     30  0.000000D+00  0.000000D+00 -0.529919D-03 -0.515610D-05  0.768779D-05
     31 -0.759969D-03 -0.321186D-02  0.000000D+00 -0.796932D-03 -0.888742D-03
     32 -0.415129D-02 -0.304538D-02  0.543695D-05 -0.888107D-03  0.229674D-03
     33  0.000000D+00  0.572446D-05  0.739551D-02  0.000000D+00  0.000000D+00
     34 -0.120340D-01 -0.238603D-02 -0.276758D-05  0.713430D-03  0.330006D-02
     35  0.287599D-01  0.465715D-02  0.710543D-05  0.236052D-02 -0.451927D-02
     36 -0.227685D-04 -0.240709D-05  0.204393D-02 -0.355672D-05  0.865863D-05
                6             7             8             9            10 
      6  0.130279D+00
      7  0.397577D-04  0.737652D+00
      8  0.124642D-03 -0.106788D-04  0.656659D+00
      9 -0.599849D-01  0.185558D-03 -0.338066D-03  0.130259D+00
     10  0.255765D-05 -0.179878D+00  0.541221D-01 -0.713886D-04  0.676873D+00
     11  0.352647D-04  0.118968D+00 -0.279865D+00  0.177561D-03  0.351187D-01
     12  0.704877D-02 -0.113027D-03  0.157758D-03 -0.599852D-01  0.144357D-03
     13  0.552540D-05 -0.280668D-01  0.775600D-01 -0.605271D-04 -0.329818D+00
     14 -0.261423D-05  0.301521D-01  0.341134D-01 -0.817988D-05  0.324117D-01
     15 -0.767222D-02 -0.300891D-04  0.630395D-05  0.703800D-02 -0.103200D-03
     16 -0.300879D-04 -0.584245D-03  0.000000D+00  0.216364D-05 -0.280409D-01
     17  0.630198D-05  0.000000D+00 -0.691395D-01  0.394775D-04 -0.775529D-01
     18  0.703817D-02  0.216240D-05  0.394762D-04 -0.766699D-02  0.390890D-04
     19  0.149118D-04 -0.566252D-02  0.132009D-02 -0.483646D-05 -0.796261D-03
     20  0.000000D+00  0.381282D-03  0.185632D-02  0.367355D-05  0.888987D-03
     21  0.204330D-02 -0.423425D-05  0.396099D-05  0.739572D-02  0.000000D+00
     22 -0.104881D-03  0.119051D-01 -0.149379D-01  0.126068D-04 -0.759971D-03
     23  0.184491D-03  0.162072D-01 -0.192815D-01  0.186462D-04 -0.415129D-02
     24 -0.350542D-01 -0.739457D-05  0.913038D-05  0.204280D-02  0.000000D+00
     25 -0.583381D-05 -0.334385D+00  0.150130D-04 -0.914513D-04 -0.120340D-01
     26 -0.104651D-04  0.143645D-04 -0.598954D-01  0.159577D-04  0.287599D-01
     27  0.204288D-02 -0.914499D-04  0.159623D-04 -0.350549D-01 -0.227681D-04
     28 -0.455264D-05  0.119050D-01  0.149352D-01 -0.657995D-05 -0.128534D+00
     29  0.797541D-05 -0.162104D-01 -0.192805D-01  0.874380D-05 -0.118869D+00
     30  0.739536D-02  0.134240D-04  0.182537D-04  0.204202D-02  0.478083D-04
     31  0.000000D+00 -0.566238D-02 -0.131941D-02 -0.314025D-05 -0.109324D-01
     32  0.000000D+00 -0.380209D-03  0.185646D-02  0.344117D-05 -0.175040D-02
     33 -0.530159D-03 -0.374236D-05  0.315364D-05  0.739521D-02 -0.284025D-05
     34 -0.416004D-05  0.742447D-03  0.000000D+00  0.000000D+00  0.713437D-03
     35  0.837210D-05  0.000000D+00 -0.130967D-02  0.000000D+00 -0.236159D-02
     36  0.739496D-02  0.000000D+00  0.000000D+00 -0.529911D-03  0.000000D+00
               11            12            13            14            15 
     11  0.717405D+00
     12 -0.366385D-03  0.130275D+00
     13 -0.324301D-01 -0.615560D-04  0.676908D+00
     14 -0.129933D+00  0.548158D-04 -0.350592D-01  0.717418D+00
     15  0.350063D-04 -0.600002D-01  0.189455D-03 -0.387757D-03  0.130278D+00
     16 -0.301527D-01  0.864539D-05 -0.179925D+00 -0.118969D+00  0.397591D-04
     17  0.341235D-01 -0.410764D-04 -0.541319D-01 -0.279837D+00  0.124640D-03
     18 -0.265954D-04  0.704917D-02 -0.188182D-05  0.104833D-03 -0.599848D-01
     19  0.888914D-03  0.000000D+00 -0.759109D-03  0.321159D-02 -0.455313D-05
     20  0.229901D-03  0.000000D+00  0.415028D-02 -0.304709D-02  0.797381D-05
     21  0.000000D+00 -0.529891D-03 -0.515446D-05  0.768714D-05  0.739533D-02
     22 -0.321186D-02  0.000000D+00 -0.796932D-03 -0.888743D-03  0.000000D+00
     23 -0.304539D-02  0.543776D-05 -0.888107D-03  0.229676D-03  0.000000D+00
     24  0.572334D-05  0.739549D-02  0.000000D+00  0.000000D+00 -0.530136D-03
     25 -0.238603D-02 -0.276758D-05  0.713431D-03  0.330006D-02 -0.416089D-05
     26  0.465715D-02  0.710629D-05  0.236053D-02 -0.451927D-02  0.837275D-05
     27 -0.241007D-05  0.204391D-02 -0.355846D-05  0.865968D-05  0.739497D-02
     28 -0.118869D+00  0.478080D-04 -0.109355D-01 -0.293936D-01  0.149146D-04
     29 -0.265762D+00  0.111890D-03  0.175187D-02  0.355903D-02  0.000000D+00
     30  0.111892D-03 -0.350561D-01 -0.508953D-05 -0.994964D-05  0.204326D-02
     31  0.293950D-01 -0.228416D-04 -0.128503D+00  0.118851D+00 -0.104867D-03
     32  0.355614D-02 -0.150636D-05  0.118851D+00 -0.265781D+00  0.184473D-03
     33  0.800505D-05  0.204327D-02 -0.104866D-03  0.184478D-03 -0.350542D-01
     34 -0.330019D-02  0.000000D+00 -0.120367D-01  0.238692D-02 -0.583286D-05
     35 -0.451868D-02  0.692929D-05 -0.287574D-01  0.466041D-02 -0.104636D-04
     36  0.664278D-05  0.739550D-02  0.141656D-04  0.000000D+00  0.204288D-02
               16            17            18            19            20 
     16  0.737652D+00
     17 -0.106670D-04  0.656659D+00
     18  0.185530D-03 -0.338031D-03  0.130259D+00
     19  0.119050D-01  0.149352D-01 -0.657846D-05  0.132984D+00
     20 -0.162104D-01 -0.192805D-01  0.874171D-05  0.128747D+00  0.281616D+00
     21  0.134230D-04  0.182525D-04  0.204205D-02 -0.497058D-04 -0.125465D-03
     22 -0.566238D-02 -0.131941D-02 -0.314118D-05  0.113310D-02 -0.431923D-03
     23 -0.380207D-03  0.185645D-02  0.344083D-05  0.432007D-03  0.799192D-03
     24 -0.374400D-05  0.315448D-05  0.739518D-02  0.120346D-05 -0.303138D-05
     25  0.742448D-03  0.000000D+00  0.000000D+00 -0.675422D-03  0.200186D-03
     26  0.000000D+00 -0.130967D-02  0.000000D+00 -0.140648D-02  0.211380D-04
     27  0.000000D+00  0.000000D+00 -0.529916D-03  0.000000D+00  0.000000D+00
     28 -0.566251D-02  0.132009D-02 -0.483475D-05  0.891284D-04 -0.924395D-04
     29  0.381282D-03  0.185632D-02  0.367462D-05 -0.924397D-04 -0.175883D-04
     30 -0.423264D-05  0.395994D-05  0.739575D-02  0.000000D+00  0.000000D+00
     31  0.119051D-01 -0.149379D-01  0.126056D-04  0.369347D-03 -0.803428D-03
     32  0.162072D-01 -0.192815D-01  0.186451D-04  0.803269D-03 -0.102364D-02
     33 -0.739573D-05  0.912805D-05  0.204278D-02  0.000000D+00  0.000000D+00
     34 -0.334385D+00  0.150093D-04 -0.914352D-04  0.882583D-03  0.287551D-03
     35  0.143577D-04 -0.598954D-01  0.159545D-04 -0.576467D-03  0.104935D-02
     36 -0.914333D-04  0.159553D-04 -0.350549D-01  0.177442D-05 -0.297214D-05
               21            22            23            24            25 
     21  0.250175D-01
     22  0.175859D-05  0.132951D+00
     23 -0.276744D-05 -0.128728D+00  0.281637D+00
     24 -0.371527D-02  0.115649D-03 -0.204139D-03  0.250160D-01
     25  0.000000D+00  0.882601D-03 -0.287554D-03  0.158968D-05  0.355943D+00
     26  0.000000D+00  0.576605D-03  0.104973D-02 -0.288441D-05 -0.158238D-04
     27  0.244253D-03  0.103441D-05 -0.314849D-05 -0.371595D-02  0.101104D-03
     28  0.000000D+00  0.369347D-03  0.803269D-03  0.000000D+00  0.882583D-03
     29  0.000000D+00 -0.803427D-03 -0.102364D-02  0.000000D+00  0.287551D-03
     30 -0.136574D-02  0.000000D+00  0.105950D-05  0.244266D-03  0.122006D-05
     31  0.000000D+00  0.891555D-04  0.924415D-04  0.000000D+00 -0.675380D-03
     32  0.105940D-05  0.924416D-04 -0.176519D-04  0.000000D+00 -0.200071D-03
     33  0.244266D-03  0.000000D+00  0.000000D+00 -0.136573D-02  0.000000D+00
     34  0.121988D-05 -0.675381D-03 -0.200070D-03  0.000000D+00 -0.710006D-04
     35 -0.323568D-05  0.140654D-02  0.210436D-04  0.000000D+00  0.000000D+00
     36 -0.371538D-02 -0.118405D-05  0.000000D+00  0.244242D-03  0.000000D+00
               26            27            28            29            30 
     26  0.586417D-01
     27 -0.215993D-04  0.250163D-01
     28 -0.576467D-03  0.177410D-05  0.132984D+00
     29  0.104935D-02 -0.297287D-05  0.128747D+00  0.281616D+00
     30 -0.323607D-05 -0.371539D-02 -0.497281D-04 -0.125504D-03  0.250175D-01
     31  0.140654D-02 -0.118438D-05  0.113310D-02 -0.431923D-03  0.175817D-05
     32  0.210436D-04  0.000000D+00  0.432007D-03  0.799191D-03 -0.276713D-05
     33  0.000000D+00  0.244244D-03  0.120286D-05 -0.303189D-05 -0.371527D-02
     34  0.000000D+00  0.000000D+00 -0.675422D-03  0.200186D-03  0.000000D+00
     35  0.142501D-03  0.000000D+00 -0.140648D-02  0.211380D-04  0.000000D+00
     36  0.000000D+00 -0.136583D-02  0.000000D+00  0.000000D+00  0.244254D-03
               31            32            33            34            35 
     31  0.132951D+00
     32 -0.128728D+00  0.281637D+00
     33  0.115635D-03 -0.204119D-03  0.250160D-01
     34  0.882601D-03 -0.287554D-03  0.158925D-05  0.355943D+00
     35  0.576605D-03  0.104973D-02 -0.288432D-05 -0.158233D-04  0.586417D-01
     36  0.103416D-05 -0.314829D-05 -0.371595D-02  0.101086D-03 -0.215968D-04
               36 
     36  0.250163D-01
 FormGI is forming the generalized inverse of G from B-inverse, IUseBI=4.
 Leave Link  716 at Wed Mar 18 10:19:15 2026, MaxMem=   104857600 cpu:               0.0 elap:               0.0
 (Enter /sw/cluster/pub/apps//g16/l103.exe)

 GradGradGradGradGradGradGradGradGradGradGradGradGradGradGradGradGradGrad
 Berny optimization.
 Red2BG is reusing G-inverse.
 Internal  Forces:  Max     0.000053336 RMS     0.000017873
 Search for a local minimum.
 Step number   1 out of a maximum of    2
 All quantities printed in internal units (Hartrees-Bohrs-Radians)
 Second derivative matrix not updated -- analytic derivatives used.
 ITU=  0
     Eigenvalues ---    0.01661   0.01661   0.01737   0.02347   0.02347
     Eigenvalues ---    0.02623   0.02789   0.02790   0.02851   0.10731
     Eigenvalues ---    0.11246   0.11247   0.12163   0.12649   0.12649
     Eigenvalues ---    0.19447   0.19447   0.19570   0.27823   0.35345
     Eigenvalues ---    0.35346   0.35688   0.35721   0.35722   0.35915
     Eigenvalues ---    0.41171   0.41178   0.46518   0.46519   0.51066
 Angle between quadratic step and forces=   7.36 degrees.
 Linear search not attempted -- first point.
 Iteration  1 RMS(Cart)=  0.00005802 RMS(Int)=  0.00000001
 Iteration  2 RMS(Cart)=  0.00000000 RMS(Int)=  0.00000000
 ITry= 1 IFail=0 DXMaxC= 1.53D-04 DCOld= 1.00D+10 DXMaxT= 3.00D-01 DXLimC= 3.00D+00 Rises=F
 Variable       Old X    -DE/DX   Delta X   Delta X   Delta X     New X
                                 (Linear)    (Quad)   (Total)
    R1        2.62877  -0.00005   0.00000  -0.00010  -0.00010   2.62867
    R2        2.62876  -0.00005   0.00000  -0.00010  -0.00010   2.62867
    R3        2.04654  -0.00002   0.00000  -0.00004  -0.00004   2.04650
    R4        2.62877  -0.00005   0.00000  -0.00010  -0.00010   2.62867
    R5        2.04654  -0.00002   0.00000  -0.00005  -0.00005   2.04649
    R6        2.62876  -0.00005   0.00000  -0.00010  -0.00010   2.62867
    R7        2.04654  -0.00002   0.00000  -0.00004  -0.00004   2.04649
    R8        2.62877  -0.00005   0.00000  -0.00010  -0.00010   2.62867
    R9        2.04654  -0.00002   0.00000  -0.00004  -0.00004   2.04650
   R10        2.62877  -0.00005   0.00000  -0.00010  -0.00010   2.62867
   R11        2.04654  -0.00002   0.00000  -0.00005  -0.00005   2.04649
   R12        2.04654  -0.00002   0.00000  -0.00004  -0.00004   2.04649
    A1        2.09440   0.00000   0.00000   0.00000   0.00000   2.09440
    A2        2.09439  -0.00000   0.00000  -0.00001  -0.00001   2.09439
    A3        2.09439   0.00000   0.00000   0.00000   0.00000   2.09439
    A4        2.09440  -0.00000   0.00000  -0.00001  -0.00001   2.09439
    A5        2.09439   0.00000   0.00000   0.00001   0.00001   2.09440
    A6        2.09439   0.00000   0.00000   0.00000   0.00000   2.09440
    A7        2.09438   0.00000   0.00000   0.00001   0.00001   2.09439
    A8        2.09440  -0.00000   0.00000   0.00000   0.00000   2.09440
    A9        2.09441  -0.00000   0.00000  -0.00001  -0.00001   2.09439
   A10        2.09440   0.00000   0.00000   0.00000   0.00000   2.09440
   A11        2.09439   0.00000   0.00000   0.00000   0.00000   2.09439
   A12        2.09439  -0.00000   0.00000  -0.00001  -0.00001   2.09439
   A13        2.09440  -0.00000   0.00000  -0.00001  -0.00001   2.09439
   A14        2.09439   0.00000   0.00000   0.00001   0.00001   2.09440
   A15        2.09439   0.00000   0.00000   0.00000   0.00000   2.09440
   A16        2.09438   0.00000   0.00000   0.00001   0.00001   2.09439
   A17        2.09441  -0.00000   0.00000  -0.00001  -0.00001   2.09439
   A18        2.09440  -0.00000   0.00000   0.00000   0.00000   2.09440
    D1        0.00000  -0.00000   0.00000  -0.00000  -0.00000   0.00000
    D2        3.14159   0.00000   0.00000   0.00000   0.00000   3.14159
    D3       -3.14159  -0.00000   0.00000  -0.00000  -0.00000   3.14159
    D4       -0.00000   0.00000   0.00000   0.00000   0.00000   0.00000
    D5       -0.00000   0.00000   0.00000   0.00000   0.00000   0.00000
    D6        3.14159   0.00000   0.00000  -0.00000   0.00000   3.14159
    D7        3.14159   0.00000   0.00000   0.00000   0.00000  -3.14159
    D8       -0.00000   0.00000   0.00000   0.00000   0.00000   0.00000
    D9       -0.00000   0.00000   0.00000   0.00000   0.00000   0.00000
   D10        3.14159   0.00000   0.00000   0.00000   0.00000   3.14159
   D11       -3.14159   0.00000   0.00000  -0.00000  -0.00000   3.14159
   D12        0.00000  -0.00000   0.00000  -0.00000  -0.00000   0.00000
   D13        0.00000  -0.00000   0.00000  -0.00000  -0.00000   0.00000
   D14       -3.14159  -0.00000   0.00000  -0.00000  -0.00000   3.14159
   D15       -3.14159  -0.00000   0.00000  -0.00000  -0.00000   3.14159
   D16        0.00000  -0.00000   0.00000  -0.00000  -0.00000   0.00000
   D17       -0.00000   0.00000   0.00000   0.00000   0.00000   0.00000
   D18        3.14159   0.00000   0.00000   0.00000   0.00000   3.14159
   D19        3.14159   0.00000   0.00000   0.00000   0.00000   3.14159
   D20       -0.00000   0.00000   0.00000   0.00000   0.00000   0.00000
   D21        0.00000  -0.00000   0.00000  -0.00000  -0.00000   0.00000
   D22       -3.14159  -0.00000   0.00000  -0.00000  -0.00000  -3.14159
   D23        3.14159   0.00000   0.00000   0.00000   0.00000   3.14159
   D24       -0.00000   0.00000   0.00000   0.00000   0.00000   0.00000
         Item               Value     Threshold  Converged?
 Maximum Force            0.000053     0.000450     YES
 RMS     Force            0.000018     0.000300     YES
 Maximum Displacement     0.000153     0.001800     YES
 RMS     Displacement     0.000058     0.001200     YES
 Predicted change in Energy=-1.736648D-08
 Optimization completed.
    -- Stationary point found.
                           ----------------------------
                           !   Optimized Parameters   !
                           ! (Angstroms and Degrees)  !
 --------------------------                            --------------------------
 ! Name  Definition              Value          Derivative Info.                !
 --------------------------------------------------------------------------------
 ! R1    R(1,2)                  1.3911         -DE/DX =   -0.0001              !
 ! R2    R(1,6)                  1.3911         -DE/DX =    0.0                 !
 ! R3    R(1,7)                  1.083          -DE/DX =    0.0                 !
 ! R4    R(2,3)                  1.3911         -DE/DX =   -0.0001              !
 ! R5    R(2,8)                  1.083          -DE/DX =    0.0                 !
 ! R6    R(3,4)                  1.3911         -DE/DX =    0.0                 !
 ! R7    R(3,9)                  1.083          -DE/DX =    0.0                 !
 ! R8    R(4,5)                  1.3911         -DE/DX =   -0.0001              !
 ! R9    R(4,10)                 1.083          -DE/DX =    0.0                 !
 ! R10   R(5,6)                  1.3911         -DE/DX =   -0.0001              !
 ! R11   R(5,11)                 1.083          -DE/DX =    0.0                 !
 ! R12   R(6,12)                 1.083          -DE/DX =    0.0                 !
 ! A1    A(2,1,6)              120.0004         -DE/DX =    0.0                 !
 ! A2    A(2,1,7)              119.9999         -DE/DX =    0.0                 !
 ! A3    A(6,1,7)              119.9997         -DE/DX =    0.0                 !
 ! A4    A(1,2,3)              120.0003         -DE/DX =    0.0                 !
 ! A5    A(1,2,8)              119.9997         -DE/DX =    0.0                 !
 ! A6    A(3,2,8)              120.0            -DE/DX =    0.0                 !
 ! A7    A(2,3,4)              119.9993         -DE/DX =    0.0                 !
 ! A8    A(2,3,9)              120.0            -DE/DX =    0.0                 !
 ! A9    A(4,3,9)              120.0007         -DE/DX =    0.0                 !
 ! A10   A(3,4,5)              120.0004         -DE/DX =    0.0                 !
 ! A11   A(3,4,10)             119.9997         -DE/DX =    0.0                 !
 ! A12   A(5,4,10)             119.9999         -DE/DX =    0.0                 !
 ! A13   A(4,5,6)              120.0003         -DE/DX =    0.0                 !
 ! A14   A(4,5,11)             119.9997         -DE/DX =    0.0                 !
 ! A15   A(6,5,11)             120.0            -DE/DX =    0.0                 !
 ! A16   A(1,6,5)              119.9993         -DE/DX =    0.0                 !
 ! A17   A(1,6,12)             120.0007         -DE/DX =    0.0                 !
 ! A18   A(5,6,12)             120.0            -DE/DX =    0.0                 !
 ! D1    D(6,1,2,3)              0.0            -DE/DX =    0.0                 !
 ! D2    D(6,1,2,8)            180.0            -DE/DX =    0.0                 !
 ! D3    D(7,1,2,3)            180.0            -DE/DX =    0.0                 !
 ! D4    D(7,1,2,8)              0.0            -DE/DX =    0.0                 !
 ! D5    D(2,1,6,5)              0.0            -DE/DX =    0.0                 !
 ! D6    D(2,1,6,12)           180.0            -DE/DX =    0.0                 !
 ! D7    D(7,1,6,5)           -180.0            -DE/DX =    0.0                 !
 ! D8    D(7,1,6,12)             0.0            -DE/DX =    0.0                 !
 ! D9    D(1,2,3,4)              0.0            -DE/DX =    0.0                 !
 ! D10   D(1,2,3,9)            180.0            -DE/DX =    0.0                 !
 ! D11   D(8,2,3,4)            180.0            -DE/DX =    0.0                 !
 ! D12   D(8,2,3,9)              0.0            -DE/DX =    0.0                 !
 ! D13   D(2,3,4,5)              0.0            -DE/DX =    0.0                 !
 ! D14   D(2,3,4,10)           180.0            -DE/DX =    0.0                 !
 ! D15   D(9,3,4,5)            180.0            -DE/DX =    0.0                 !
 ! D16   D(9,3,4,10)             0.0            -DE/DX =    0.0                 !
 ! D17   D(3,4,5,6)              0.0            -DE/DX =    0.0                 !
 ! D18   D(3,4,5,11)           180.0            -DE/DX =    0.0                 !
 ! D19   D(10,4,5,6)           180.0            -DE/DX =    0.0                 !
 ! D20   D(10,4,5,11)            0.0            -DE/DX =    0.0                 !
 ! D21   D(4,5,6,1)              0.0            -DE/DX =    0.0                 !
 ! D22   D(4,5,6,12)          -180.0            -DE/DX =    0.0                 !
 ! D23   D(11,5,6,1)           180.0            -DE/DX =    0.0                 !
 ! D24   D(11,5,6,12)            0.0            -DE/DX =    0.0                 !
 --------------------------------------------------------------------------------
 GradGradGradGradGradGradGradGradGradGradGradGradGradGradGradGradGradGrad

 Leave Link  103 at Wed Mar 18 10:19:15 2026, MaxMem=   104857600 cpu:               0.0 elap:               0.0
 (Enter /sw/cluster/pub/apps//g16/l9999.exe)

 ----------------------------------------------------------------------

 Electric dipole moment (input orientation):
 (Debye = 10**-18 statcoulomb cm , SI units = C m)
                  (au)            (Debye)         (10**-30 SI)
   Tot        0.000000D+00      0.000000D+00      0.000000D+00
   x          0.000000D+00      0.000000D+00      0.000000D+00
   y          0.000000D+00      0.000000D+00      0.000000D+00
   z          0.000000D+00      0.000000D+00      0.000000D+00

 Dipole polarizability, Alpha (input orientation).
 (esu units = cm**3 , SI units = C**2 m**2 J**-1)
 Alpha(0;0):
               (au)            (10**-24 esu)      (10**-40 SI)
   iso        0.649281D+02      0.962135D+01      0.107052D+02
   aniso      0.394594D+02      0.584728D+01      0.650598D+01
   xx         0.780817D+02      0.115705D+02      0.128739D+02
   yx        -0.340735D-03     -0.504917D-04     -0.561796D-04
   yy         0.780808D+02      0.115704D+02      0.128738D+02
   zx         0.120527D-01      0.178602D-02      0.198722D-02
   zy        -0.253399D-01     -0.375499D-02     -0.417799D-02
   zz         0.386219D+02      0.572317D+01      0.636788D+01

 ----------------------------------------------------------------------

 Dipole orientation:
     6         -0.73355288          0.65822789         -0.10892661
     6          1.75260430          0.06122427         -0.71969551
     6          2.47777152         -0.12883768         -3.23930395
     6          0.71676185          0.27810845         -5.14813175
     6         -1.76939528          0.87511230         -4.53736285
     6         -2.49456251          1.06517422         -2.01775441
     1         -1.29809433          0.80619129          1.85263274
     1          3.12356657         -0.25558677          0.76637947
     1          4.41328577         -0.59361462         -3.71478556
     1          1.28130323          0.13014477         -7.10969109
     1         -3.14035750          1.19192349         -6.02343782
     1         -4.43007673          1.52995127         -1.54227280

 Electric dipole moment (dipole orientation):
 (Debye = 10**-18 statcoulomb cm , SI units = C m)
                  (au)            (Debye)         (10**-30 SI)
   Tot        0.000000D+00      0.000000D+00      0.000000D+00
   x          0.000000D+00      0.000000D+00      0.000000D+00
   y          0.000000D+00      0.000000D+00      0.000000D+00
   z          0.000000D+00      0.000000D+00      0.000000D+00

 Dipole polarizability, Alpha (dipole orientation).
 (esu units = cm**3 , SI units = C**2 m**2 J**-1)
 Alpha(0;0):
               (au)            (10**-24 esu)      (10**-40 SI)
   iso        0.649281D+02      0.962135D+01      0.107052D+02
   aniso      0.394594D+02      0.584728D+01      0.650598D+01
   xx         0.759588D+02      0.112559D+02      0.125239D+02
   yx        -0.890296D+01     -0.131928D+01     -0.146790D+01
   yy         0.407466D+02      0.603802D+01      0.671820D+01
   zx         0.606547D-01      0.898810D-02      0.100006D-01
   zy         0.253928D+00      0.376283D-01      0.418671D-01
   zz         0.780789D+02      0.115701D+02      0.128735D+02

 ----------------------------------------------------------------------
 1\1\GINC-N07\Freq\RB3LYP\def2TZVP\C6H6\UNKNOWN\18-Mar-2026\0\\#P Geom=
 AllCheck Guess=TCheck SCRF=Check GenChk RB3LYP/def2TZVP Freq\\OPT FREQ
  benzene def2TZVP\\0,1\C,-0.4329008138,0.1611471569,0.2489188274\C,0.9
 581840745,0.1610788053,0.249343757\C,1.6537922058,1.3657543081,0.24878
 26636\C,0.9583036029,2.5704946048,0.2477964688\C,-0.4327812829,2.57056
 2957,0.2473716605\C,-1.128389416,1.365887456,0.2479327396\H,-0.9744365
 829,-0.776715604,0.2493557318\H,1.4996240324,-0.7768405953,0.250111546
 3\H,2.7367731632,1.3656949127,0.2491135413\H,1.4998393712,3.5083573631
 ,0.2473594101\H,-0.9742212405,3.5084823555,0.2466039555\H,-2.211370374
 ,1.3659468499,0.2476019227\\Version=ES64L-G16RevA.03\State=1-A\HF=-232
 .3373552\RMSD=2.282e-09\RMSF=1.557e-05\ZeroPoint=0.1001574\Thermal=0.1
 045595\Dipole=0.,-0.0000003,0.\DipoleDeriv=-0.0206487,0.0707773,-0.000
 0105,0.0707643,0.0610783,-0.0001044,-0.0000105,-0.0001043,-0.1350966,-
 0.0205804,-0.0707452,0.0000804,-0.0707704,0.0611283,-0.0001477,0.00008
 05,-0.0001478,-0.1351211,0.1019525,-0.0000305,0.0000725,0.0000052,-0.0
 614764,-0.0000473,0.0000723,-0.0000473,-0.1351446,-0.0206488,0.0707772
 ,-0.0000105,0.0707641,0.061078,-0.0001044,-0.0000105,-0.0001044,-0.135
 0966,-0.0205805,-0.0707452,0.0000804,-0.0707702,0.0611281,-0.0001476,0
 .0000805,-0.0001477,-0.1351211,0.1019526,-0.0000306,0.0000724,0.000005
 3,-0.0614764,-0.0000473,0.0000723,-0.0000473,-0.1351446,0.0224326,-0.0
 73935,0.0000131,-0.0739338,-0.0629175,0.0001046,0.0000131,0.0001046,0.
 1351261,0.022445,0.0739202,-0.0000819,0.0739237,-0.0629306,0.0001498,-
 0.0000819,0.0001498,0.1351163,-0.1056009,0.0000132,-0.0000735,0.000010
 9,0.0651181,0.000045,-0.0000735,0.000045,0.13512,0.0224327,-0.0739349,
 0.0000131,-0.0739337,-0.0629174,0.0001046,0.0000131,0.0001046,0.135126
 ,0.022445,0.0739202,-0.0000819,0.0739237,-0.0629306,0.0001498,-0.00008
 19,0.0001498,0.1351162,-0.105601,0.0000132,-0.0000735,0.0000109,0.0651
 181,0.000045,-0.0000735,0.0000449,0.13512\Polar=78.0817092,-0.0003407,
 78.0807644,0.0120527,-0.0253399,38.62186\Quadrupole=1.9143118,1.914182
 3,-3.8284941,-0.0000046,0.0017541,-0.0036883\PG=C01 [X(C6H6)]\NImag=0\
 \0.67687248,0.03511873,0.71740457,0.00014440,-0.00036632,0.13027540,-0
 .32981761,-0.03243015,-0.00006159,0.67690829,0.03241170,-0.12993313,0.
 00005481,-0.03505916,0.71741804,-0.00010323,0.00003501,-0.06000054,0.0
 0018950,-0.00038778,0.13027863,-0.02804086,-0.03015274,0.00000865,-0.1
 7992466,-0.11896898,0.00003976,0.73765201,-0.07755289,0.03412352,-0.00
 004108,-0.05413189,-0.27983706,0.00012464,-0.00001068,0.65665925,0.000
 03909,-0.00002660,0.00704929,-0.00000188,0.00010484,-0.05998494,0.0001
 8556,-0.00033807,0.13025892,-0.05201352,0.02969761,-0.00003261,0.06522
 132,0.02368598,0.00000256,-0.17987812,0.05412209,-0.00007139,0.6768725
 2,0.02969761,-0.01770776,0.00001551,-0.02371821,-0.05913896,0.00003526
 ,0.11896771,-0.27986533,0.00017756,0.03511874,0.71740462,-0.00003261,0
 .00001551,-0.00767971,0.00003300,0.00004974,0.00704877,-0.00011303,0.0
 0015776,-0.05998519,0.00014436,-0.00036638,0.13027500,0.06522132,-0.02
 371822,0.00003300,-0.05200234,-0.02968840,0.00000553,-0.02806681,0.077
 56000,-0.00006053,-0.32981766,-0.03243013,-0.00006156,0.67690833,0.023
 68598,-0.05913896,0.00004974,-0.02968841,-0.01772358,-0.00000261,0.030
 15208,0.03411336,-0.00000818,0.03241169,-0.12993315,0.00005482,-0.0350
 5916,0.71741807,0.00000256,0.00003526,0.00704881,0.00000553,-0.0000026
 1,-0.00767222,-0.00003009,0.00000630,0.00703800,-0.00010320,0.00003501
 ,-0.06000021,0.00018946,-0.00038776,0.13027832,-0.17987811,0.11896771,
 -0.00011302,-0.02806682,0.03015208,-0.00003009,-0.00058425,0.00000045,
 0.00000216,-0.02804085,-0.03015274,0.00000865,-0.17992466,-0.11896898,
 0.00003976,0.73765200,0.05412207,-0.27986530,0.00015774,0.07756001,0.0
 3411335,0.00000630,0.00000045,-0.06913947,0.00003948,-0.07755288,0.034
 12352,-0.00004108,-0.05413190,-0.27983707,0.00012464,-0.00001067,0.656
 65925,-0.00007137,0.00017754,-0.05998543,-0.00006053,-0.00000818,0.007
 03817,0.00000216,0.00003948,-0.00766699,0.00003909,-0.00002660,0.00704
 917,-0.00000188,0.00010483,-0.05998484,0.00018553,-0.00033803,0.130259
 02,-0.12853449,-0.11886883,0.00004779,-0.01093553,-0.02939366,0.000014
 91,-0.00566252,0.00132009,-0.00000484,-0.00079626,0.00088891,-0.000000
 65,-0.00075911,0.00321159,-0.00000455,0.01190496,0.01493519,-0.0000065
 8,0.13298422,-0.11886879,-0.26576206,0.00011185,0.00175187,0.00355902,
 -0.00000044,0.00038128,0.00185632,0.00000367,0.00088899,0.00022990,-0.
 00000022,0.00415028,-0.00304709,0.00000797,-0.01621039,-0.01928048,0.0
 0000874,0.12874681,0.28161593,0.00004779,0.00011186,-0.03505616,-0.000
 00509,-0.00000995,0.00204330,-0.00000423,0.00000396,0.00739572,-0.0000
 0065,-0.00000022,-0.00052989,-0.00000515,0.00000769,0.00739533,0.00001
 342,0.00001825,0.00204205,-0.00004971,-0.00012547,0.02501750,-0.010932
 41,0.02939505,-0.00002284,-0.12850330,0.11885061,-0.00010488,0.0119051
 4,-0.01493791,0.00001261,-0.00075997,-0.00321186,-0.00000043,-0.000796
 93,-0.00088874,0.00000049,-0.00566238,-0.00131941,-0.00000314,0.001133
 10,-0.00043192,0.00000176,0.13295103,-0.00175041,0.00355614,-0.0000015
 1,0.11885066,-0.26578141,0.00018449,0.01620722,-0.01928147,0.00001865,
 -0.00415129,-0.00304539,0.00000544,-0.00088811,0.00022968,-0.00000076,
 -0.00038021,0.00185645,0.00000344,0.00043201,0.00079919,-0.00000277,-0
 .12872796,0.28163733,-0.00000284,0.00000801,0.00204331,-0.00010488,0.0
 0018450,-0.03505421,-0.00000739,0.00000913,0.00204280,0.00000017,0.000
 00572,0.00739549,0.00000049,-0.00000076,-0.00053014,-0.00000374,0.0000
 0315,0.00739518,0.00000120,-0.00000303,-0.00371527,0.00011565,-0.00020
 414,0.02501600,0.00071344,-0.00330019,0.00000008,-0.01203674,0.0023869
 2,-0.00000583,-0.33438496,0.00001501,-0.00009145,-0.01203400,-0.002386
 03,-0.00000277,0.00071343,0.00330006,-0.00000416,0.00074245,-0.0000000
 5,0.00000039,-0.00067542,0.00020019,-0.00000041,0.00088260,-0.00028755
 ,0.00000159,0.35594300,-0.00236159,-0.00451868,0.00000693,-0.02875741,
 0.00466040,-0.00001047,0.00001436,-0.05989543,0.00001596,0.02875987,0.
 00465715,0.00000711,0.00236053,-0.00451927,0.00000837,-0.00000012,-0.0
 0130967,0.00000050,-0.00140648,0.00002114,-0.00000029,0.00057660,0.001
 04973,-0.00000288,-0.00001582,0.05864173,-0.00000052,0.00000664,0.0073
 9550,0.00001416,-0.00000095,0.00204288,-0.00009145,0.00001596,-0.03505
 493,-0.00002277,-0.00000241,0.00204391,-0.00000356,0.00000866,0.007394
 97,0.00000039,0.00000050,-0.00052992,0.00000062,0.00000020,0.00024425,
 0.00000103,-0.00000315,-0.00371595,0.00010110,-0.00002160,0.02501626,-
 0.00079626,0.00088891,-0.00000065,-0.00075911,0.00321159,-0.00000455,0
 .01190495,0.01493519,-0.00000658,-0.12853449,-0.11886885,0.00004781,-0
 .01093552,-0.02939364,0.00001491,-0.00566251,0.00132009,-0.00000483,0.
 00008913,-0.00009244,0.00000050,0.00036935,0.00080327,-0.00000048,0.00
 088258,-0.00057647,0.00000177,0.13298421,0.00088899,0.00022990,-0.0000
 0022,0.00415028,-0.00304709,0.00000798,-0.01621038,-0.01928047,0.00000
 874,-0.11886880,-0.26576207,0.00011189,0.00175187,0.00355903,-0.000000
 44,0.00038128,0.00185632,0.00000367,-0.00009244,-0.00001759,-0.0000008
 9,-0.00080343,-0.00102364,0.00000057,0.00028755,0.00104935,-0.00000297
 ,0.12874682,0.28161593,-0.00000065,-0.00000022,-0.00052992,-0.00000516
 ,0.00000769,0.00739536,0.00001342,0.00001825,0.00204202,0.00004781,0.0
 0011189,-0.03505611,-0.00000509,-0.00000995,0.00204326,-0.00000423,0.0
 0000396,0.00739575,0.00000050,-0.00000089,-0.00136574,0.00000055,0.000
 00106,0.00024427,0.00000122,-0.00000324,-0.00371539,-0.00004973,-0.000
 12550,0.02501752,-0.00075997,-0.00321186,-0.00000043,-0.00079693,-0.00
 088874,0.00000049,-0.00566238,-0.00131941,-0.00000314,-0.01093240,0.02
 939503,-0.00002284,-0.12850330,0.11885063,-0.00010487,0.01190514,-0.01
 493791,0.00001261,0.00036935,-0.00080343,0.00000055,0.00008916,0.00009
 244,0.00000038,-0.00067538,0.00140654,-0.00000118,0.00113310,-0.000431
 92,0.00000176,0.13295103,-0.00415129,-0.00304538,0.00000544,-0.0008881
 1,0.00022967,-0.00000076,-0.00038021,0.00185646,0.00000344,-0.00175040
 ,0.00355614,-0.00000151,0.11885067,-0.26578142,0.00018447,0.01620722,-
 0.01928147,0.00001865,0.00080327,-0.00102364,0.00000106,0.00009244,-0.
 00001765,-0.00000084,-0.00020007,0.00002104,0.00000008,0.00043201,0.00
 079919,-0.00000277,-0.12872797,0.28163733,0.00000017,0.00000572,0.0073
 9551,0.00000049,-0.00000076,-0.00053016,-0.00000374,0.00000315,0.00739
 521,-0.00000284,0.00000801,0.00204327,-0.00010487,0.00018448,-0.035054
 18,-0.00000740,0.00000913,0.00204278,-0.00000048,0.00000057,0.00024427
 ,0.00000039,-0.00000084,-0.00136573,-0.00000015,0.00000057,0.00024424,
 0.00000120,-0.00000303,-0.00371527,0.00011563,-0.00020412,0.02501601,-
 0.01203400,-0.00238603,-0.00000277,0.00071343,0.00330006,-0.00000416,0
 .00074245,-0.00000005,0.00000039,0.00071344,-0.00330019,0.00000008,-0.
 01203674,0.00238692,-0.00000583,-0.33438496,0.00001501,-0.00009144,0.0
 0088258,0.00028755,0.00000122,-0.00067538,-0.00020007,-0.00000015,-0.0
 0007100,0.,0.00000040,-0.00067542,0.00020019,-0.00000041,0.00088260,-0
 .00028755,0.00000159,0.35594300,0.02875987,0.00465715,0.00000711,0.002
 36052,-0.00451927,0.00000837,-0.00000012,-0.00130967,0.00000050,-0.002
 36159,-0.00451868,0.00000693,-0.02875741,0.00466041,-0.00001046,0.0000
 1436,-0.05989544,0.00001595,-0.00057647,0.00104935,-0.00000324,0.00140
 654,0.00002104,0.00000057,0.,0.00014250,-0.00000097,-0.00140648,0.0000
 2114,-0.00000029,0.00057660,0.00104973,-0.00000288,-0.00001582,0.05864
 174,-0.00002277,-0.00000241,0.00204393,-0.00000356,0.00000866,0.007394
 96,0.00000039,0.00000050,-0.00052991,-0.00000052,0.00000664,0.00739550
 ,0.00001417,-0.00000095,0.00204288,-0.00009143,0.00001596,-0.03505495,
 0.00000177,-0.00000297,-0.00371538,-0.00000118,0.00000008,0.00024424,0
 .00000040,-0.00000097,-0.00136583,0.00000062,0.00000020,0.00024425,0.0
 0000103,-0.00000315,-0.00371595,0.00010109,-0.00002160,0.02501626\\-0.
 00001863,-0.00003048,0.00000002,0.00001847,-0.00002545,0.,0.00003547,0
 .00000199,0.00000002,0.00001862,0.00003048,-0.00000002,-0.00001845,0.0
 0002545,0.,-0.00003547,-0.00000197,-0.00000002,-0.00000858,-0.00001354
 ,0.,0.00000851,-0.00001485,0.00000002,0.00001701,-0.00000051,0.,0.0000
 0858,0.00001352,-0.00000001,-0.00000850,0.00001484,-0.00000001,-0.0000
 1702,0.00000050,0.\\\@


 MODELS ARE TO BE USED, NOT BELIEVED.

    -- PARAPHRASED BY H. THIEL IN "PRINCIPLES OF ECONOMETRICS"
 Job cpu time:       0 days  0 hours  6 minutes 20.0 seconds.
 Elapsed time:       0 days  0 hours  6 minutes 20.5 seconds.
 File lengths (MBytes):  RWF=     60 Int=      0 D2E=      0 Chk=      5 Scr=      1
 Normal termination of Gaussian 16 at Wed Mar 18 10:19:15 2026.
