29
Generated from .fchk
C -0.000045 1.412551 -0.000003
C 1.177926 0.443999 -0.000032
C 0.732661 -0.887036 -0.000007
C -0.732611 -0.887082 0.000002
C -1.177914 0.443936 -0.000025
C -2.534410 0.725252 -0.000049
C -3.448231 -0.328146 -0.000037
C -3.005208 -1.649000 -0.000006
C -1.644511 -1.938239 0.000014
H -1.306580 -2.967398 0.000034
H -3.726662 -2.456487 -0.000001
H -4.510494 -0.118267 -0.000058
H -2.892041 1.748361 -0.000074
C 1.644528 -1.938220 0.000011
C 3.005228 -1.648998 -0.000005
C 3.448227 -0.328137 -0.000040
C 2.534425 0.725279 -0.000054
H 2.892133 1.748363 -0.000088
H 4.510489 -0.118243 -0.000058
H 3.726711 -2.456458 0.000011
H 1.306503 -2.967346 0.000034
C -0.000035 2.297693 -1.261390
H -0.000148 1.690042 -2.167047
H -0.882718 2.940103 -1.280984
H 0.882765 2.939935 -1.281066
C -0.000019 2.297494 1.261551
H 0.882875 2.939604 1.281414
H -0.882614 2.940021 1.281187
H -0.000287 1.689683 2.167102