 Entering Gaussian System, Link 0=g16
 Initial command:
 /sw/cluster/pub/apps//g16/l1.exe "/data/mmaximo/44347/Gau-1912418.inp" -scrdir="/data/mmaximo/44347/"
 Entering Link 1 = /sw/cluster/pub/apps//g16/l1.exe PID=   1912419.
  
 Copyright (c) 1988,1990,1992,1993,1995,1998,2003,2009,2016,
            Gaussian, Inc.  All Rights Reserved.
  
 This is part of the Gaussian(R) 16 program.  It is based on
 the Gaussian(R) 09 system (copyright 2009, Gaussian, Inc.),
 the Gaussian(R) 03 system (copyright 2003, Gaussian, Inc.),
 the Gaussian(R) 98 system (copyright 1998, Gaussian, Inc.),
 the Gaussian(R) 94 system (copyright 1995, Gaussian, Inc.),
 the Gaussian 92(TM) system (copyright 1992, Gaussian, Inc.),
 the Gaussian 90(TM) system (copyright 1990, Gaussian, Inc.),
 the Gaussian 88(TM) system (copyright 1988, Gaussian, Inc.),
 the Gaussian 86(TM) system (copyright 1986, Carnegie Mellon
 University), and the Gaussian 82(TM) system (copyright 1983,
 Carnegie Mellon University). Gaussian is a federally registered
 trademark of Gaussian, Inc.
  
 This software contains proprietary and confidential information,
 including trade secrets, belonging to Gaussian, Inc.
  
 This software is provided under written license and may be
 used, copied, transmitted, or stored only in accord with that
 written license.
  
 The following legend is applicable only to US Government
 contracts under FAR:
  
                    RESTRICTED RIGHTS LEGEND
  
 Use, reproduction and disclosure by the US Government is
 subject to restrictions as set forth in subparagraphs (a)
 and (c) of the Commercial Computer Software - Restricted
 Rights clause in FAR 52.227-19.
  
 Gaussian, Inc.
 340 Quinnipiac St., Bldg. 40, Wallingford CT 06492
  
  
 ---------------------------------------------------------------
 Warning -- This program may not be used in any manner that
 competes with the business of Gaussian, Inc. or will provide
 assistance to any competitor of Gaussian, Inc.  The licensee
 of this program is prohibited from giving any competitor of
 Gaussian, Inc. access to this program.  By using this program,
 the user acknowledges that Gaussian, Inc. is engaged in the
 business of creating and licensing software in the field of
 computational chemistry and represents and warrants to the
 licensee that it is not a competitor of Gaussian, Inc. and that
 it will not use this program in any manner prohibited above.
 ---------------------------------------------------------------
  

 Cite this work as:
 Gaussian 16, Revision A.03,
 M. J. Frisch, G. W. Trucks, H. B. Schlegel, G. E. Scuseria, 
 M. A. Robb, J. R. Cheeseman, G. Scalmani, V. Barone, 
 G. A. Petersson, H. Nakatsuji, X. Li, M. Caricato, A. V. Marenich, 
 J. Bloino, B. G. Janesko, R. Gomperts, B. Mennucci, H. P. Hratchian, 
 J. V. Ortiz, A. F. Izmaylov, J. L. Sonnenberg, D. Williams-Young, 
 F. Ding, F. Lipparini, F. Egidi, J. Goings, B. Peng, A. Petrone, 
 T. Henderson, D. Ranasinghe, V. G. Zakrzewski, J. Gao, N. Rega, 
 G. Zheng, W. Liang, M. Hada, M. Ehara, K. Toyota, R. Fukuda, 
 J. Hasegawa, M. Ishida, T. Nakajima, Y. Honda, O. Kitao, H. Nakai, 
 T. Vreven, K. Throssell, J. A. Montgomery, Jr., J. E. Peralta, 
 F. Ogliaro, M. J. Bearpark, J. J. Heyd, E. N. Brothers, K. N. Kudin, 
 V. N. Staroverov, T. A. Keith, R. Kobayashi, J. Normand, 
 K. Raghavachari, A. P. Rendell, J. C. Burant, S. S. Iyengar, 
 J. Tomasi, M. Cossi, J. M. Millam, M. Klene, C. Adamo, R. Cammi, 
 J. W. Ochterski, R. L. Martin, K. Morokuma, O. Farkas, 
 J. B. Foresman, and D. J. Fox, Gaussian, Inc., Wallingford CT, 2016.
 
 ******************************************
 Gaussian 16:  ES64L-G16RevA.03 25-Dec-2016
                17-Mar-2026 
 ******************************************
 %chk=f1-def2TZVP_SP.chk
 -------------------------------------------
 #p B3LYP/def2TZVP nosymm density=current sp
 -------------------------------------------
 1/30=1,38=1,172=1/1;
 2/12=2,15=1,17=6,18=5,40=1/2;
 3/5=44,7=101,11=2,25=1,30=1,74=-5/1,2,3;
 4//1;
 5/5=2,38=5/2;
 6/7=2,8=2,9=2,10=2,22=-1,28=1/1;
 99/5=1,9=1/99;
 Leave Link    1 at Tue Mar 17 11:54:09 2026, MaxMem=           0 cpu:               0.0 elap:               0.0
 (Enter /sw/cluster/pub/apps//g16/l101.exe)
 ----------------------
 Generated by extraQ₂
 ----------------------
 Symbolic Z-matrix:
 Charge =  0 Multiplicity = 1
 C                     0.00005   1.41255   0.00008 
 C                    -1.17793   0.444     0.00006 
 C                    -0.73266  -0.88704  -0.00004 
 C                     0.73261  -0.88708  -0.00005 
 C                     1.17791   0.44394   0.00005 
 C                     2.53441   0.72525   0.00009 
 C                     3.44823  -0.32815   0.00002 
 C                     3.00521  -1.649    -0.00008 
 C                     1.64451  -1.93824  -0.00012 
 H                     1.30658  -2.9674   -0.00019 
 H                     3.72666  -2.45649  -0.00013 
 H                     4.51049  -0.11827   0.00005 
 H                     2.89204   1.74836   0.00017 
 C                    -1.64453  -1.93822  -0.00011 
 C                    -3.00523  -1.649    -0.00008 
 C                    -3.44823  -0.32814   0.00002 
 C                    -2.53443   0.72528   0.00009 
 H                    -2.89213   1.74836   0.00018 
 H                    -4.51049  -0.11824   0.00005 
 H                    -3.72671  -2.45646  -0.00014 
 H                    -1.3065   -2.96735  -0.00019 
 C                     0.00004   2.29763   1.26151 
 H                     0.00015   1.68993   2.16714 
 H                     0.88272   2.94004   1.28114 
 H                    -0.88277   2.93987   1.28122 
 C                     0.00002   2.29756  -1.26143 
 H                    -0.88288   2.93967  -1.28126 
 H                     0.88261   2.94009  -1.28103 
 H                     0.00029   1.6898   -2.16701 
 
 ITRead=  0  0  0  0  0  0  0  0  0  0  0  0  0  0  0  0  0  0  0  0
 ITRead=  0  0  0  0  0  0  0  0  0
 MicOpt= -1 -1 -1 -1 -1 -1 -1 -1 -1 -1 -1 -1 -1 -1 -1 -1 -1 -1 -1 -1
 MicOpt= -1 -1 -1 -1 -1 -1 -1 -1 -1
 NAtoms=     29 NQM=       29 NQMF=       0 NMMI=      0 NMMIF=      0
                NMic=       0 NMicF=      0.
                    Isotopes and Nuclear Properties:
 (Nuclear quadrupole moments (NQMom) in fm**2, nuclear magnetic moments (NMagM)
  in nuclear magnetons)

  Atom         1           2           3           4           5           6           7           8           9          10
 IAtWgt=          12          12          12          12          12          12          12          12          12           1
 AtmWgt=  12.0000000  12.0000000  12.0000000  12.0000000  12.0000000  12.0000000  12.0000000  12.0000000  12.0000000   1.0078250
 NucSpn=           0           0           0           0           0           0           0           0           0           1
 AtZEff=  -0.0000000  -0.0000000  -0.0000000  -0.0000000  -0.0000000  -0.0000000  -0.0000000  -0.0000000  -0.0000000  -0.0000000
 NQMom=    0.0000000   0.0000000   0.0000000   0.0000000   0.0000000   0.0000000   0.0000000   0.0000000   0.0000000   0.0000000
 NMagM=    0.0000000   0.0000000   0.0000000   0.0000000   0.0000000   0.0000000   0.0000000   0.0000000   0.0000000   2.7928460
 AtZNuc=   6.0000000   6.0000000   6.0000000   6.0000000   6.0000000   6.0000000   6.0000000   6.0000000   6.0000000   1.0000000

  Atom        11          12          13          14          15          16          17          18          19          20
 IAtWgt=           1           1           1          12          12          12          12           1           1           1
 AtmWgt=   1.0078250   1.0078250   1.0078250  12.0000000  12.0000000  12.0000000  12.0000000   1.0078250   1.0078250   1.0078250
 NucSpn=           1           1           1           0           0           0           0           1           1           1
 AtZEff=  -0.0000000  -0.0000000  -0.0000000  -0.0000000  -0.0000000  -0.0000000  -0.0000000  -0.0000000  -0.0000000  -0.0000000
 NQMom=    0.0000000   0.0000000   0.0000000   0.0000000   0.0000000   0.0000000   0.0000000   0.0000000   0.0000000   0.0000000
 NMagM=    2.7928460   2.7928460   2.7928460   0.0000000   0.0000000   0.0000000   0.0000000   2.7928460   2.7928460   2.7928460
 AtZNuc=   1.0000000   1.0000000   1.0000000   6.0000000   6.0000000   6.0000000   6.0000000   1.0000000   1.0000000   1.0000000

  Atom        21          22          23          24          25          26          27          28          29
 IAtWgt=           1          12           1           1           1          12           1           1           1
 AtmWgt=   1.0078250  12.0000000   1.0078250   1.0078250   1.0078250  12.0000000   1.0078250   1.0078250   1.0078250
 NucSpn=           1           0           1           1           1           0           1           1           1
 AtZEff=  -0.0000000  -0.0000000  -0.0000000  -0.0000000  -0.0000000  -0.0000000  -0.0000000  -0.0000000  -0.0000000
 NQMom=    0.0000000   0.0000000   0.0000000   0.0000000   0.0000000   0.0000000   0.0000000   0.0000000   0.0000000
 NMagM=    2.7928460   0.0000000   2.7928460   2.7928460   2.7928460   0.0000000   2.7928460   2.7928460   2.7928460
 AtZNuc=   1.0000000   6.0000000   1.0000000   1.0000000   1.0000000   6.0000000   1.0000000   1.0000000   1.0000000
 Leave Link  101 at Tue Mar 17 11:54:09 2026, MaxMem=   104857600 cpu:               0.0 elap:               0.0
 (Enter /sw/cluster/pub/apps//g16/l202.exe)
                          Input orientation:                          
 ---------------------------------------------------------------------
 Center     Atomic      Atomic             Coordinates (Angstroms)
 Number     Number       Type             X           Y           Z
 ---------------------------------------------------------------------
      1          6           0        0.000045    1.412551    0.000077
      2          6           0       -1.177926    0.443999    0.000055
      3          6           0       -0.732661   -0.887036   -0.000040
      4          6           0        0.732611   -0.887082   -0.000049
      5          6           0        1.177914    0.443936    0.000048
      6          6           0        2.534410    0.725252    0.000087
      7          6           0        3.448231   -0.328146    0.000020
      8          6           0        3.005208   -1.649000   -0.000081
      9          6           0        1.644511   -1.938239   -0.000116
     10          1           0        1.306580   -2.967398   -0.000190
     11          1           0        3.726662   -2.456487   -0.000128
     12          1           0        4.510494   -0.118267    0.000052
     13          1           0        2.892041    1.748361    0.000166
     14          6           0       -1.644528   -1.938220   -0.000113
     15          6           0       -3.005228   -1.648998   -0.000082
     16          6           0       -3.448227   -0.328137    0.000023
     17          6           0       -2.534425    0.725279    0.000092
     18          1           0       -2.892133    1.748363    0.000180
     19          1           0       -4.510489   -0.118243    0.000052
     20          1           0       -3.726711   -2.456458   -0.000140
     21          1           0       -1.306503   -2.967346   -0.000190
     22          6           0        0.000035    2.297627    1.261511
     23          1           0        0.000148    1.689928    2.167136
     24          1           0        0.882718    2.940036    1.281139
     25          1           0       -0.882765    2.939868    1.281221
     26          6           0        0.000019    2.297560   -1.261430
     27          1           0       -0.882875    2.939671   -1.281259
     28          1           0        0.882614    2.940088   -1.281032
     29          1           0        0.000287    1.689797   -2.167013
 ---------------------------------------------------------------------
                    Distance matrix (angstroms):
                    1          2          3          4          5
     1  C    0.000000
     2  C    1.525027   0.000000
     3  C    2.413495   1.403537   0.000000
     4  C    2.413496   2.328503   1.465272   0.000000
     5  C    1.524989   2.355840   2.328472   1.403533   0.000000
     6  C    2.625907   3.722975   3.643244   2.417871   1.385359
     7  C    3.862643   4.690153   4.218082   2.772544   2.398010
     8  C    4.290000   4.677527   3.814742   2.396918   2.778378
     9  C    3.732568   3.693401   2.599226   1.391579   2.427441
    10  H    4.570666   4.220237   2.913144   2.158044   3.413760
    11  H    5.371883   5.698053   4.727445   3.380440   3.861162
    12  H    4.763145   5.716141   5.299215   3.855318   3.379669
    13  H    2.911427   4.273873   4.481493   3.407154   2.154009
    14  C    3.732598   2.427485   1.391578   2.599169   3.693352
    15  C    4.290076   2.778429   2.396904   3.814703   4.677505
    16  C    3.862716   2.398012   2.772484   4.218036   4.690126
    17  C    2.626001   1.385355   2.417832   3.643245   3.722985
    18  H    2.911608   2.154036   3.407146   4.481555   4.273969
    19  H    4.763218   3.379659   3.855260   5.299171   5.716115
    20  H    5.371959   3.861212   3.380447   4.727419   5.698038
    21  H    4.570620   3.413767   2.158005   2.912985   4.220092
    22  C    1.540965   2.532745   3.502917   3.502937   2.532757
    23  H    2.184738   2.763410   3.445925   3.445892   2.763313
    24  H    2.180238   3.481038   4.347108   4.038663   2.821143
    25  H    2.180224   2.820969   4.038484   4.347026   3.481016
    26  C    1.540988   2.532704   3.502796   3.502816   2.532723
    27  H    2.180245   2.820852   4.038289   4.346877   3.480991
    28  H    2.180262   3.481016   4.347061   4.038645   2.821196
    29  H    2.184753   2.763401   3.445730   3.445626   2.763174
                    6          7          8          9         10
     6  C    0.000000
     7  C    1.394531   0.000000
     8  C    2.420480   1.393171   0.000000
     9  C    2.808221   2.417810   1.391099   0.000000
    10  H    3.891430   3.398870   2.150235   1.083220   0.000000
    11  H    3.397783   2.146476   1.082835   2.145678   2.473424
    12  H    2.148588   1.082798   2.146865   3.395019   4.287495
    13  H    1.083814   2.149704   3.399245   3.891960   4.975145
    14  C    4.955563   5.341211   4.658722   3.289039   3.125419
    15  C    6.026994   6.587244   6.010436   4.658727   4.508865
    16  C    6.074667   6.896458   6.587223   5.341199   5.438188
    17  C    5.068835   6.074692   6.027000   4.955586   5.328150
    18  H    5.522149   6.671739   6.805932   5.845697   6.314079
    19  H    7.095216   7.961488   7.670001   6.418443   6.477343
    20  H    7.023170   7.483950   6.780171   5.396163   5.059158
    21  H    5.328029   5.438095   4.508757   3.125307   2.613083
    22  C    3.238303   4.513989   5.118451   4.715778   5.569509
    23  H    3.471193   4.545139   4.987550   4.534810   5.300448
    24  H    3.045397   4.347888   5.215912   5.100932   6.059640
    25  H    4.268830   5.574847   6.149453   5.641354   6.428922
    26  C    3.238320   4.513951   5.118350   4.715640   5.569346
    27  H    4.268880   5.574835   6.149351   5.641189   6.428711
    28  H    3.045521   4.347970   5.215935   5.100913   6.059596
    29  H    3.471088   4.544936   4.987255   4.534486   5.300093
                   11         12         13         14         15
    11  H    0.000000
    12  H    2.466103   0.000000
    13  H    4.286880   2.470565   0.000000
    14  C    5.396136   6.418452   5.845626   0.000000
    15  C    6.780146   7.670021   6.805867   1.391098   0.000000
    16  C    7.483910   7.961488   6.671645   2.417788   1.393170
    17  C    7.023165   7.095242   5.522068   2.808228   2.420505
    18  H    7.841506   7.634343   5.784174   3.891968   3.399243
    19  H    8.562595   9.020983   7.634243   3.395003   2.146863
    20  H    7.453373   8.562633   7.841453   2.145707   1.082834
    21  H    5.059024   6.477245   6.313926   1.083218   2.150281
    22  C    6.170987   5.269920   3.202559   4.715790   5.118502
    23  H    5.981363   5.320624   3.614169   4.534907   4.987739
    24  H    6.233147   4.914790   2.664274   5.641450   6.149543
    25  H    7.211748   6.330942   4.160523   5.100768   5.215772
    26  C    6.170877   5.269909   3.202661   4.715643   5.118382
    27  H    7.211633   6.330969   4.160680   5.100517   5.215523
    28  H    6.233165   4.914899   2.664485   5.641373   6.149460
    29  H    5.981048   5.320454   3.614185   4.534686   4.987611
                   16         17         18         19         20
    16  C    0.000000
    17  C    1.394532   0.000000
    18  H    2.149673   1.083815   0.000000
    19  H    1.082800   2.148571   2.470485   0.000000
    20  H    2.146463   3.397793   4.286845   2.466081   0.000000
    21  H    3.398883   3.891436   4.975152   4.287530   2.473543
    22  C    4.514033   3.238355   3.202699   5.269965   6.171039
    23  H    4.545355   3.471410   3.614471   5.320863   5.981562
    24  H    5.574881   4.268852   4.160582   6.330950   7.211841
    25  H    4.347749   3.045271   2.664265   4.914653   6.232996
    26  C    4.513973   3.238350   3.202783   5.269926   6.170904
    27  H    4.347561   3.045162   2.664286   4.914487   6.232727
    28  H    5.574817   4.268819   4.160580   6.330887   7.211746
    29  H    4.545366   3.471513   3.614727   5.320928   5.981411
                   21         22         23         24         25
    21  H    0.000000
    22  C    5.569458   0.000000
    23  H    5.300457   1.090621   0.000000
    24  H    6.428970   1.091881   1.768245   0.000000
    25  H    6.059434   1.091878   1.768256   1.765483   0.000000
    26  C    5.569288   2.522941   3.481994   2.767054   2.767118
    27  H    6.059163   2.767207   3.772667   3.111784   2.562480
    28  H    6.428886   2.766989   3.772468   2.562171   3.111544
    29  H    5.300170   3.481987   4.334149   3.772470   3.772635
                   26         27         28         29
    26  C    0.000000
    27  H    1.091880   0.000000
    28  H    1.091879   1.765489   0.000000
    29  H    1.090622   1.768254   1.768245   0.000000
 Symmetry turned off by external request.
 Stoichiometry    C15H14
 Framework group  C1[X(C15H14)]
 Deg. of freedom    81
 Full point group                 C1      NOp   1
 Rotational constants (GHZ):           1.0626823           0.5528810           0.3944872
 Leave Link  202 at Tue Mar 17 11:54:09 2026, MaxMem=   104857600 cpu:               0.0 elap:               0.0
 (Enter /sw/cluster/pub/apps//g16/l301.exe)
 Standard basis: def2TZVP (5D, 7F)
 Ernie: Thresh=  0.10000D-02 Tol=  0.10000D-05 Strict=F.
   549 basis functions,   877 primitive gaussians,   624 cartesian basis functions
    52 alpha electrons       52 beta electrons
       nuclear repulsion energy       929.1509430298 Hartrees.
 IExCor=  402 DFT=T Ex+Corr=B3LYP ExCW=0 ScaHFX=  0.200000
 ScaDFX=  0.800000  0.720000  1.000000  0.810000 ScalE2=  1.000000  1.000000
 IRadAn=      5 IRanWt=     -1 IRanGd=            0 ICorTp=0 IEmpDi=  4
 NAtoms=   29 NActive=   29 NUniq=   29 SFac= 1.00D+00 NAtFMM=   60 NAOKFM=F Big=F
 Integral buffers will be    131072 words long.
 Raffenetti 2 integral format.
 Two-electron integral symmetry is turned off.
 Leave Link  301 at Tue Mar 17 11:54:09 2026, MaxMem=   104857600 cpu:               0.0 elap:               0.0
 (Enter /sw/cluster/pub/apps//g16/l302.exe)
 NPDir=0 NMtPBC=     1 NCelOv=     1 NCel=       1 NClECP=     1 NCelD=      1
         NCelK=      1 NCelE2=     1 NClLst=     1 CellRange=     0.0.
 One-electron integrals computed using PRISM.
   1 Symmetry operations used in ECPInt.
 ECPInt:  NShTT=   24531 NPrTT=   74292 LenC2=   23181 LenP2D=   52842.
 LDataN:  DoStor=T MaxTD1= 6 Len=  172
 NBasis=   549 RedAO= T EigKep=  6.03D-06  NBF=   549
 NBsUse=   549 1.00D-06 EigRej= -1.00D+00 NBFU=   549
 Precomputing XC quadrature grid using
 IXCGrd= 4 IRadAn=           5 IRanWt=          -1 IRanGd=           0 AccXCQ= 0.00D+00.
 Generated NRdTot=       0 NPtTot=           0 NUsed=           0 NTot=          32
 NSgBfM=   618   618   618   618   618 MxSgAt=    29 MxSgA2=    29.
 Leave Link  302 at Tue Mar 17 11:54:10 2026, MaxMem=   104857600 cpu:               0.5 elap:               0.5
 (Enter /sw/cluster/pub/apps//g16/l303.exe)
 DipDrv:  MaxL=1.
 Leave Link  303 at Tue Mar 17 11:54:10 2026, MaxMem=   104857600 cpu:               0.0 elap:               0.0
 (Enter /sw/cluster/pub/apps//g16/l401.exe)
 ExpMin= 9.52D-02 ExpMax= 1.36D+04 ExpMxC= 4.63D+02 IAcc=3 IRadAn=         5 AccDes= 0.00D+00
 Harris functional with IExCor=  402 and IRadAn=       5 diagonalized for initial guess.
 HarFok:  IExCor=  402 AccDes= 0.00D+00 IRadAn=         5 IDoV= 1 UseB2=F ITyADJ=14
 ICtDFT=  3500011 ScaDFX=  1.000000  1.000000  1.000000  1.000000
 FoFCou: FMM=F IPFlag=           0 FMFlag=      100000 FMFlg1=           0
         NFxFlg=           0 DoJE=T BraDBF=F KetDBF=T FulRan=T
         wScrn=  0.000000 ICntrl=       500 IOpCl=  0 I1Cent=   200000004 NGrid=           0
         NMat0=    1 NMatS0=      1 NMatT0=    0 NMatD0=    1 NMtDS0=    0 NMtDT0=    0
 Symmetry not used in FoFCou.
 Harris En= -580.340732984522    
 JPrj=0 DoOrth=F DoCkMO=F.
 Leave Link  401 at Tue Mar 17 11:54:18 2026, MaxMem=   104857600 cpu:               8.7 elap:               8.7
 (Enter /sw/cluster/pub/apps//g16/l502.exe)
 Two-electron integral symmetry not used.
 Closed shell SCF:
 Using DIIS extrapolation, IDIIS=  1040.
 NGot=   104857600 LenX=   104070913 LenY=   103680913
 Requested convergence on RMS density matrix=1.00D-08 within 128 cycles.
 Requested convergence on MAX density matrix=1.00D-06.
 Requested convergence on             energy=1.00D-06.
 No special actions if energy rises.
 Fock matrices will be formed incrementally for  20 cycles.
 Integral accuracy reduced to 1.0D-05 until final iterations.

 Cycle   1  Pass 0  IDiag  1:
 FoFJK:  IHMeth= 1 ICntrl=       0 DoSepK=F KAlg= 0 I1Cent=           0 FoldK=F
 IRaf= 900000000 NMat=       1 IRICut=       1 DoRegI=T DoRafI=F ISym2E= 0 IDoP0=0 IntGTp=1.
 FoFCou: FMM=F IPFlag=           0 FMFlag=      100000 FMFlg1=           0
         NFxFlg=           0 DoJE=F BraDBF=F KetDBF=F FulRan=T
         wScrn=  0.000000 ICntrl=         0 IOpCl=  0 I1Cent=           0 NGrid=           0
         NMat0=    1 NMatS0=      1 NMatT0=    0 NMatD0=    1 NMtDS0=    0 NMtDT0=    0
 Symmetry not used in FoFCou.
 E= -579.838404995872    
 DIIS: error= 3.07D-02 at cycle   1 NSaved=   1.
 NSaved= 1 IEnMin= 1 EnMin= -579.838404995872     IErMin= 1 ErrMin= 3.07D-02
 ErrMax= 3.07D-02  0.00D+00 EMaxC= 1.00D-01 BMatC= 4.13D-01 BMatP= 4.13D-01
 IDIUse=3 WtCom= 6.93D-01 WtEn= 3.07D-01
 Coeff-Com:  0.100D+01
 Coeff-En:   0.100D+01
 Coeff:      0.100D+01
 Gap=     0.181 Goal=   None    Shift=    0.000
 GapD=    0.181 DampG=1.000 DampE=0.500 DampFc=0.5000 IDamp=-1.
 Damping current iteration by 5.00D-01
 RMSDP=3.10D-03 MaxDP=9.43D-02              OVMax= 1.79D-01

 Cycle   2  Pass 0  IDiag  1:
 RMSU=  1.53D-03    CP:  9.64D-01
 E= -580.028087353991     Delta-E=       -0.189682358119 Rises=F Damp=T
 DIIS: error= 5.63D-03 at cycle   2 NSaved=   2.
 NSaved= 2 IEnMin= 2 EnMin= -580.028087353991     IErMin= 2 ErrMin= 5.63D-03
 ErrMax= 5.63D-03  0.00D+00 EMaxC= 1.00D-01 BMatC= 2.08D-02 BMatP= 4.13D-01
 IDIUse=3 WtCom= 9.44D-01 WtEn= 5.63D-02
 Coeff-Com:  0.129D-01 0.987D+00
 Coeff-En:   0.710D-01 0.929D+00
 Coeff:      0.162D-01 0.984D+00
 Gap=     0.192 Goal=   None    Shift=    0.000
 RMSDP=1.05D-03 MaxDP=4.47D-02 DE=-1.90D-01 OVMax= 1.05D-01

 Cycle   3  Pass 0  IDiag  1:
 RMSU=  1.01D-03    CP:  9.56D-01  8.19D-01
 E= -580.250285729989     Delta-E=       -0.222198375998 Rises=F Damp=F
 DIIS: error= 4.40D-03 at cycle   3 NSaved=   3.
 NSaved= 3 IEnMin= 3 EnMin= -580.250285729989     IErMin= 3 ErrMin= 4.40D-03
 ErrMax= 4.40D-03  0.00D+00 EMaxC= 1.00D-01 BMatC= 6.60D-03 BMatP= 2.08D-02
 IDIUse=3 WtCom= 9.56D-01 WtEn= 4.40D-02
 Coeff-Com: -0.508D-01 0.327D+00 0.724D+00
 Coeff-En:   0.000D+00 0.000D+00 0.100D+01
 Coeff:     -0.485D-01 0.312D+00 0.736D+00
 Gap=     0.180 Goal=   None    Shift=    0.000
 RMSDP=3.48D-04 MaxDP=9.69D-03 DE=-2.22D-01 OVMax= 3.38D-02

 Cycle   4  Pass 0  IDiag  1:
 RMSU=  3.33D-04    CP:  9.53D-01  8.65D-01  9.31D-01
 E= -580.254598020551     Delta-E=       -0.004312290561 Rises=F Damp=F
 DIIS: error= 3.42D-03 at cycle   4 NSaved=   4.
 NSaved= 4 IEnMin= 4 EnMin= -580.254598020551     IErMin= 4 ErrMin= 3.42D-03
 ErrMax= 3.42D-03  0.00D+00 EMaxC= 1.00D-01 BMatC= 2.54D-03 BMatP= 6.60D-03
 IDIUse=3 WtCom= 9.66D-01 WtEn= 3.42D-02
 Coeff-Com: -0.322D-01 0.143D+00 0.443D+00 0.446D+00
 Coeff-En:   0.000D+00 0.000D+00 0.256D+00 0.744D+00
 Coeff:     -0.311D-01 0.139D+00 0.437D+00 0.456D+00
 Gap=     0.181 Goal=   None    Shift=    0.000
 RMSDP=1.21D-04 MaxDP=4.98D-03 DE=-4.31D-03 OVMax= 2.46D-02

 Cycle   5  Pass 0  IDiag  1:
 RMSU=  9.05D-05    CP:  9.53D-01  8.67D-01  9.65D-01  7.81D-01
 E= -580.256945778851     Delta-E=       -0.002347758300 Rises=F Damp=F
 DIIS: error= 1.48D-03 at cycle   5 NSaved=   5.
 NSaved= 5 IEnMin= 5 EnMin= -580.256945778851     IErMin= 5 ErrMin= 1.48D-03
 ErrMax= 1.48D-03  0.00D+00 EMaxC= 1.00D-01 BMatC= 3.71D-04 BMatP= 2.54D-03
 IDIUse=3 WtCom= 9.85D-01 WtEn= 1.48D-02
 Coeff-Com: -0.997D-02 0.234D-01 0.131D+00 0.295D+00 0.561D+00
 Coeff-En:   0.000D+00 0.000D+00 0.000D+00 0.155D+00 0.845D+00
 Coeff:     -0.982D-02 0.230D-01 0.129D+00 0.293D+00 0.565D+00
 Gap=     0.181 Goal=   None    Shift=    0.000
 RMSDP=5.17D-05 MaxDP=2.40D-03 DE=-2.35D-03 OVMax= 7.48D-03

 Cycle   6  Pass 0  IDiag  1:
 RMSU=  4.79D-05    CP:  9.53D-01  8.65D-01  9.65D-01  8.12D-01  8.25D-01
 E= -580.257330114945     Delta-E=       -0.000384336094 Rises=F Damp=F
 DIIS: error= 2.38D-04 at cycle   6 NSaved=   6.
 NSaved= 6 IEnMin= 6 EnMin= -580.257330114945     IErMin= 6 ErrMin= 2.38D-04
 ErrMax= 2.38D-04  0.00D+00 EMaxC= 1.00D-01 BMatC= 1.47D-05 BMatP= 3.71D-04
 IDIUse=3 WtCom= 9.98D-01 WtEn= 2.38D-03
 Coeff-Com: -0.434D-02 0.786D-02 0.569D-01 0.149D+00 0.320D+00 0.471D+00
 Coeff-En:   0.000D+00 0.000D+00 0.000D+00 0.000D+00 0.000D+00 0.100D+01
 Coeff:     -0.433D-02 0.784D-02 0.568D-01 0.148D+00 0.319D+00 0.472D+00
 Gap=     0.180 Goal=   None    Shift=    0.000
 RMSDP=3.61D-05 MaxDP=1.80D-03 DE=-3.84D-04 OVMax= 1.46D-03

 Cycle   7  Pass 0  IDiag  1:
 RMSU=  3.42D-05    CP:  9.53D-01  8.63D-01  9.60D-01  8.10D-01  8.60D-01
                    CP:  1.20D+00
 E= -580.257342479192     Delta-E=       -0.000012364247 Rises=F Damp=F
 DIIS: error= 9.68D-05 at cycle   7 NSaved=   7.
 NSaved= 7 IEnMin= 7 EnMin= -580.257342479192     IErMin= 7 ErrMin= 9.68D-05
 ErrMax= 9.68D-05  0.00D+00 EMaxC= 1.00D-01 BMatC= 1.39D-06 BMatP= 1.47D-05
 IDIUse=1 WtCom= 1.00D+00 WtEn= 0.00D+00
 Coeff-Com: -0.979D-03 0.862D-03 0.138D-01 0.425D-01 0.998D-01 0.264D+00
 Coeff-Com:  0.580D+00
 Coeff:     -0.979D-03 0.862D-03 0.138D-01 0.425D-01 0.998D-01 0.264D+00
 Coeff:      0.580D+00
 Gap=     0.180 Goal=   None    Shift=    0.000
 RMSDP=5.53D-05 MaxDP=1.86D-03 DE=-1.24D-05 OVMax= 4.67D-04

 Cycle   8  Pass 0  IDiag  1:
 RMSU=  2.26D-05    CP:  9.53D-01  8.58D-01  9.51D-01  8.49D-01  9.25D-01
                    CP:  1.60D+00  2.26D+00
 E= -580.257341446183     Delta-E=        0.000001033009 Rises=F Damp=F
 DIIS: error= 4.56D-05 at cycle   8 NSaved=   8.
 NSaved= 8 IEnMin= 7 EnMin= -580.257342479192     IErMin= 8 ErrMin= 4.56D-05
 ErrMax= 4.56D-05  0.00D+00 EMaxC= 1.00D-01 BMatC= 5.03D-07 BMatP= 1.39D-06
 IDIUse=1 WtCom= 1.00D+00 WtEn= 0.00D+00
 Coeff-Com: -0.492D-03 0.243D-03 0.716D-02 0.237D-01 0.571D-01 0.171D+00
 Coeff-Com:  0.429D+00 0.312D+00
 Coeff:     -0.492D-03 0.243D-03 0.716D-02 0.237D-01 0.571D-01 0.171D+00
 Coeff:      0.429D+00 0.312D+00
 Gap=     0.180 Goal=   None    Shift=    0.000
 RMSDP=5.36D-05 MaxDP=1.52D-03 DE= 1.03D-06 OVMax= 1.43D-04

 Cycle   9  Pass 0  IDiag  1:
 RMSU=  1.50D-05    CP:  9.53D-01  8.54D-01  9.44D-01  9.01D-01  9.94D-01
                    CP:  1.95D+00  3.00D+00  2.17D+00
 E= -580.257340249708     Delta-E=        0.000001196476 Rises=F Damp=F
 DIIS: error= 7.21D-05 at cycle   9 NSaved=   9.
 NSaved= 9 IEnMin= 7 EnMin= -580.257342479192     IErMin= 8 ErrMin= 4.56D-05
 ErrMax= 7.21D-05  0.00D+00 EMaxC= 1.00D-01 BMatC= 5.60D-07 BMatP= 5.03D-07
 IDIUse=1 WtCom= 1.00D+00 WtEn= 0.00D+00
 Coeff-Com: -0.421D-03-0.298D-04 0.641D-02 0.231D-01 0.575D-01 0.196D+00
 Coeff-Com:  0.546D+00 0.639D+00-0.467D+00
 Coeff:     -0.421D-03-0.298D-04 0.641D-02 0.231D-01 0.575D-01 0.196D+00
 Coeff:      0.546D+00 0.639D+00-0.467D+00
 Gap=     0.180 Goal=   None    Shift=    0.000
 RMSDP=8.35D-05 MaxDP=2.35D-03 DE= 1.20D-06 OVMax= 6.58D-05

 Problem detected with inexpensive integrals.
 Switching to full accuracy and repeating last cycle.
 Cycle  10  Pass 1  IDiag  1:
 E= -580.257313865678     Delta-E=        0.000026384030 Rises=F Damp=F
 DIIS: error= 5.03D-04 at cycle   1 NSaved=   1.
 NSaved= 1 IEnMin= 1 EnMin= -580.257313865678     IErMin= 1 ErrMin= 5.03D-04
 ErrMax= 5.03D-04  0.00D+00 EMaxC= 1.00D-01 BMatC= 4.66D-05 BMatP= 4.66D-05
 IDIUse=3 WtCom= 9.95D-01 WtEn= 5.03D-03
 Coeff-Com:  0.100D+01
 Coeff-En:   0.100D+01
 Coeff:      0.100D+01
 Gap=     0.181 Goal=   None    Shift=    0.000
 RMSDP=1.32D-03 MaxDP=4.35D-02 DE= 2.64D-05 OVMax= 8.89D-04

 Cycle  11  Pass 1  IDiag  1:
 RMSU=  1.28D-03    CP:  9.58D-01
 E= -580.257336079362     Delta-E=       -0.000022213684 Rises=F Damp=F
 DIIS: error= 1.13D-05 at cycle   2 NSaved=   2.
 NSaved= 2 IEnMin= 2 EnMin= -580.257336079362     IErMin= 2 ErrMin= 1.13D-05
 ErrMax= 1.13D-05  0.00D+00 EMaxC= 1.00D-01 BMatC= 2.15D-08 BMatP= 4.66D-05
 IDIUse=1 WtCom= 1.00D+00 WtEn= 0.00D+00
 Coeff-Com: -0.461D-02 0.100D+01
 Coeff:     -0.461D-02 0.100D+01
 Gap=     0.181 Goal=   None    Shift=    0.000
 RMSDP=1.56D-05 MaxDP=6.33D-04 DE=-2.22D-05 OVMax= 1.37D-04

 Cycle  12  Pass 1  IDiag  1:
 RMSU=  7.26D-06    CP:  9.57D-01  1.01D+00
 E= -580.257336008711     Delta-E=        0.000000070651 Rises=F Damp=F
 DIIS: error= 2.61D-05 at cycle   3 NSaved=   3.
 NSaved= 3 IEnMin= 2 EnMin= -580.257336079362     IErMin= 2 ErrMin= 1.13D-05
 ErrMax= 2.61D-05  0.00D+00 EMaxC= 1.00D-01 BMatC= 8.35D-08 BMatP= 2.15D-08
 IDIUse=1 WtCom= 1.00D+00 WtEn= 0.00D+00
 Coeff-Com: -0.354D-02 0.676D+00 0.327D+00
 Coeff:     -0.354D-02 0.676D+00 0.327D+00
 Gap=     0.181 Goal=   None    Shift=    0.000
 RMSDP=5.07D-07 MaxDP=1.76D-05 DE= 7.07D-08 OVMax= 9.97D-05

 Cycle  13  Pass 1  IDiag  1:
 RMSU=  5.03D-07    CP:  9.57D-01  1.01D+00  9.95D-01
 E= -580.257336102821     Delta-E=       -0.000000094110 Rises=F Damp=F
 DIIS: error= 1.97D-06 at cycle   4 NSaved=   4.
 NSaved= 4 IEnMin= 4 EnMin= -580.257336102821     IErMin= 4 ErrMin= 1.97D-06
 ErrMax= 1.97D-06  0.00D+00 EMaxC= 1.00D-01 BMatC= 6.93D-10 BMatP= 2.15D-08
 IDIUse=1 WtCom= 1.00D+00 WtEn= 0.00D+00
 Coeff-Com: -0.146D-02 0.274D+00 0.153D+00 0.574D+00
 Coeff:     -0.146D-02 0.274D+00 0.153D+00 0.574D+00
 Gap=     0.181 Goal=   None    Shift=    0.000
 RMSDP=1.21D-07 MaxDP=6.37D-06 DE=-9.41D-08 OVMax= 9.54D-06

 Cycle  14  Pass 1  IDiag  1:
 RMSU=  7.42D-08    CP:  9.57D-01  1.01D+00  1.00D+00  9.71D-01
 E= -580.257336103429     Delta-E=       -0.000000000608 Rises=F Damp=F
 DIIS: error= 5.41D-07 at cycle   5 NSaved=   5.
 NSaved= 5 IEnMin= 5 EnMin= -580.257336103429     IErMin= 5 ErrMin= 5.41D-07
 ErrMax= 5.41D-07  0.00D+00 EMaxC= 1.00D-01 BMatC= 1.25D-10 BMatP= 6.93D-10
 IDIUse=1 WtCom= 1.00D+00 WtEn= 0.00D+00
 Coeff-Com: -0.110D-03 0.184D-01 0.204D-01 0.314D+00 0.647D+00
 Coeff:     -0.110D-03 0.184D-01 0.204D-01 0.314D+00 0.647D+00
 Gap=     0.181 Goal=   None    Shift=    0.000
 RMSDP=5.91D-08 MaxDP=2.16D-06 DE=-6.08D-10 OVMax= 4.11D-06

 Cycle  15  Pass 1  IDiag  1:
 RMSU=  3.33D-08    CP:  9.57D-01  1.01D+00  1.01D+00  9.70D-01  1.03D+00
 E= -580.257336103523     Delta-E=       -0.000000000095 Rises=F Damp=F
 DIIS: error= 3.98D-07 at cycle   6 NSaved=   6.
 NSaved= 6 IEnMin= 6 EnMin= -580.257336103523     IErMin= 6 ErrMin= 3.98D-07
 ErrMax= 3.98D-07  0.00D+00 EMaxC= 1.00D-01 BMatC= 2.57D-11 BMatP= 1.25D-10
 IDIUse=1 WtCom= 1.00D+00 WtEn= 0.00D+00
 Coeff-Com:  0.708D-06-0.155D-02 0.567D-02 0.180D+00 0.434D+00 0.381D+00
 Coeff:      0.708D-06-0.155D-02 0.567D-02 0.180D+00 0.434D+00 0.381D+00
 Gap=     0.181 Goal=   None    Shift=    0.000
 RMSDP=1.21D-08 MaxDP=3.97D-07 DE=-9.46D-11 OVMax= 2.06D-06

 Cycle  16  Pass 1  IDiag  1:
 RMSU=  9.69D-09    CP:  9.57D-01  1.01D+00  1.01D+00  9.73D-01  1.08D+00
                    CP:  9.33D-01
 E= -580.257336103551     Delta-E=       -0.000000000028 Rises=F Damp=F
 DIIS: error= 4.79D-08 at cycle   7 NSaved=   7.
 NSaved= 7 IEnMin= 7 EnMin= -580.257336103551     IErMin= 7 ErrMin= 4.79D-08
 ErrMax= 4.79D-08  0.00D+00 EMaxC= 1.00D-01 BMatC= 8.18D-13 BMatP= 2.57D-11
 IDIUse=1 WtCom= 1.00D+00 WtEn= 0.00D+00
 Coeff-Com:  0.114D-04-0.275D-02 0.110D-02 0.722D-01 0.184D+00 0.210D+00
 Coeff-Com:  0.535D+00
 Coeff:      0.114D-04-0.275D-02 0.110D-02 0.722D-01 0.184D+00 0.210D+00
 Coeff:      0.535D+00
 Gap=     0.181 Goal=   None    Shift=    0.000
 RMSDP=2.47D-09 MaxDP=8.85D-08 DE=-2.75D-11 OVMax= 2.61D-07

 SCF Done:  E(RB3LYP) =  -580.257336104     A.U. after   16 cycles
            NFock= 16  Conv=0.25D-08     -V/T= 2.0053
 KE= 5.771710518930D+02 PE=-3.203329222714D+03 EE= 1.116749891688D+03
 Leave Link  502 at Tue Mar 17 12:08:20 2026, MaxMem=   104857600 cpu:             840.9 elap:             842.0
 (Enter /sw/cluster/pub/apps//g16/l601.exe)
 Copying SCF densities to generalized density rwf, IOpCl= 0 IROHF=0.

 **********************************************************************

            Population analysis using the SCF density.

 **********************************************************************

 Alpha  occ. eigenvalues --  -10.19673 -10.18005 -10.17974 -10.17729 -10.17726
 Alpha  occ. eigenvalues --  -10.17605 -10.17603 -10.17585 -10.17585 -10.17512
 Alpha  occ. eigenvalues --  -10.17512 -10.17454 -10.17454 -10.16670 -10.16670
 Alpha  occ. eigenvalues --   -0.89448  -0.84907  -0.81728  -0.77854  -0.74659
 Alpha  occ. eigenvalues --   -0.73640  -0.71758  -0.69258  -0.64830  -0.62546
 Alpha  occ. eigenvalues --   -0.58797  -0.57963  -0.56188  -0.51428  -0.50008
 Alpha  occ. eigenvalues --   -0.47879  -0.45590  -0.45192  -0.44037  -0.43777
 Alpha  occ. eigenvalues --   -0.43379  -0.42329  -0.42209  -0.39747  -0.38673
 Alpha  occ. eigenvalues --   -0.38649  -0.38084  -0.35875  -0.35149  -0.34962
 Alpha  occ. eigenvalues --   -0.34555  -0.32466  -0.32382  -0.28908  -0.25589
 Alpha  occ. eigenvalues --   -0.25219  -0.22225
 Alpha virt. eigenvalues --   -0.04175  -0.02214  -0.00244   0.02832   0.03198
 Alpha virt. eigenvalues --    0.05240   0.05341   0.07188   0.07209   0.08372
 Alpha virt. eigenvalues --    0.08706   0.09847   0.10053   0.11426   0.11641
 Alpha virt. eigenvalues --    0.12372   0.12714   0.13398   0.14155   0.14217
 Alpha virt. eigenvalues --    0.15713   0.15862   0.16895   0.18305   0.19130
 Alpha virt. eigenvalues --    0.19189   0.19397   0.20417   0.20515   0.20882
 Alpha virt. eigenvalues --    0.21403   0.21586   0.22431   0.22538   0.23874
 Alpha virt. eigenvalues --    0.24408   0.24516   0.24750   0.27437   0.28891
 Alpha virt. eigenvalues --    0.29590   0.29818   0.29914   0.30118   0.31106
 Alpha virt. eigenvalues --    0.31120   0.32720   0.33250   0.33326   0.34372
 Alpha virt. eigenvalues --    0.34786   0.34867   0.35566   0.36034   0.36716
 Alpha virt. eigenvalues --    0.37051   0.37137   0.38482   0.39144   0.39898
 Alpha virt. eigenvalues --    0.40290   0.40633   0.41474   0.41674   0.42208
 Alpha virt. eigenvalues --    0.42780   0.43290   0.43327   0.43405   0.44052
 Alpha virt. eigenvalues --    0.45287   0.46092   0.46643   0.46797   0.47662
 Alpha virt. eigenvalues --    0.48010   0.48097   0.49446   0.49570   0.49847
 Alpha virt. eigenvalues --    0.50906   0.51396   0.52446   0.53227   0.55304
 Alpha virt. eigenvalues --    0.55770   0.56503   0.58018   0.58940   0.59534
 Alpha virt. eigenvalues --    0.59889   0.62607   0.62793   0.63952   0.65005
 Alpha virt. eigenvalues --    0.65727   0.65954   0.66838   0.67354   0.68064
 Alpha virt. eigenvalues --    0.69267   0.70603   0.70924   0.71202   0.71589
 Alpha virt. eigenvalues --    0.72993   0.73299   0.74906   0.75784   0.76812
 Alpha virt. eigenvalues --    0.77381   0.79176   0.80481   0.81328   0.81650
 Alpha virt. eigenvalues --    0.81799   0.85040   0.85640   0.86628   0.86775
 Alpha virt. eigenvalues --    0.86883   0.89112   0.90081   0.90189   0.90270
 Alpha virt. eigenvalues --    0.92051   0.92872   0.93110   0.94556   0.95950
 Alpha virt. eigenvalues --    0.97877   0.98885   0.99337   0.99946   1.00339
 Alpha virt. eigenvalues --    1.02312   1.04049   1.05334   1.05844   1.05868
 Alpha virt. eigenvalues --    1.08625   1.08704   1.08894   1.10000   1.11881
 Alpha virt. eigenvalues --    1.12448   1.13818   1.14097   1.14592   1.19364
 Alpha virt. eigenvalues --    1.19396   1.19951   1.21783   1.22057   1.22099
 Alpha virt. eigenvalues --    1.23378   1.24681   1.24982   1.25308   1.25894
 Alpha virt. eigenvalues --    1.27544   1.27547   1.30087   1.31533   1.33347
 Alpha virt. eigenvalues --    1.33354   1.35162   1.35268   1.37995   1.39133
 Alpha virt. eigenvalues --    1.39150   1.40170   1.41585   1.42267   1.44715
 Alpha virt. eigenvalues --    1.45549   1.45968   1.46777   1.48527   1.48701
 Alpha virt. eigenvalues --    1.48939   1.51091   1.52394   1.52437   1.54717
 Alpha virt. eigenvalues --    1.54921   1.55579   1.55955   1.57850   1.58552
 Alpha virt. eigenvalues --    1.59239   1.59842   1.60169   1.61142   1.61467
 Alpha virt. eigenvalues --    1.62883   1.63366   1.63919   1.66203   1.67911
 Alpha virt. eigenvalues --    1.68261   1.69949   1.70642   1.71295   1.72041
 Alpha virt. eigenvalues --    1.73895   1.74710   1.75504   1.75521   1.78631
 Alpha virt. eigenvalues --    1.79359   1.79461   1.81556   1.81575   1.84566
 Alpha virt. eigenvalues --    1.85375   1.88184   1.89349   1.89689   1.91637
 Alpha virt. eigenvalues --    1.94529   1.94733   1.97763   2.01198   2.02079
 Alpha virt. eigenvalues --    2.02431   2.03894   2.05192   2.05298   2.06506
 Alpha virt. eigenvalues --    2.07379   2.10606   2.11294   2.11419   2.13475
 Alpha virt. eigenvalues --    2.13837   2.13966   2.15596   2.16872   2.18337
 Alpha virt. eigenvalues --    2.19198   2.19585   2.21997   2.23216   2.24630
 Alpha virt. eigenvalues --    2.24807   2.24924   2.27011   2.28501   2.29428
 Alpha virt. eigenvalues --    2.31851   2.33363   2.33906   2.35165   2.35285
 Alpha virt. eigenvalues --    2.37997   2.39743   2.41350   2.42194   2.42960
 Alpha virt. eigenvalues --    2.44269   2.46170   2.46387   2.49337   2.49897
 Alpha virt. eigenvalues --    2.50198   2.51885   2.54604   2.54631   2.54788
 Alpha virt. eigenvalues --    2.55539   2.55923   2.59148   2.60884   2.61383
 Alpha virt. eigenvalues --    2.61855   2.64014   2.64181   2.65026   2.65395
 Alpha virt. eigenvalues --    2.65670   2.65723   2.65728   2.67660   2.67938
 Alpha virt. eigenvalues --    2.70148   2.72159   2.73325   2.73394   2.73774
 Alpha virt. eigenvalues --    2.74350   2.74407   2.74476   2.75940   2.76681
 Alpha virt. eigenvalues --    2.77410   2.79109   2.80214   2.80744   2.81258
 Alpha virt. eigenvalues --    2.81757   2.82905   2.84704   2.84906   2.85715
 Alpha virt. eigenvalues --    2.88253   2.89009   2.89069   2.90415   2.90653
 Alpha virt. eigenvalues --    2.92081   2.92329   2.93265   2.95274   2.95663
 Alpha virt. eigenvalues --    2.96573   2.98423   2.98614   3.01659   3.02280
 Alpha virt. eigenvalues --    3.03794   3.04491   3.05146   3.06422   3.06623
 Alpha virt. eigenvalues --    3.09463   3.09807   3.11987   3.13087   3.14331
 Alpha virt. eigenvalues --    3.14492   3.14845   3.16568   3.16874   3.17613
 Alpha virt. eigenvalues --    3.18368   3.19108   3.19596   3.20654   3.21418
 Alpha virt. eigenvalues --    3.21511   3.22646   3.23067   3.23890   3.26435
 Alpha virt. eigenvalues --    3.27779   3.28604   3.28736   3.29604   3.30388
 Alpha virt. eigenvalues --    3.32521   3.32785   3.32871   3.32932   3.33370
 Alpha virt. eigenvalues --    3.35761   3.35801   3.36121   3.36401   3.38096
 Alpha virt. eigenvalues --    3.38209   3.39216   3.39762   3.41759   3.43538
 Alpha virt. eigenvalues --    3.43705   3.46431   3.46487   3.47745   3.47842
 Alpha virt. eigenvalues --    3.47894   3.51327   3.51616   3.51680   3.52163
 Alpha virt. eigenvalues --    3.54064   3.54725   3.54760   3.57046   3.57308
 Alpha virt. eigenvalues --    3.58673   3.58898   3.59403   3.61809   3.62130
 Alpha virt. eigenvalues --    3.62762   3.64128   3.64938   3.67285   3.69400
 Alpha virt. eigenvalues --    3.69574   3.70336   3.74592   3.74811   3.77168
 Alpha virt. eigenvalues --    3.80518   3.82966   3.85028   3.86384   3.88111
 Alpha virt. eigenvalues --    3.88281   3.89924   3.90857   3.92774   3.95389
 Alpha virt. eigenvalues --    3.95566   3.96695   3.98918   3.99750   4.03972
 Alpha virt. eigenvalues --    4.04796   4.06178   4.10328   4.11446   4.11566
 Alpha virt. eigenvalues --    4.12139   4.13191   4.14763   4.15395   4.15828
 Alpha virt. eigenvalues --    4.18034   4.19680   4.20287   4.21013   4.23078
 Alpha virt. eigenvalues --    4.23787   4.26591   4.26909   4.27897   4.30374
 Alpha virt. eigenvalues --    4.30405   4.31732   4.32337   4.33435   4.35592
 Alpha virt. eigenvalues --    4.35937   4.36280   4.38702   4.41370   4.42206
 Alpha virt. eigenvalues --    4.43710   4.46987   4.47815   4.52343   4.52783
 Alpha virt. eigenvalues --    4.53972   4.59049   4.59235   4.61778   4.62691
 Alpha virt. eigenvalues --    4.63602   4.71584   4.75318   4.76312   4.76636
 Alpha virt. eigenvalues --    4.80536   4.81859   4.82684   4.82788   4.84760
 Alpha virt. eigenvalues --    4.91718   4.92220   4.92529   4.96198   4.98054
 Alpha virt. eigenvalues --    5.02010   5.02174   5.11473   5.11667   5.19607
 Alpha virt. eigenvalues --    5.26983   5.30410   5.34095   5.35921   5.42930
 Alpha virt. eigenvalues --    5.50042   5.57520   5.60151   5.61968   5.76091
 Alpha virt. eigenvalues --    5.77127   6.09592  22.03330  22.41831  22.47098
 Alpha virt. eigenvalues --   22.47964  22.59969  22.61995  22.65115  22.69527
 Alpha virt. eigenvalues --   22.71749  22.82912  22.97604  23.00519  23.11839
 Alpha virt. eigenvalues --   23.60306  23.78668
          Condensed to atoms (all electrons):
               1          2          3          4          5          6
     1  C    5.285757   0.200110  -0.058816  -0.058897   0.200153  -0.106986
     2  C    0.200110   5.368907   0.397749  -0.130658  -0.009174   0.023268
     3  C   -0.058816   0.397749   5.119988   0.329532  -0.130681   0.002892
     4  C   -0.058897  -0.130658   0.329532   5.119987   0.397774   0.015950
     5  C    0.200153  -0.009174  -0.130681   0.397774   5.368857   0.406321
     6  C   -0.106986   0.023268   0.002892   0.015950   0.406321   5.078568
     7  C    0.006314   0.000356  -0.005611  -0.083225   0.002948   0.461893
     8  C   -0.002169  -0.000860   0.004823  -0.012360  -0.081195   0.002858
     9  C    0.006793   0.018381  -0.106188   0.446008  -0.013114  -0.063932
    10  H   -0.000124   0.000153  -0.012651  -0.056801   0.012084  -0.002105
    11  H    0.000118  -0.000002  -0.000222   0.010572   0.000134   0.008696
    12  H   -0.000264   0.000015   0.000185  -0.000417   0.010664  -0.054960
    13  H   -0.003825   0.000141  -0.000340   0.015816  -0.071939   0.434008
    14  C    0.006799  -0.013093   0.446013  -0.106186   0.018377  -0.001579
    15  C   -0.002169  -0.081187  -0.012369   0.004826  -0.000863   0.000185
    16  C    0.006318   0.002961  -0.083238  -0.005615   0.000357   0.000002
    17  C   -0.107008   0.406318   0.015956   0.002897   0.023264  -0.000135
    18  H   -0.003824  -0.071931   0.015817  -0.000339   0.000140  -0.000083
    19  H   -0.000264   0.010664  -0.000416   0.000185   0.000015  -0.000001
    20  H    0.000118   0.000134   0.010571  -0.000222  -0.000002   0.000000
    21  H   -0.000124   0.012083  -0.056803  -0.012654   0.000153  -0.000203
    22  C    0.277879  -0.029755  -0.004673  -0.004677  -0.029743  -0.001371
    23  H   -0.034703  -0.006372   0.002039   0.002038  -0.006372  -0.000295
    24  H   -0.032064   0.016432  -0.000270  -0.000417  -0.024691   0.005996
    25  H   -0.032050  -0.024705  -0.000418  -0.000268   0.016425  -0.000441
    26  C    0.277871  -0.029752  -0.004674  -0.004679  -0.029735  -0.001375
    27  H   -0.032039  -0.024709  -0.000419  -0.000266   0.016418  -0.000441
    28  H   -0.032061   0.016431  -0.000269  -0.000418  -0.024685   0.005995
    29  H   -0.034694  -0.006378   0.002038   0.002041  -0.006377  -0.000295
               7          8          9         10         11         12
     1  C    0.006314  -0.002169   0.006793  -0.000124   0.000118  -0.000264
     2  C    0.000356  -0.000860   0.018381   0.000153  -0.000002   0.000015
     3  C   -0.005611   0.004823  -0.106188  -0.012651  -0.000222   0.000185
     4  C   -0.083225  -0.012360   0.446008  -0.056801   0.010572  -0.000417
     5  C    0.002948  -0.081195  -0.013114   0.012084   0.000134   0.010664
     6  C    0.461893   0.002858  -0.063932  -0.002105   0.008696  -0.054960
     7  C    4.902620   0.478587   0.000550   0.009250  -0.049035   0.427986
     8  C    0.478587   4.891143   0.475019  -0.049830   0.426214  -0.049328
     9  C    0.000550   0.475019   5.056491   0.429883  -0.053730   0.008999
    10  H    0.009250  -0.049830   0.429883   0.565268  -0.007027  -0.000304
    11  H   -0.049035   0.426214  -0.053730  -0.007027   0.566319  -0.007550
    12  H    0.427986  -0.049328   0.008999  -0.000304  -0.007550   0.566220
    13  H   -0.050259   0.010002  -0.002792   0.000079  -0.000328  -0.007085
    14  C    0.000186  -0.000547   0.005343   0.007170   0.000023  -0.000004
    15  C   -0.000021   0.000021  -0.000547  -0.000414   0.000000   0.000000
    16  C    0.000004  -0.000021   0.000186   0.000093  -0.000001   0.000000
    17  C    0.000002   0.000185  -0.001579  -0.000203   0.000000  -0.000001
    18  H    0.000006  -0.000004   0.000057   0.000001   0.000000  -0.000000
    19  H    0.000000   0.000000  -0.000004  -0.000000  -0.000000  -0.000000
    20  H   -0.000001   0.000000   0.000023  -0.000001   0.000000  -0.000000
    21  H    0.000093  -0.000414   0.007173   0.004338  -0.000001  -0.000000
    22  C    0.001593  -0.000384   0.000395   0.000045  -0.000003   0.000018
    23  H    0.000086  -0.000112   0.000095   0.000007  -0.000001   0.000005
    24  H   -0.000478   0.000115  -0.000113   0.000001   0.000000  -0.000007
    25  H   -0.000004   0.000007   0.000001  -0.000002   0.000000  -0.000002
    26  C    0.001593  -0.000384   0.000395   0.000045  -0.000003   0.000018
    27  H   -0.000004   0.000007   0.000001  -0.000002   0.000000  -0.000002
    28  H   -0.000478   0.000115  -0.000113   0.000001   0.000000  -0.000007
    29  H    0.000086  -0.000112   0.000095   0.000007  -0.000001   0.000005
              13         14         15         16         17         18
     1  C   -0.003825   0.006799  -0.002169   0.006318  -0.107008  -0.003824
     2  C    0.000141  -0.013093  -0.081187   0.002961   0.406318  -0.071931
     3  C   -0.000340   0.446013  -0.012369  -0.083238   0.015956   0.015817
     4  C    0.015816  -0.106186   0.004826  -0.005615   0.002897  -0.000339
     5  C   -0.071939   0.018377  -0.000863   0.000357   0.023264   0.000140
     6  C    0.434008  -0.001579   0.000185   0.000002  -0.000135  -0.000083
     7  C   -0.050259   0.000186  -0.000021   0.000004   0.000002   0.000006
     8  C    0.010002  -0.000547   0.000021  -0.000021   0.000185  -0.000004
     9  C   -0.002792   0.005343  -0.000547   0.000186  -0.001579   0.000057
    10  H    0.000079   0.007170  -0.000414   0.000093  -0.000203   0.000001
    11  H   -0.000328   0.000023   0.000000  -0.000001   0.000000   0.000000
    12  H   -0.007085  -0.000004   0.000000   0.000000  -0.000001  -0.000000
    13  H    0.570404   0.000057  -0.000004   0.000006  -0.000083  -0.000007
    14  C    0.000057   5.056474   0.475003   0.000546  -0.063940  -0.002792
    15  C   -0.000004   0.475003   4.891154   0.478588   0.002869   0.010001
    16  C    0.000006   0.000546   0.478588   4.902610   0.461895  -0.050257
    17  C   -0.000083  -0.063940   0.002869   0.461895   5.078562   0.433997
    18  H   -0.000007  -0.002792   0.010001  -0.050257   0.433997   0.570405
    19  H   -0.000000   0.008999  -0.049329   0.427982  -0.054959  -0.007086
    20  H    0.000000  -0.053728   0.426216  -0.049035   0.008696  -0.000328
    21  H    0.000001   0.429890  -0.049829   0.009250  -0.002105   0.000079
    22  C   -0.000309   0.000395  -0.000384   0.001594  -0.001373  -0.000309
    23  H    0.000015   0.000095  -0.000112   0.000086  -0.000295   0.000015
    24  H    0.002508   0.000001   0.000007  -0.000004  -0.000441  -0.000155
    25  H   -0.000155  -0.000113   0.000115  -0.000478   0.005999   0.002509
    26  C   -0.000309   0.000395  -0.000384   0.001593  -0.001373  -0.000310
    27  H   -0.000155  -0.000113   0.000115  -0.000478   0.006000   0.002508
    28  H    0.002507   0.000001   0.000007  -0.000004  -0.000441  -0.000155
    29  H    0.000015   0.000095  -0.000112   0.000086  -0.000295   0.000015
              19         20         21         22         23         24
     1  C   -0.000264   0.000118  -0.000124   0.277879  -0.034703  -0.032064
     2  C    0.010664   0.000134   0.012083  -0.029755  -0.006372   0.016432
     3  C   -0.000416   0.010571  -0.056803  -0.004673   0.002039  -0.000270
     4  C    0.000185  -0.000222  -0.012654  -0.004677   0.002038  -0.000417
     5  C    0.000015  -0.000002   0.000153  -0.029743  -0.006372  -0.024691
     6  C   -0.000001   0.000000  -0.000203  -0.001371  -0.000295   0.005996
     7  C    0.000000  -0.000001   0.000093   0.001593   0.000086  -0.000478
     8  C    0.000000   0.000000  -0.000414  -0.000384  -0.000112   0.000115
     9  C   -0.000004   0.000023   0.007173   0.000395   0.000095  -0.000113
    10  H   -0.000000  -0.000001   0.004338   0.000045   0.000007   0.000001
    11  H   -0.000000   0.000000  -0.000001  -0.000003  -0.000001   0.000000
    12  H   -0.000000  -0.000000  -0.000000   0.000018   0.000005  -0.000007
    13  H   -0.000000   0.000000   0.000001  -0.000309   0.000015   0.002508
    14  C    0.008999  -0.053728   0.429890   0.000395   0.000095   0.000001
    15  C   -0.049329   0.426216  -0.049829  -0.000384  -0.000112   0.000007
    16  C    0.427982  -0.049035   0.009250   0.001594   0.000086  -0.000004
    17  C   -0.054959   0.008696  -0.002105  -0.001373  -0.000295  -0.000441
    18  H   -0.007086  -0.000328   0.000079  -0.000309   0.000015  -0.000155
    19  H    0.566224  -0.007550  -0.000304   0.000018   0.000005  -0.000002
    20  H   -0.007550   0.566314  -0.007026  -0.000003  -0.000001   0.000000
    21  H   -0.000304  -0.007026   0.565262   0.000045   0.000007  -0.000002
    22  C    0.000018  -0.000003   0.000045   5.026491   0.405670   0.400889
    23  H    0.000005  -0.000001   0.000007   0.405670   0.549617  -0.022727
    24  H   -0.000002   0.000000  -0.000002   0.400889  -0.022727   0.576582
    25  H   -0.000007   0.000000   0.000001   0.400890  -0.022725  -0.026839
    26  C    0.000018  -0.000003   0.000045  -0.092453   0.011841  -0.004398
    27  H   -0.000007   0.000000   0.000001  -0.004391  -0.000173   0.000036
    28  H   -0.000002   0.000000  -0.000002  -0.004399  -0.000172   0.001889
    29  H    0.000005  -0.000001   0.000007   0.011840  -0.000458  -0.000172
              25         26         27         28         29
     1  C   -0.032050   0.277871  -0.032039  -0.032061  -0.034694
     2  C   -0.024705  -0.029752  -0.024709   0.016431  -0.006378
     3  C   -0.000418  -0.004674  -0.000419  -0.000269   0.002038
     4  C   -0.000268  -0.004679  -0.000266  -0.000418   0.002041
     5  C    0.016425  -0.029735   0.016418  -0.024685  -0.006377
     6  C   -0.000441  -0.001375  -0.000441   0.005995  -0.000295
     7  C   -0.000004   0.001593  -0.000004  -0.000478   0.000086
     8  C    0.000007  -0.000384   0.000007   0.000115  -0.000112
     9  C    0.000001   0.000395   0.000001  -0.000113   0.000095
    10  H   -0.000002   0.000045  -0.000002   0.000001   0.000007
    11  H    0.000000  -0.000003   0.000000   0.000000  -0.000001
    12  H   -0.000002   0.000018  -0.000002  -0.000007   0.000005
    13  H   -0.000155  -0.000309  -0.000155   0.002507   0.000015
    14  C   -0.000113   0.000395  -0.000113   0.000001   0.000095
    15  C    0.000115  -0.000384   0.000115   0.000007  -0.000112
    16  C   -0.000478   0.001593  -0.000478  -0.000004   0.000086
    17  C    0.005999  -0.001373   0.006000  -0.000441  -0.000295
    18  H    0.002509  -0.000310   0.002508  -0.000155   0.000015
    19  H   -0.000007   0.000018  -0.000007  -0.000002   0.000005
    20  H    0.000000  -0.000003   0.000000   0.000000  -0.000001
    21  H    0.000001   0.000045   0.000001  -0.000002   0.000007
    22  C    0.400890  -0.092453  -0.004391  -0.004399   0.011840
    23  H   -0.022725   0.011841  -0.000173  -0.000172  -0.000458
    24  H   -0.026839  -0.004398   0.000036   0.001889  -0.000172
    25  H    0.576575  -0.004392   0.001887   0.000036  -0.000172
    26  C   -0.004392   5.026509   0.400885   0.400883   0.405671
    27  H    0.001887   0.400885   0.576576  -0.026838  -0.022724
    28  H    0.000036   0.400883  -0.026838   0.576585  -0.022727
    29  H   -0.000172   0.405671  -0.022724  -0.022727   0.549612
 Mulliken charges:
               1
     1  C    0.273851
     2  C   -0.045524
     3  C    0.130455
     4  C    0.130473
     5  C   -0.045514
     6  C   -0.212429
     7  C   -0.105034
     8  C   -0.091373
     9  C   -0.213772
    10  H    0.101038
    11  H    0.105825
    12  H    0.105815
    13  H    0.102032
    14  C   -0.213767
    15  C   -0.091380
    16  C   -0.105026
    17  C   -0.212410
    18  H    0.102032
    19  H    0.105814
    20  H    0.105826
    21  H    0.101040
    22  C   -0.353534
    23  H    0.122899
    24  H    0.108323
    25  H    0.108327
    26  C   -0.353536
    27  H    0.108327
    28  H    0.108322
    29  H    0.122901
 Sum of Mulliken charges =  -0.00000
 Mulliken charges with hydrogens summed into heavy atoms:
               1
     1  C    0.273851
     2  C   -0.045524
     3  C    0.130455
     4  C    0.130473
     5  C   -0.045514
     6  C   -0.110397
     7  C    0.000781
     8  C    0.014452
     9  C   -0.112734
    14  C   -0.112727
    15  C    0.014446
    16  C    0.000787
    17  C   -0.110378
    22  C   -0.013985
    26  C   -0.013985
 Electronic spatial extent (au):  <R**2>=           2903.0974
 Charge=             -0.0000 electrons
 Dipole moment (field-independent basis, Debye):
    X=             -0.0000    Y=              0.4980    Z=             -0.0000  Tot=              0.4980
 Quadrupole moment (field-independent basis, Debye-Ang):
   XX=            -83.0090   YY=            -81.4261   ZZ=            -94.6596
   XY=             -0.0000   XZ=              0.0000   YZ=              0.0009
 Traceless Quadrupole moment (field-independent basis, Debye-Ang):
   XX=              3.3559   YY=              4.9388   ZZ=             -8.2946
   XY=             -0.0000   XZ=              0.0000   YZ=              0.0009
 Octapole moment (field-independent basis, Debye-Ang**2):
  XXX=             -0.0018  YYY=            -10.9744  ZZZ=              0.0005  XYY=              0.0006
  XXY=             -0.8181  XXZ=              0.0008  XZZ=              0.0004  YZZ=              4.9894
  YYZ=             -0.0014  XYZ=             -0.0000
 Hexadecapole moment (field-independent basis, Debye-Ang**3):
 XXXX=          -2290.0454 YYYY=          -1279.1268 ZZZZ=           -285.3241 XXXY=             -0.0013
 XXXZ=              0.0010 YYYX=              0.0010 YYYZ=             -0.0203 ZZZX=             -0.0003
 ZZZY=             -0.0299 XXYY=           -587.0766 XXZZ=           -516.0678 YYZZ=           -290.1193
 XXYZ=             -0.0024 YYXZ=              0.0005 ZZXY=              0.0001
 N-N= 9.291509430298D+02 E-N=-3.203329228147D+03  KE= 5.771710518930D+02
 No NMR shielding tensors so no spin-rotation constants.
 Leave Link  601 at Tue Mar 17 12:08:21 2026, MaxMem=   104857600 cpu:               0.2 elap:               0.2
 (Enter /sw/cluster/pub/apps//g16/l9999.exe)
 1\1\GINC-N07\SP\RB3LYP\def2TZVP\C15H14\UNKNOWN\17-Mar-2026\0\\#p B3LYP
 /def2TZVP nosymm density=current sp\\Generated by extraQ₂\\0,1\C,0,0
 .000045,1.412551,0.00007738\C,0,-1.177926,0.443999,0.00005538\C,0,-0.7
 32661,-0.887036,-0.00003971\C,0,0.732611,-0.887082,-0.00004871\C,0,1.1
 77914,0.443936,0.00004837\C,0,2.53441,0.725252,0.00008719\C,0,3.448231
 ,-0.328146,0.00001972\C,0,3.005208,-1.649,-0.00008083\C,0,1.644511,-1.
 938239,-0.00011606\H,0,1.30658,-2.96739799,-0.00019025\H,0,3.726662,-2
 .456487,-0.00012834\H,0,4.510494,-0.118267,0.00005177\H,0,2.892041,1.7
 4836099,0.00016606\C,0,-1.644528,-1.93822,-0.00011305\C,0,-3.005228,-1
 .648998,-0.00008183\C,0,-3.448227,-0.328137,0.00002272\C,0,-2.534425,0
 .725279,0.00009219\H,0,-2.892133,1.74836299,0.00018006\H,0,-4.510489,-
 0.118243,0.00005177\H,0,-3.726711,-2.456458,-0.00014034\H,0,-1.306503,
 -2.96734599,-0.00019024\C,0,0.000035,2.29762658,1.26151098\H,0,0.00014
 8,1.68992789,2.16713598\H,0,0.882718,2.94003555,1.28113881\H,0,-0.8827
 65,2.93986754,1.2812208\C,0,0.000019,2.29756042,-1.26143003\H,0,-0.882
 875,2.93967147,-1.28125922\H,0,0.882614,2.94008846,-1.28103219\H,0,0.0
 00287,1.6897971,-2.16701303\\Version=ES64L-G16RevA.03\HF=-580.2573361\
 RMSD=2.474e-09\Dipole=-0.0000114,0.1959431,-0.0000024\Quadrupole=2.495
 0081,3.6718596,-6.1668677,-0.0000351,0.0000209,0.000689\PG=C01 [X(C15H
 14)]\\@


 WORK FAITHFULLY FOR EIGHT HOURS A DAY AND DON'T WORRY.
 IN TIME YOU MAY BECOME BOSS AND WORK TWELVE HOURS A DAY
 AND HAVE ALL THE WORRY.
 Job cpu time:       0 days  0 hours 14 minutes 10.5 seconds.
 Elapsed time:       0 days  0 hours 14 minutes 11.6 seconds.
 File lengths (MBytes):  RWF=    168 Int=      0 D2E=      0 Chk=     19 Scr=      1
 Normal termination of Gaussian 16 at Tue Mar 17 12:08:21 2026.
