%chk=f1-def2TZVP_SP.chk
#p B3LYP/def2TZVP nosymm density=current sp

Generated by extraQ₂

0 1
C         0.00004500       1.41255100       0.00007738
C        -1.17792600       0.44399900       0.00005538
C        -0.73266100      -0.88703600      -0.00003971
C         0.73261100      -0.88708200      -0.00004871
C         1.17791400       0.44393600       0.00004837
C         2.53441000       0.72525200       0.00008719
C         3.44823100      -0.32814600       0.00001972
C         3.00520800      -1.64900000      -0.00008083
C         1.64451100      -1.93823900      -0.00011606
H         1.30658000      -2.96739799      -0.00019025
H         3.72666200      -2.45648700      -0.00012834
H         4.51049400      -0.11826700       0.00005177
H         2.89204100       1.74836099       0.00016606
C        -1.64452800      -1.93822000      -0.00011305
C        -3.00522800      -1.64899800      -0.00008183
C        -3.44822700      -0.32813700       0.00002272
C        -2.53442500       0.72527900       0.00009219
H        -2.89213300       1.74836299       0.00018006
H        -4.51048900      -0.11824300       0.00005177
H        -3.72671100      -2.45645800      -0.00014034
H        -1.30650300      -2.96734599      -0.00019024
C         0.00003500       2.29762658       1.26151098
H         0.00014800       1.68992789       2.16713598
H         0.88271800       2.94003555       1.28113881
H        -0.88276500       2.93986754       1.28122080
C         0.00001900       2.29756042      -1.26143003
H        -0.88287500       2.93967147      -1.28125922
H         0.88261400       2.94008846      -1.28103219
H         0.00028700       1.68979710      -2.16701303



