77
Generated from .fchk
C 0.000025 0.000007 0.891761
C -2.504334 1.045934 1.452813
H -0.563710 1.556576 2.254851
H -1.157839 -0.008925 2.726189
C 2.504272 -1.045910 1.452926
H -2.945054 1.562624 3.539850
H 0.563629 -1.556501 2.254963
H -2.443512 2.943466 2.548965
H -4.072095 2.269541 2.371330
H 1.157768 0.009019 2.726252
C 0.581316 1.029225 -0.079590
C 3.455245 0.150013 1.373165
C -2.717796 1.687665 0.080788
C 4.137322 0.166423 0.145430
C -3.682591 0.974762 -0.654735
C 0.359762 0.638189 -1.410939
C -0.359469 -0.638197 -1.410969
C -4.137441 -0.166429 0.145416
C 3.682446 -0.974795 -0.654669
C -3.455318 -0.149986 1.373124
C 2.717688 -1.687683 0.080917
C -0.581147 -1.029229 -0.079641
C -1.222543 -2.230184 0.194412
C 2.182131 -2.861841 -0.432312
C -3.738331 -1.102528 2.343013
C -1.653515 -3.032350 -0.864098
C -4.690060 -2.089471 2.073774
C 2.588326 -3.304021 -1.692788
C -5.355488 -2.114598 0.846430
C 3.529898 -2.583541 -2.430119
C -1.439539 -2.636874 -2.186022
C -0.789340 -1.437605 -2.468427
C 4.087380 -1.415985 -1.913876
C -5.087019 -1.150935 -0.124158
H -5.612587 -1.170632 -1.072612
H 4.829654 -0.866071 -2.482180
H -0.616001 -1.138007 -3.496044
H -1.781465 -3.269132 -2.998158
H 3.833871 -2.939657 -3.408325
H -6.092054 -2.886020 0.650556
H -2.166391 -3.964634 -0.656483
H -4.917167 -2.838326 2.824574
H 2.163865 -4.213057 -2.103398
H -1.404905 -2.547833 1.214490
H -3.232571 -1.090376 3.303577
H 1.446211 -3.430067 0.123501
C 0.789759 1.437574 -2.468360
C 5.086872 1.150935 -0.124216
C -4.087587 1.415928 -1.913931
C 1.439979 2.636822 -2.185900
C 5.355358 2.114642 0.846324
C -3.530139 2.583480 -2.430218
C 1.653862 3.032287 -0.863961
C 4.689968 2.089555 2.073689
C -2.588546 3.303987 -1.692939
C 3.738264 1.102606 2.343002
C -2.182285 2.861829 -0.432478
C 1.222761 2.230139 0.194514
H 3.232532 1.090493 3.303581
H -1.446360 3.430079 0.123305
H 1.405065 2.547779 1.214606
H 2.166766 3.964545 -0.656296
H 4.917083 2.838447 2.824451
H -2.164122 4.213026 -2.103582
H 1.782008 3.269059 -2.998010
H 6.091900 2.886071 0.650393
H -3.834161 2.939577 -3.408416
H 0.616517 1.137972 -3.495992
H 5.612402 1.170607 -1.072692
H -4.829888 0.866006 -2.482189
C 1.048238 -0.656395 1.863126
C -3.024699 2.017496 2.548131
C -1.048303 0.656452 1.863038
C 3.024639 -2.017432 2.548274
H 2.945034 -1.562511 3.539975
H 2.443427 -2.943387 2.549170
H 4.072023 -2.269516 2.371459