 Entering Gaussian System, Link 0=g16
 Initial command:
 /sw/cluster/pub/apps//g16/l1.exe "/data/mmaximo/44345/Gau-1910418.inp" -scrdir="/data/mmaximo/44345/"
 Entering Link 1 = /sw/cluster/pub/apps//g16/l1.exe PID=   1910419.
  
 Copyright (c) 1988,1990,1992,1993,1995,1998,2003,2009,2016,
            Gaussian, Inc.  All Rights Reserved.
  
 This is part of the Gaussian(R) 16 program.  It is based on
 the Gaussian(R) 09 system (copyright 2009, Gaussian, Inc.),
 the Gaussian(R) 03 system (copyright 2003, Gaussian, Inc.),
 the Gaussian(R) 98 system (copyright 1998, Gaussian, Inc.),
 the Gaussian(R) 94 system (copyright 1995, Gaussian, Inc.),
 the Gaussian 92(TM) system (copyright 1992, Gaussian, Inc.),
 the Gaussian 90(TM) system (copyright 1990, Gaussian, Inc.),
 the Gaussian 88(TM) system (copyright 1988, Gaussian, Inc.),
 the Gaussian 86(TM) system (copyright 1986, Carnegie Mellon
 University), and the Gaussian 82(TM) system (copyright 1983,
 Carnegie Mellon University). Gaussian is a federally registered
 trademark of Gaussian, Inc.
  
 This software contains proprietary and confidential information,
 including trade secrets, belonging to Gaussian, Inc.
  
 This software is provided under written license and may be
 used, copied, transmitted, or stored only in accord with that
 written license.
  
 The following legend is applicable only to US Government
 contracts under FAR:
  
                    RESTRICTED RIGHTS LEGEND
  
 Use, reproduction and disclosure by the US Government is
 subject to restrictions as set forth in subparagraphs (a)
 and (c) of the Commercial Computer Software - Restricted
 Rights clause in FAR 52.227-19.
  
 Gaussian, Inc.
 340 Quinnipiac St., Bldg. 40, Wallingford CT 06492
  
  
 ---------------------------------------------------------------
 Warning -- This program may not be used in any manner that
 competes with the business of Gaussian, Inc. or will provide
 assistance to any competitor of Gaussian, Inc.  The licensee
 of this program is prohibited from giving any competitor of
 Gaussian, Inc. access to this program.  By using this program,
 the user acknowledges that Gaussian, Inc. is engaged in the
 business of creating and licensing software in the field of
 computational chemistry and represents and warrants to the
 licensee that it is not a competitor of Gaussian, Inc. and that
 it will not use this program in any manner prohibited above.
 ---------------------------------------------------------------
  

 Cite this work as:
 Gaussian 16, Revision A.03,
 M. J. Frisch, G. W. Trucks, H. B. Schlegel, G. E. Scuseria, 
 M. A. Robb, J. R. Cheeseman, G. Scalmani, V. Barone, 
 G. A. Petersson, H. Nakatsuji, X. Li, M. Caricato, A. V. Marenich, 
 J. Bloino, B. G. Janesko, R. Gomperts, B. Mennucci, H. P. Hratchian, 
 J. V. Ortiz, A. F. Izmaylov, J. L. Sonnenberg, D. Williams-Young, 
 F. Ding, F. Lipparini, F. Egidi, J. Goings, B. Peng, A. Petrone, 
 T. Henderson, D. Ranasinghe, V. G. Zakrzewski, J. Gao, N. Rega, 
 G. Zheng, W. Liang, M. Hada, M. Ehara, K. Toyota, R. Fukuda, 
 J. Hasegawa, M. Ishida, T. Nakajima, Y. Honda, O. Kitao, H. Nakai, 
 T. Vreven, K. Throssell, J. A. Montgomery, Jr., J. E. Peralta, 
 F. Ogliaro, M. J. Bearpark, J. J. Heyd, E. N. Brothers, K. N. Kudin, 
 V. N. Staroverov, T. A. Keith, R. Kobayashi, J. Normand, 
 K. Raghavachari, A. P. Rendell, J. C. Burant, S. S. Iyengar, 
 J. Tomasi, M. Cossi, J. M. Millam, M. Klene, C. Adamo, R. Cammi, 
 J. W. Ochterski, R. L. Martin, K. Morokuma, O. Farkas, 
 J. B. Foresman, and D. J. Fox, Gaussian, Inc., Wallingford CT, 2016.
 
 ******************************************
 Gaussian 16:  ES64L-G16RevA.03 25-Dec-2016
                17-Mar-2026 
 ******************************************
 %chk=f3-6-311Gdp_SP.chk
 ----------------------------------------------
 #p B3LYP/6-311G(d,p) nosymm density=current sp
 ----------------------------------------------
 1/30=1,38=1,172=1/1;
 2/12=2,15=1,17=6,18=5,40=1/2;
 3/5=4,6=6,7=101,11=2,25=1,30=1,74=-5/1,2,3;
 4//1;
 5/5=2,38=5/2;
 6/7=2,8=2,9=2,10=2,22=-1,28=1/1;
 99/5=1,9=1/99;
 Leave Link    1 at Tue Mar 17 10:49:24 2026, MaxMem=           0 cpu:               0.0 elap:               0.0
 (Enter /sw/cluster/pub/apps//g16/l101.exe)
 ----------------------
 Generated by extraQ₂
 ----------------------
 Symbolic Z-matrix:
 Charge =  0 Multiplicity = 1
 C                     0.64581  -0.5042   -0.35206 
 C                     1.42551  -2.02236   1.83148 
 H                     2.61082  -0.922     0.39821 
 H                     1.81371  -2.32901  -0.24277 
 C                     0.67881   0.37935  -2.97852 
 H                     3.22767  -3.25684   1.61889 
 H                     0.65518  -1.62798  -2.17845 
 H                     3.51124  -1.70582   2.42762 
 H                     2.70929  -3.02515   3.29609 
 H                     2.13495  -0.75393  -1.90959 
 C                     0.71628   0.92385   0.19239 
 C                     1.55709   1.63204  -2.95952 
 C                     0.83758  -1.08826   2.89055 
 C                     0.77011   2.79544  -2.95952 
 C                    -0.30617  -1.66144   3.47652 
 C                    -0.542     1.34225   0.65731 
 C                    -1.50157   0.25352   0.45648 
 C                    -0.5595   -2.95997   2.84478 
 C                    -0.64213   2.4017   -2.95952 
 C                     0.43176  -3.18489   1.87543 
 C                    -0.7205    0.99675  -2.95432 
 C                    -0.83158  -0.8337   -0.12965 
 C                    -1.53124  -1.98917  -0.4524 
 C                    -1.95805   0.37068  -3.02777 
 C                     0.45191  -4.37414   1.15891 
 C                    -2.89803  -2.06067  -0.17599 
 C                    -0.53782  -5.33141   1.39639 
 C                    -3.11582   1.1496   -3.07435 
 C                    -1.53246  -5.0995    2.3486 
 C                    -3.03667   2.54343  -3.05777 
 C                    -3.55923  -0.98188   0.41452 
 C                    -2.86559   0.18346   0.73324 
 C                    -1.79848   3.17951  -3.00513 
 C                    -1.54754  -3.91445   3.08221 
 H                    -2.31787  -3.74304   3.82611 
 H                    -1.73892   4.26247  -3.00739 
 H                    -3.38395   1.02312   1.18278 
 H                    -4.62077  -1.05229   0.62526 
 H                    -3.94544   3.13418  -3.0931 
 H                    -2.29453  -5.85101   2.52316 
 H                    -3.44688  -2.96487  -0.41366 
 H                    -0.53105  -6.26286   0.84104 
 H                    -4.08485   0.66574  -3.11885 
 H                    -1.03175  -2.83918  -0.90264 
 H                     1.22327  -4.56936   0.42031 
 H                    -2.03819  -0.70955  -3.03553 
 C                    -0.70955   2.60818   1.21534 
 C                     1.36765   4.05479  -2.98406 
 C                    -0.97364  -1.01534   4.51635 
 C                     0.39316   3.45415   1.31104 
 C                     2.75835   4.14231  -3.01673 
 C                    -0.48321   0.20454   4.97663 
 C                     1.64659   3.03796   0.85789 
 C                     3.54141   2.98631  -3.03357 
 C                     0.66386   0.76461   4.41108 
 C                     2.94169   1.72454  -3.00872 
 C                     1.33175   0.11818   3.36927 
 C                     1.81289   1.76938   0.29868 
 H                     3.56164   0.83353  -3.02853 
 H                     2.21692   0.56991   2.93821 
 H                     2.79086   1.46579  -0.05645 
 H                     2.49617   3.70736   0.93159 
 H                     4.62209   3.06877  -3.07099 
 H                     1.03814   1.7128    4.77982 
 H                     0.27843   4.443     1.74142 
 H                     3.23668   5.11534  -3.03659 
 H                    -0.99127   0.71994   5.78431 
 H                    -1.67957   2.93068   1.57708 
 H                     0.76423   4.95591  -2.97909 
 H                    -1.8563   -1.45568   4.96731 
 C                     1.04507  -0.65392  -1.86577 
 C                     2.80659  -2.53539   2.32527 
 C                     1.65341  -1.45296   0.39487 
 C                     0.88421  -0.34625  -4.3371 
 H                     1.89954  -0.74622  -4.41373 
 H                     0.18082  -1.17681  -4.44011 
 H                     0.7254    0.34342  -5.16834 
 
 ITRead=  0  0  0  0  0  0  0  0  0  0  0  0  0  0  0  0  0  0  0  0
 ITRead=  0  0  0  0  0  0  0  0  0  0  0  0  0  0  0  0  0  0  0  0
 ITRead=  0  0  0  0  0  0  0  0  0  0  0  0  0  0  0  0  0  0  0  0
 ITRead=  0  0  0  0  0  0  0  0  0  0  0  0  0  0  0  0  0
 MicOpt= -1 -1 -1 -1 -1 -1 -1 -1 -1 -1 -1 -1 -1 -1 -1 -1 -1 -1 -1 -1
 MicOpt= -1 -1 -1 -1 -1 -1 -1 -1 -1 -1 -1 -1 -1 -1 -1 -1 -1 -1 -1 -1
 MicOpt= -1 -1 -1 -1 -1 -1 -1 -1 -1 -1 -1 -1 -1 -1 -1 -1 -1 -1 -1 -1
 MicOpt= -1 -1 -1 -1 -1 -1 -1 -1 -1 -1 -1 -1 -1 -1 -1 -1 -1
 NAtoms=     77 NQM=       77 NQMF=       0 NMMI=      0 NMMIF=      0
                NMic=       0 NMicF=      0.
                    Isotopes and Nuclear Properties:
 (Nuclear quadrupole moments (NQMom) in fm**2, nuclear magnetic moments (NMagM)
  in nuclear magnetons)

  Atom         1           2           3           4           5           6           7           8           9          10
 IAtWgt=          12          12           1           1          12           1           1           1           1           1
 AtmWgt=  12.0000000  12.0000000   1.0078250   1.0078250  12.0000000   1.0078250   1.0078250   1.0078250   1.0078250   1.0078250
 NucSpn=           0           0           1           1           0           1           1           1           1           1
 AtZEff=  -0.0000000  -0.0000000  -0.0000000  -0.0000000  -0.0000000  -0.0000000  -0.0000000  -0.0000000  -0.0000000  -0.0000000
 NQMom=    0.0000000   0.0000000   0.0000000   0.0000000   0.0000000   0.0000000   0.0000000   0.0000000   0.0000000   0.0000000
 NMagM=    0.0000000   0.0000000   2.7928460   2.7928460   0.0000000   2.7928460   2.7928460   2.7928460   2.7928460   2.7928460
 AtZNuc=   6.0000000   6.0000000   1.0000000   1.0000000   6.0000000   1.0000000   1.0000000   1.0000000   1.0000000   1.0000000

  Atom        11          12          13          14          15          16          17          18          19          20
 IAtWgt=          12          12          12          12          12          12          12          12          12          12
 AtmWgt=  12.0000000  12.0000000  12.0000000  12.0000000  12.0000000  12.0000000  12.0000000  12.0000000  12.0000000  12.0000000
 NucSpn=           0           0           0           0           0           0           0           0           0           0
 AtZEff=  -0.0000000  -0.0000000  -0.0000000  -0.0000000  -0.0000000  -0.0000000  -0.0000000  -0.0000000  -0.0000000  -0.0000000
 NQMom=    0.0000000   0.0000000   0.0000000   0.0000000   0.0000000   0.0000000   0.0000000   0.0000000   0.0000000   0.0000000
 NMagM=    0.0000000   0.0000000   0.0000000   0.0000000   0.0000000   0.0000000   0.0000000   0.0000000   0.0000000   0.0000000
 AtZNuc=   6.0000000   6.0000000   6.0000000   6.0000000   6.0000000   6.0000000   6.0000000   6.0000000   6.0000000   6.0000000

  Atom        21          22          23          24          25          26          27          28          29          30
 IAtWgt=          12          12          12          12          12          12          12          12          12          12
 AtmWgt=  12.0000000  12.0000000  12.0000000  12.0000000  12.0000000  12.0000000  12.0000000  12.0000000  12.0000000  12.0000000
 NucSpn=           0           0           0           0           0           0           0           0           0           0
 AtZEff=  -0.0000000  -0.0000000  -0.0000000  -0.0000000  -0.0000000  -0.0000000  -0.0000000  -0.0000000  -0.0000000  -0.0000000
 NQMom=    0.0000000   0.0000000   0.0000000   0.0000000   0.0000000   0.0000000   0.0000000   0.0000000   0.0000000   0.0000000
 NMagM=    0.0000000   0.0000000   0.0000000   0.0000000   0.0000000   0.0000000   0.0000000   0.0000000   0.0000000   0.0000000
 AtZNuc=   6.0000000   6.0000000   6.0000000   6.0000000   6.0000000   6.0000000   6.0000000   6.0000000   6.0000000   6.0000000

  Atom        31          32          33          34          35          36          37          38          39          40
 IAtWgt=          12          12          12          12           1           1           1           1           1           1
 AtmWgt=  12.0000000  12.0000000  12.0000000  12.0000000   1.0078250   1.0078250   1.0078250   1.0078250   1.0078250   1.0078250
 NucSpn=           0           0           0           0           1           1           1           1           1           1
 AtZEff=  -0.0000000  -0.0000000  -0.0000000  -0.0000000  -0.0000000  -0.0000000  -0.0000000  -0.0000000  -0.0000000  -0.0000000
 NQMom=    0.0000000   0.0000000   0.0000000   0.0000000   0.0000000   0.0000000   0.0000000   0.0000000   0.0000000   0.0000000
 NMagM=    0.0000000   0.0000000   0.0000000   0.0000000   2.7928460   2.7928460   2.7928460   2.7928460   2.7928460   2.7928460
 AtZNuc=   6.0000000   6.0000000   6.0000000   6.0000000   1.0000000   1.0000000   1.0000000   1.0000000   1.0000000   1.0000000

  Atom        41          42          43          44          45          46          47          48          49          50
 IAtWgt=           1           1           1           1           1           1          12          12          12          12
 AtmWgt=   1.0078250   1.0078250   1.0078250   1.0078250   1.0078250   1.0078250  12.0000000  12.0000000  12.0000000  12.0000000
 NucSpn=           1           1           1           1           1           1           0           0           0           0
 AtZEff=  -0.0000000  -0.0000000  -0.0000000  -0.0000000  -0.0000000  -0.0000000  -0.0000000  -0.0000000  -0.0000000  -0.0000000
 NQMom=    0.0000000   0.0000000   0.0000000   0.0000000   0.0000000   0.0000000   0.0000000   0.0000000   0.0000000   0.0000000
 NMagM=    2.7928460   2.7928460   2.7928460   2.7928460   2.7928460   2.7928460   0.0000000   0.0000000   0.0000000   0.0000000
 AtZNuc=   1.0000000   1.0000000   1.0000000   1.0000000   1.0000000   1.0000000   6.0000000   6.0000000   6.0000000   6.0000000

  Atom        51          52          53          54          55          56          57          58          59          60
 IAtWgt=          12          12          12          12          12          12          12          12           1           1
 AtmWgt=  12.0000000  12.0000000  12.0000000  12.0000000  12.0000000  12.0000000  12.0000000  12.0000000   1.0078250   1.0078250
 NucSpn=           0           0           0           0           0           0           0           0           1           1
 AtZEff=  -0.0000000  -0.0000000  -0.0000000  -0.0000000  -0.0000000  -0.0000000  -0.0000000  -0.0000000  -0.0000000  -0.0000000
 NQMom=    0.0000000   0.0000000   0.0000000   0.0000000   0.0000000   0.0000000   0.0000000   0.0000000   0.0000000   0.0000000
 NMagM=    0.0000000   0.0000000   0.0000000   0.0000000   0.0000000   0.0000000   0.0000000   0.0000000   2.7928460   2.7928460
 AtZNuc=   6.0000000   6.0000000   6.0000000   6.0000000   6.0000000   6.0000000   6.0000000   6.0000000   1.0000000   1.0000000

  Atom        61          62          63          64          65          66          67          68          69          70
 IAtWgt=           1           1           1           1           1           1           1           1           1           1
 AtmWgt=   1.0078250   1.0078250   1.0078250   1.0078250   1.0078250   1.0078250   1.0078250   1.0078250   1.0078250   1.0078250
 NucSpn=           1           1           1           1           1           1           1           1           1           1
 AtZEff=  -0.0000000  -0.0000000  -0.0000000  -0.0000000  -0.0000000  -0.0000000  -0.0000000  -0.0000000  -0.0000000  -0.0000000
 NQMom=    0.0000000   0.0000000   0.0000000   0.0000000   0.0000000   0.0000000   0.0000000   0.0000000   0.0000000   0.0000000
 NMagM=    2.7928460   2.7928460   2.7928460   2.7928460   2.7928460   2.7928460   2.7928460   2.7928460   2.7928460   2.7928460
 AtZNuc=   1.0000000   1.0000000   1.0000000   1.0000000   1.0000000   1.0000000   1.0000000   1.0000000   1.0000000   1.0000000

  Atom        71          72          73          74          75          76          77
 IAtWgt=          12          12          12          12           1           1           1
 AtmWgt=  12.0000000  12.0000000  12.0000000  12.0000000   1.0078250   1.0078250   1.0078250
 NucSpn=           0           0           0           0           1           1           1
 AtZEff=  -0.0000000  -0.0000000  -0.0000000  -0.0000000  -0.0000000  -0.0000000  -0.0000000
 NQMom=    0.0000000   0.0000000   0.0000000   0.0000000   0.0000000   0.0000000   0.0000000
 NMagM=    0.0000000   0.0000000   0.0000000   0.0000000   2.7928460   2.7928460   2.7928460
 AtZNuc=   6.0000000   6.0000000   6.0000000   6.0000000   1.0000000   1.0000000   1.0000000
 Leave Link  101 at Tue Mar 17 10:49:24 2026, MaxMem=   104857600 cpu:               0.0 elap:               0.0
 (Enter /sw/cluster/pub/apps//g16/l202.exe)
 Symmetry turned off by external request.
 Stoichiometry    C43H34
 Framework group  C1[X(C43H34)]
 Deg. of freedom   225
 Full point group                 C1      NOp   1
                          Input orientation:                          
 ---------------------------------------------------------------------
 Center     Atomic      Atomic             Coordinates (Angstroms)
 Number     Number       Type             X           Y           Z
 ---------------------------------------------------------------------
      1          6           0        0.645812   -0.504203   -0.352056
      2          6           0        1.425506   -2.022361    1.831481
      3          1           0        2.610823   -0.921999    0.398209
      4          1           0        1.813707   -2.329014   -0.242772
      5          6           0        0.678809    0.379354   -2.978525
      6          1           0        3.227668   -3.256843    1.618893
      7          1           0        0.655178   -1.627979   -2.178453
      8          1           0        3.511243   -1.705819    2.427616
      9          1           0        2.709288   -3.025149    3.296090
     10          1           0        2.134949   -0.753933   -1.909590
     11          6           0        0.716282    0.923847    0.192386
     12          6           0        1.557086    1.632036   -2.959518
     13          6           0        0.837580   -1.088260    2.890554
     14          6           0        0.770110    2.795436   -2.959518
     15          6           0       -0.306169   -1.661442    3.476519
     16          6           0       -0.541997    1.342254    0.657310
     17          6           0       -1.501566    0.253516    0.456482
     18          6           0       -0.559502   -2.959971    2.844783
     19          6           0       -0.642129    2.401697   -2.959518
     20          6           0        0.431757   -3.184892    1.875430
     21          6           0       -0.720501    0.996747   -2.954323
     22          6           0       -0.831576   -0.833702   -0.129651
     23          6           0       -1.531235   -1.989167   -0.452396
     24          6           0       -1.958046    0.370679   -3.027768
     25          6           0        0.451914   -4.374140    1.158910
     26          6           0       -2.898032   -2.060670   -0.175985
     27          6           0       -0.537818   -5.331411    1.396389
     28          6           0       -3.115818    1.149595   -3.074349
     29          6           0       -1.532460   -5.099498    2.348598
     30          6           0       -3.036668    2.543427   -3.057772
     31          6           0       -3.559234   -0.981883    0.414525
     32          6           0       -2.865589    0.183465    0.733239
     33          6           0       -1.798481    3.179510   -3.005128
     34          6           0       -1.547541   -3.914448    3.082214
     35          1           0       -2.317874   -3.743040    3.826110
     36          1           0       -1.738921    4.262466   -3.007390
     37          1           0       -3.383947    1.023118    1.182782
     38          1           0       -4.620772   -1.052291    0.625258
     39          1           0       -3.945439    3.134183   -3.093095
     40          1           0       -2.294532   -5.851005    2.523156
     41          1           0       -3.446879   -2.964869   -0.413663
     42          1           0       -0.531054   -6.262865    0.841042
     43          1           0       -4.084848    0.665742   -3.118853
     44          1           0       -1.031754   -2.839178   -0.902635
     45          1           0        1.223269   -4.569355    0.420312
     46          1           0       -2.038193   -0.709554   -3.035530
     47          6           0       -0.709547    2.608185    1.215342
     48          6           0        1.367651    4.054785   -2.984057
     49          6           0       -0.973644   -1.015341    4.516354
     50          6           0        0.393156    3.454148    1.311036
     51          6           0        2.758348    4.142306   -3.016729
     52          6           0       -0.483212    0.204535    4.976634
     53          6           0        1.646594    3.037962    0.857887
     54          6           0        3.541413    2.986311   -3.033574
     55          6           0        0.663857    0.764613    4.411077
     56          6           0        2.941693    1.724543   -3.008722
     57          6           0        1.331745    0.118185    3.369267
     58          6           0        1.812890    1.769385    0.298676
     59          1           0        3.561641    0.833535   -3.028534
     60          1           0        2.216916    0.569909    2.938213
     61          1           0        2.790865    1.465790   -0.056448
     62          1           0        2.496168    3.707358    0.931588
     63          1           0        4.622091    3.068768   -3.070986
     64          1           0        1.038141    1.712800    4.779817
     65          1           0        0.278431    4.443004    1.741423
     66          1           0        3.236680    5.115337   -3.036593
     67          1           0       -0.991268    0.719935    5.784314
     68          1           0       -1.679569    2.930683    1.577079
     69          1           0        0.764225    4.955911   -2.979086
     70          1           0       -1.856299   -1.455679    4.967313
     71          6           0        1.045070   -0.653921   -1.865774
     72          6           0        2.806594   -2.535394    2.325269
     73          6           0        1.653410   -1.452960    0.394870
     74          6           0        0.884205   -0.346249   -4.337103
     75          1           0        1.899543   -0.746224   -4.413726
     76          1           0        0.180816   -1.176812   -4.440107
     77          1           0        0.725398    0.343423   -5.168341
 ---------------------------------------------------------------------
 Rotational constants (GHZ):           0.1474531           0.0748356           0.0693386
 Leave Link  202 at Tue Mar 17 10:49:24 2026, MaxMem=   104857600 cpu:               0.0 elap:               0.0
 (Enter /sw/cluster/pub/apps//g16/l301.exe)
 Standard basis: 6-311G(d,p) (5D, 7F)
 Ernie: Thresh=  0.10000D-02 Tol=  0.10000D-05 Strict=F.
   978 basis functions,  1648 primitive gaussians,  1021 cartesian basis functions
   146 alpha electrons      146 beta electrons
       nuclear repulsion energy      5172.3970604184 Hartrees.
 IExCor=  402 DFT=T Ex+Corr=B3LYP ExCW=0 ScaHFX=  0.200000
 ScaDFX=  0.800000  0.720000  1.000000  0.810000 ScalE2=  1.000000  1.000000
 IRadAn=      5 IRanWt=     -1 IRanGd=            0 ICorTp=0 IEmpDi=  4
 NAtoms=   77 NActive=   77 NUniq=   77 SFac= 1.00D+00 NAtFMM=   60 NAOKFM=T Big=T
 Integral buffers will be    131072 words long.
 Raffenetti 2 integral format.
 Two-electron integral symmetry is turned off.
 Leave Link  301 at Tue Mar 17 10:49:24 2026, MaxMem=   104857600 cpu:               0.0 elap:               0.0
 (Enter /sw/cluster/pub/apps//g16/l302.exe)
 NPDir=0 NMtPBC=     1 NCelOv=     1 NCel=       1 NClECP=     1 NCelD=      1
         NCelK=      1 NCelE2=     1 NClLst=     1 CellRange=     0.0.
 One-electron integrals computed using PRISM.
 NBasis=   978 RedAO= T EigKep=  1.02D-04  NBF=   978
 NBsUse=   978 1.00D-06 EigRej= -1.00D+00 NBFU=   978
 Precomputing XC quadrature grid using
 IXCGrd= 4 IRadAn=           5 IRanWt=          -1 IRanGd=           0 AccXCQ= 0.00D+00.
 Generated NRdTot=       0 NPtTot=           0 NUsed=           0 NTot=          32
 NSgBfM=  1012  1012  1012  1012  1012 MxSgAt=    77 MxSgA2=    77.
 Leave Link  302 at Tue Mar 17 10:49:28 2026, MaxMem=   104857600 cpu:               3.9 elap:               4.0
 (Enter /sw/cluster/pub/apps//g16/l303.exe)
 DipDrv:  MaxL=1.
 Leave Link  303 at Tue Mar 17 10:49:28 2026, MaxMem=   104857600 cpu:               0.1 elap:               0.1
 (Enter /sw/cluster/pub/apps//g16/l401.exe)
 ExpMin= 1.03D-01 ExpMax= 4.56D+03 ExpMxC= 6.82D+02 IAcc=3 IRadAn=         5 AccDes= 0.00D+00
 Harris functional with IExCor=  402 and IRadAn=       5 diagonalized for initial guess.
 HarFok:  IExCor=  402 AccDes= 0.00D+00 IRadAn=         5 IDoV= 1 UseB2=F ITyADJ=14
 ICtDFT=  3500011 ScaDFX=  1.000000  1.000000  1.000000  1.000000
 FoFCou: FMM=F IPFlag=           0 FMFlag=      100000 FMFlg1=        2001
         NFxFlg=           0 DoJE=T BraDBF=F KetDBF=T FulRan=T
         wScrn=  0.000000 ICntrl=       500 IOpCl=  0 I1Cent=   200000004 NGrid=           0
         NMat0=    1 NMatS0=      1 NMatT0=    0 NMatD0=    1 NMtDS0=    0 NMtDT0=    0
 Symmetry not used in FoFCou.
 Harris En= -1659.57279741230    
 JPrj=0 DoOrth=F DoCkMO=F.
 Leave Link  401 at Tue Mar 17 10:49:59 2026, MaxMem=   104857600 cpu:              30.7 elap:              30.8
 (Enter /sw/cluster/pub/apps//g16/l502.exe)
 Two-electron integral symmetry not used.
 Closed shell SCF:
 Using DIIS extrapolation, IDIIS=  1040.
 NGot=   104857600 LenX=   102758928 LenY=   101715466
 Requested convergence on RMS density matrix=1.00D-08 within 128 cycles.
 Requested convergence on MAX density matrix=1.00D-06.
 Requested convergence on             energy=1.00D-06.
 No special actions if energy rises.
 Fock matrices will be formed incrementally for  20 cycles.
 Integral accuracy reduced to 1.0D-05 until final iterations.

 Cycle   1  Pass 0  IDiag  1:
 FoFJK:  IHMeth= 1 ICntrl=       0 DoSepK=F KAlg= 0 I1Cent=           0 FoldK=F
 IRaf= 840000000 NMat=       1 IRICut=       1 DoRegI=T DoRafI=F ISym2E= 0 IDoP0=0 IntGTp=1.
 FoFCou: FMM=T IPFlag=           0 FMFlag=      100000 FMFlg1=        2001
         NFxFlg=           0 DoJE=F BraDBF=F KetDBF=F FulRan=T
         wScrn=  0.000000 ICntrl=         0 IOpCl=  0 I1Cent=           0 NGrid=           0
         NMat0=    1 NMatS0=      1 NMatT0=    0 NMatD0=    1 NMtDS0=    0 NMtDT0=    0
 Symmetry not used in FoFCou.
 FMM levels:  10  Number of levels for PrismC:   9
 E= -1658.46199275119    
 DIIS: error= 3.28D-02 at cycle   1 NSaved=   1.
 NSaved= 1 IEnMin= 1 EnMin= -1658.46199275119     IErMin= 1 ErrMin= 3.28D-02
 ErrMax= 3.28D-02  0.00D+00 EMaxC= 1.00D-01 BMatC= 1.02D+00 BMatP= 1.02D+00
 IDIUse=3 WtCom= 6.72D-01 WtEn= 3.28D-01
 Coeff-Com:  0.100D+01
 Coeff-En:   0.100D+01
 Coeff:      0.100D+01
 Gap=     0.180 Goal=   None    Shift=    0.000
 GapD=    0.180 DampG=1.000 DampE=0.500 DampFc=0.5000 IDamp=-1.
 Damping current iteration by 5.00D-01
 RMSDP=2.00D-03 MaxDP=1.24D-01              OVMax= 1.55D-01

 Cycle   2  Pass 0  IDiag  1:
 RMSU=  9.77D-04    CP:  9.63D-01
 E= -1658.92933816442     Delta-E=       -0.467345413223 Rises=F Damp=T
 DIIS: error= 5.06D-03 at cycle   2 NSaved=   2.
 NSaved= 2 IEnMin= 2 EnMin= -1658.92933816442     IErMin= 2 ErrMin= 5.06D-03
 ErrMax= 5.06D-03  0.00D+00 EMaxC= 1.00D-01 BMatC= 5.73D-02 BMatP= 1.02D+00
 IDIUse=3 WtCom= 9.49D-01 WtEn= 5.06D-02
 Coeff-Com: -0.162D-01 0.102D+01
 Coeff-En:   0.266D-01 0.973D+00
 Coeff:     -0.140D-01 0.101D+01
 Gap=     0.263 Goal=   None    Shift=    0.000
 RMSDP=6.87D-04 MaxDP=2.09D-02 DE=-4.67D-01 OVMax= 9.86D-02

 Cycle   3  Pass 0  IDiag  1:
 RMSU=  6.51D-04    CP:  9.62D-01  7.78D-01
 E= -1659.44132308218     Delta-E=       -0.511984917760 Rises=F Damp=F
 DIIS: error= 5.08D-03 at cycle   3 NSaved=   3.
 NSaved= 3 IEnMin= 3 EnMin= -1659.44132308218     IErMin= 2 ErrMin= 5.06D-03
 ErrMax= 5.08D-03  0.00D+00 EMaxC= 1.00D-01 BMatC= 2.57D-02 BMatP= 5.73D-02
 IDIUse=3 WtCom= 9.49D-01 WtEn= 5.08D-02
 Coeff-Com: -0.657D-01 0.397D+00 0.669D+00
 Coeff-En:   0.000D+00 0.000D+00 0.100D+01
 Coeff:     -0.623D-01 0.377D+00 0.686D+00
 Gap=     0.185 Goal=   None    Shift=    0.000
 RMSDP=4.00D-04 MaxDP=2.08D-02 DE=-5.12D-01 OVMax= 4.80D-02

 Cycle   4  Pass 0  IDiag  1:
 RMSU=  2.44D-04    CP:  9.57D-01  9.37D-01  5.79D-01
 E= -1659.45120886034     Delta-E=       -0.009885778164 Rises=F Damp=F
 DIIS: error= 6.88D-03 at cycle   4 NSaved=   4.
 NSaved= 4 IEnMin= 4 EnMin= -1659.45120886034     IErMin= 2 ErrMin= 5.06D-03
 ErrMax= 6.88D-03  0.00D+00 EMaxC= 1.00D-01 BMatC= 1.65D-02 BMatP= 2.57D-02
 IDIUse=3 WtCom= 9.31D-01 WtEn= 6.88D-02
 Coeff-Com: -0.462D-01 0.199D+00 0.475D+00 0.372D+00
 Coeff-En:   0.000D+00 0.000D+00 0.394D+00 0.606D+00
 Coeff:     -0.430D-01 0.186D+00 0.469D+00 0.388D+00
 Gap=     0.177 Goal=   None    Shift=    0.000
 RMSDP=1.67D-04 MaxDP=5.92D-03 DE=-9.89D-03 OVMax= 3.22D-02

 Cycle   5  Pass 0  IDiag  1:
 RMSU=  7.95D-05    CP:  9.57D-01  9.10D-01  7.10D-01  5.26D-01
 E= -1659.46712254861     Delta-E=       -0.015913688266 Rises=F Damp=F
 DIIS: error= 2.13D-03 at cycle   5 NSaved=   5.
 NSaved= 5 IEnMin= 5 EnMin= -1659.46712254861     IErMin= 5 ErrMin= 2.13D-03
 ErrMax= 2.13D-03  0.00D+00 EMaxC= 1.00D-01 BMatC= 1.31D-03 BMatP= 1.65D-02
 IDIUse=3 WtCom= 9.79D-01 WtEn= 2.13D-02
 Coeff-Com: -0.147D-01 0.423D-01 0.159D+00 0.245D+00 0.568D+00
 Coeff-En:   0.000D+00 0.000D+00 0.000D+00 0.839D-01 0.916D+00
 Coeff:     -0.144D-01 0.413D-01 0.155D+00 0.242D+00 0.576D+00
 Gap=     0.177 Goal=   None    Shift=    0.000
 RMSDP=4.83D-05 MaxDP=2.36D-03 DE=-1.59D-02 OVMax= 9.44D-03

 Cycle   6  Pass 0  IDiag  1:
 RMSU=  3.06D-05    CP:  9.57D-01  9.11D-01  7.02D-01  5.96D-01  5.90D-01
 E= -1659.46832401991     Delta-E=       -0.001201471308 Rises=F Damp=F
 DIIS: error= 7.35D-04 at cycle   6 NSaved=   6.
 NSaved= 6 IEnMin= 6 EnMin= -1659.46832401991     IErMin= 6 ErrMin= 7.35D-04
 ErrMax= 7.35D-04  0.00D+00 EMaxC= 1.00D-01 BMatC= 1.84D-04 BMatP= 1.31D-03
 IDIUse=3 WtCom= 9.93D-01 WtEn= 7.35D-03
 Coeff-Com: -0.588D-02 0.118D-01 0.645D-01 0.127D+00 0.381D+00 0.422D+00
 Coeff-En:   0.000D+00 0.000D+00 0.000D+00 0.000D+00 0.114D+00 0.886D+00
 Coeff:     -0.584D-02 0.118D-01 0.640D-01 0.126D+00 0.379D+00 0.425D+00
 Gap=     0.176 Goal=   None    Shift=    0.000
 RMSDP=1.82D-05 MaxDP=9.58D-04 DE=-1.20D-03 OVMax= 3.49D-03

 Cycle   7  Pass 0  IDiag  1:
 RMSU=  8.82D-06    CP:  9.57D-01  9.11D-01  7.05D-01  5.89D-01  6.62D-01
                    CP:  5.24D-01
 E= -1659.46853860297     Delta-E=       -0.000214583050 Rises=F Damp=F
 DIIS: error= 1.38D-04 at cycle   7 NSaved=   7.
 NSaved= 7 IEnMin= 7 EnMin= -1659.46853860297     IErMin= 7 ErrMin= 1.38D-04
 ErrMax= 1.38D-04  0.00D+00 EMaxC= 1.00D-01 BMatC= 8.69D-06 BMatP= 1.84D-04
 IDIUse=3 WtCom= 9.99D-01 WtEn= 1.38D-03
 Coeff-Com: -0.223D-02 0.348D-02 0.253D-01 0.550D-01 0.179D+00 0.248D+00
 Coeff-Com:  0.492D+00
 Coeff-En:   0.000D+00 0.000D+00 0.000D+00 0.000D+00 0.000D+00 0.000D+00
 Coeff-En:   0.100D+01
 Coeff:     -0.223D-02 0.348D-02 0.252D-01 0.549D-01 0.179D+00 0.247D+00
 Coeff:      0.492D+00
 Gap=     0.176 Goal=   None    Shift=    0.000
 RMSDP=4.43D-06 MaxDP=1.59D-04 DE=-2.15D-04 OVMax= 9.82D-04

 Initial convergence to 1.0D-05 achieved.  Increase integral accuracy.
 Cycle   8  Pass 1  IDiag  1:
 E= -1659.46835601910     Delta-E=        0.000182583867 Rises=F Damp=F
 DIIS: error= 4.08D-04 at cycle   1 NSaved=   1.
 NSaved= 1 IEnMin= 1 EnMin= -1659.46835601910     IErMin= 1 ErrMin= 4.08D-04
 ErrMax= 4.08D-04  0.00D+00 EMaxC= 1.00D-01 BMatC= 6.81D-05 BMatP= 6.81D-05
 IDIUse=3 WtCom= 9.96D-01 WtEn= 4.08D-03
 Coeff-Com:  0.100D+01
 Coeff-En:   0.100D+01
 Coeff:      0.100D+01
 Gap=     0.176 Goal=   None    Shift=    0.000
 RMSDP=4.43D-06 MaxDP=1.59D-04 DE= 1.83D-04 OVMax= 1.23D-03

 Cycle   9  Pass 1  IDiag  1:
 RMSU=  2.62D-04    CP:  9.99D-01
 E= -1659.46841777526     Delta-E=       -0.000061756163 Rises=F Damp=F
 DIIS: error= 1.47D-04 at cycle   2 NSaved=   2.
 NSaved= 2 IEnMin= 2 EnMin= -1659.46841777526     IErMin= 2 ErrMin= 1.47D-04
 ErrMax= 1.47D-04  0.00D+00 EMaxC= 1.00D-01 BMatC= 5.20D-06 BMatP= 6.81D-05
 IDIUse=3 WtCom= 9.99D-01 WtEn= 1.47D-03
 Coeff-Com:  0.911D-01 0.909D+00
 Coeff-En:   0.000D+00 0.100D+01
 Coeff:      0.910D-01 0.909D+00
 Gap=     0.176 Goal=   None    Shift=    0.000
 RMSDP=7.73D-06 MaxDP=3.11D-04 DE=-6.18D-05 OVMax= 1.84D-03

 Cycle  10  Pass 1  IDiag  1:
 RMSU=  7.17D-06    CP:  9.99D-01  1.01D+00
 E= -1659.46840049121     Delta-E=        0.000017284047 Rises=F Damp=F
 DIIS: error= 3.03D-04 at cycle   3 NSaved=   3.
 NSaved= 3 IEnMin= 2 EnMin= -1659.46841777526     IErMin= 2 ErrMin= 1.47D-04
 ErrMax= 3.03D-04  0.00D+00 EMaxC= 1.00D-01 BMatC= 2.03D-05 BMatP= 5.20D-06
 IDIUse=3 WtCom= 3.65D-01 WtEn= 6.35D-01
 Coeff-Com: -0.424D-02 0.667D+00 0.338D+00
 Coeff-En:   0.000D+00 0.738D+00 0.262D+00
 Coeff:     -0.155D-02 0.712D+00 0.289D+00
 Gap=     0.176 Goal=   None    Shift=    0.000
 RMSDP=4.16D-06 MaxDP=1.76D-04 DE= 1.73D-05 OVMax= 1.06D-03

 Cycle  11  Pass 1  IDiag  1:
 RMSU=  7.36D-07    CP:  9.99D-01  1.01D+00  4.30D-01
 E= -1659.46842308094     Delta-E=       -0.000022589728 Rises=F Damp=F
 DIIS: error= 3.81D-05 at cycle   4 NSaved=   4.
 NSaved= 4 IEnMin= 4 EnMin= -1659.46842308094     IErMin= 4 ErrMin= 3.81D-05
 ErrMax= 3.81D-05  0.00D+00 EMaxC= 1.00D-01 BMatC= 5.21D-07 BMatP= 5.20D-06
 IDIUse=1 WtCom= 1.00D+00 WtEn= 0.00D+00
 Coeff-Com: -0.357D-02 0.410D+00 0.140D+00 0.454D+00
 Coeff:     -0.357D-02 0.410D+00 0.140D+00 0.454D+00
 Gap=     0.176 Goal=   None    Shift=    0.000
 RMSDP=7.06D-07 MaxDP=3.78D-05 DE=-2.26D-05 OVMax= 1.80D-04

 Cycle  12  Pass 1  IDiag  1:
 RMSU=  2.79D-07    CP:  9.99D-01  1.01D+00  3.43D-01  7.75D-01
 E= -1659.46842364979     Delta-E=       -0.000000568844 Rises=F Damp=F
 DIIS: error= 3.64D-06 at cycle   5 NSaved=   5.
 NSaved= 5 IEnMin= 5 EnMin= -1659.46842364979     IErMin= 5 ErrMin= 3.64D-06
 ErrMax= 3.64D-06  0.00D+00 EMaxC= 1.00D-01 BMatC= 3.80D-09 BMatP= 5.21D-07
 IDIUse=1 WtCom= 1.00D+00 WtEn= 0.00D+00
 Coeff-Com: -0.213D-02 0.239D+00 0.789D-01 0.285D+00 0.399D+00
 Coeff:     -0.213D-02 0.239D+00 0.789D-01 0.285D+00 0.399D+00
 Gap=     0.176 Goal=   None    Shift=    0.000
 RMSDP=8.73D-08 MaxDP=5.05D-06 DE=-5.69D-07 OVMax= 1.70D-05

 Cycle  13  Pass 1  IDiag  1:
 RMSU=  7.82D-08    CP:  9.99D-01  1.01D+00  3.44D-01  8.03D-01  8.88D-01
 E= -1659.46842365326     Delta-E=       -0.000000003477 Rises=F Damp=F
 DIIS: error= 1.32D-06 at cycle   6 NSaved=   6.
 NSaved= 6 IEnMin= 6 EnMin= -1659.46842365326     IErMin= 6 ErrMin= 1.32D-06
 ErrMax= 1.32D-06  0.00D+00 EMaxC= 1.00D-01 BMatC= 5.17D-10 BMatP= 3.80D-09
 IDIUse=1 WtCom= 1.00D+00 WtEn= 0.00D+00
 Coeff-Com: -0.655D-03 0.714D-01 0.226D-01 0.920D-01 0.272D+00 0.543D+00
 Coeff:     -0.655D-03 0.714D-01 0.226D-01 0.920D-01 0.272D+00 0.543D+00
 Gap=     0.176 Goal=   None    Shift=    0.000
 RMSDP=3.12D-08 MaxDP=1.35D-06 DE=-3.48D-09 OVMax= 5.91D-06

 Cycle  14  Pass 1  IDiag  1:
 RMSU=  1.85D-08    CP:  9.99D-01  1.01D+00  3.43D-01  8.03D-01  9.13D-01
                    CP:  6.95D-01
 E= -1659.46842365370     Delta-E=       -0.000000000438 Rises=F Damp=F
 DIIS: error= 2.77D-07 at cycle   7 NSaved=   7.
 NSaved= 7 IEnMin= 7 EnMin= -1659.46842365370     IErMin= 7 ErrMin= 2.77D-07
 ErrMax= 2.77D-07  0.00D+00 EMaxC= 1.00D-01 BMatC= 4.33D-11 BMatP= 5.17D-10
 IDIUse=1 WtCom= 1.00D+00 WtEn= 0.00D+00
 Coeff-Com: -0.116D-03 0.119D-01 0.340D-02 0.180D-01 0.104D+00 0.306D+00
 Coeff-Com:  0.556D+00
 Coeff:     -0.116D-03 0.119D-01 0.340D-02 0.180D-01 0.104D+00 0.306D+00
 Coeff:      0.556D+00
 Gap=     0.176 Goal=   None    Shift=    0.000
 RMSDP=8.36D-09 MaxDP=4.16D-07 DE=-4.38D-10 OVMax= 1.44D-06

 SCF Done:  E(RB3LYP) =  -1659.46842365     A.U. after   14 cycles
            NFock= 14  Conv=0.84D-08     -V/T= 2.0045
 KE= 1.652059881094D+03 PE=-1.419588714202D+04 EE= 5.711961776856D+03
 Leave Link  502 at Tue Mar 17 11:13:08 2026, MaxMem=   104857600 cpu:            1387.8 elap:            1389.5
 (Enter /sw/cluster/pub/apps//g16/l601.exe)
 Copying SCF densities to generalized density rwf, IOpCl= 0 IROHF=0.

 **********************************************************************

            Population analysis using the SCF density.

 **********************************************************************

 Alpha  occ. eigenvalues --  -10.19899 -10.19699 -10.19698 -10.18039 -10.18039
 Alpha  occ. eigenvalues --  -10.17332 -10.17332 -10.17268 -10.17268 -10.17184
 Alpha  occ. eigenvalues --  -10.17184 -10.17145 -10.17145 -10.17129 -10.17129
 Alpha  occ. eigenvalues --  -10.17087 -10.17087 -10.17038 -10.17037 -10.17033
 Alpha  occ. eigenvalues --  -10.17033 -10.16960 -10.16945 -10.16908 -10.16892
 Alpha  occ. eigenvalues --  -10.16744 -10.16744 -10.16675 -10.16675 -10.16658
 Alpha  occ. eigenvalues --  -10.16658 -10.16634 -10.16634 -10.16597 -10.16597
 Alpha  occ. eigenvalues --  -10.16565 -10.16564 -10.16564 -10.16564 -10.16513
 Alpha  occ. eigenvalues --  -10.16512 -10.16460 -10.16460  -0.89428  -0.88852
 Alpha  occ. eigenvalues --   -0.88107  -0.84347  -0.84282  -0.83997  -0.82468
 Alpha  occ. eigenvalues --   -0.81188  -0.79697  -0.77615  -0.77312  -0.76458
 Alpha  occ. eigenvalues --   -0.74238  -0.74113  -0.73855  -0.73786  -0.73165
 Alpha  occ. eigenvalues --   -0.71564  -0.71202  -0.71202  -0.70959  -0.67866
 Alpha  occ. eigenvalues --   -0.64866  -0.64446  -0.64313  -0.62577  -0.61983
 Alpha  occ. eigenvalues --   -0.61867  -0.58416  -0.58282  -0.57998  -0.57447
 Alpha  occ. eigenvalues --   -0.57421  -0.57312  -0.57116  -0.55398  -0.55035
 Alpha  occ. eigenvalues --   -0.51494  -0.50773  -0.50593  -0.49899  -0.49448
 Alpha  occ. eigenvalues --   -0.48947  -0.47771  -0.47146  -0.46688  -0.45571
 Alpha  occ. eigenvalues --   -0.45546  -0.45117  -0.44766  -0.44262  -0.44136
 Alpha  occ. eigenvalues --   -0.43743  -0.43636  -0.43500  -0.43438  -0.42895
 Alpha  occ. eigenvalues --   -0.42260  -0.41958  -0.41797  -0.41714  -0.41680
 Alpha  occ. eigenvalues --   -0.41547  -0.41233  -0.41015  -0.39050  -0.38938
 Alpha  occ. eigenvalues --   -0.38378  -0.38326  -0.38082  -0.38037  -0.37978
 Alpha  occ. eigenvalues --   -0.37478  -0.37323  -0.36404  -0.35568  -0.35262
 Alpha  occ. eigenvalues --   -0.34854  -0.34817  -0.34606  -0.34477  -0.34374
 Alpha  occ. eigenvalues --   -0.34051  -0.33811  -0.32904  -0.32849  -0.32406
 Alpha  occ. eigenvalues --   -0.31951  -0.31774  -0.31470  -0.31093  -0.28158
 Alpha  occ. eigenvalues --   -0.28057  -0.27799  -0.25477  -0.25422  -0.24821
 Alpha  occ. eigenvalues --   -0.24492  -0.24244  -0.22933  -0.21502  -0.21435
 Alpha  occ. eigenvalues --   -0.21017
 Alpha virt. eigenvalues --   -0.03396  -0.03360  -0.03083  -0.01909  -0.01536
 Alpha virt. eigenvalues --   -0.01002   0.00430   0.00661   0.00692   0.02973
 Alpha virt. eigenvalues --    0.03767   0.03845   0.04139   0.04600   0.04953
 Alpha virt. eigenvalues --    0.05087   0.05865   0.06109   0.06635   0.06683
 Alpha virt. eigenvalues --    0.07115   0.07424   0.08267   0.08460   0.08569
 Alpha virt. eigenvalues --    0.09267   0.09833   0.10089   0.10268   0.10721
 Alpha virt. eigenvalues --    0.10865   0.11287   0.11342   0.11816   0.12139
 Alpha virt. eigenvalues --    0.12709   0.12951   0.13118   0.13997   0.14325
 Alpha virt. eigenvalues --    0.14749   0.14855   0.14924   0.15365   0.15883
 Alpha virt. eigenvalues --    0.16673   0.16980   0.17027   0.17157   0.17763
 Alpha virt. eigenvalues --    0.19134   0.19818   0.19879   0.20398   0.20401
 Alpha virt. eigenvalues --    0.21163   0.21269   0.21809   0.22088   0.22273
 Alpha virt. eigenvalues --    0.23330   0.23722   0.24069   0.24371   0.24870
 Alpha virt. eigenvalues --    0.25069   0.25224   0.25980   0.26692   0.26914
 Alpha virt. eigenvalues --    0.27505   0.27561   0.27800   0.28028   0.28276
 Alpha virt. eigenvalues --    0.28368   0.28725   0.28800   0.29048   0.29712
 Alpha virt. eigenvalues --    0.29739   0.30012   0.30985   0.31800   0.31989
 Alpha virt. eigenvalues --    0.32245   0.32726   0.32886   0.33116   0.33751
 Alpha virt. eigenvalues --    0.33878   0.34069   0.34320   0.34605   0.35289
 Alpha virt. eigenvalues --    0.35812   0.36084   0.36399   0.36826   0.37416
 Alpha virt. eigenvalues --    0.37477   0.37613   0.37848   0.38596   0.39032
 Alpha virt. eigenvalues --    0.39735   0.40047   0.40069   0.40319   0.40362
 Alpha virt. eigenvalues --    0.40861   0.41152   0.41233   0.41464   0.41565
 Alpha virt. eigenvalues --    0.42161   0.42313   0.42575   0.42713   0.42804
 Alpha virt. eigenvalues --    0.43687   0.43774   0.44510   0.44732   0.44834
 Alpha virt. eigenvalues --    0.44849   0.45099   0.45227   0.45442   0.46060
 Alpha virt. eigenvalues --    0.46117   0.46478   0.46781   0.46989   0.47461
 Alpha virt. eigenvalues --    0.47564   0.48427   0.48504   0.48684   0.49086
 Alpha virt. eigenvalues --    0.49263   0.49379   0.49525   0.50060   0.50249
 Alpha virt. eigenvalues --    0.50622   0.51157   0.51383   0.51683   0.51693
 Alpha virt. eigenvalues --    0.52468   0.52672   0.53047   0.53366   0.53572
 Alpha virt. eigenvalues --    0.54220   0.54846   0.54889   0.55486   0.55630
 Alpha virt. eigenvalues --    0.56297   0.56660   0.57187   0.57238   0.57398
 Alpha virt. eigenvalues --    0.57972   0.58291   0.58446   0.58603   0.58645
 Alpha virt. eigenvalues --    0.58842   0.59237   0.59416   0.59599   0.59838
 Alpha virt. eigenvalues --    0.60001   0.60539   0.61152   0.61179   0.61195
 Alpha virt. eigenvalues --    0.61383   0.61609   0.61855   0.61969   0.62260
 Alpha virt. eigenvalues --    0.62319   0.62422   0.62716   0.62762   0.63023
 Alpha virt. eigenvalues --    0.63318   0.63835   0.64035   0.64108   0.64242
 Alpha virt. eigenvalues --    0.64552   0.64694   0.65241   0.65401   0.66615
 Alpha virt. eigenvalues --    0.66664   0.66790   0.66995   0.67344   0.67657
 Alpha virt. eigenvalues --    0.67902   0.68381   0.68890   0.69287   0.70087
 Alpha virt. eigenvalues --    0.70124   0.70544   0.70554   0.70796   0.72114
 Alpha virt. eigenvalues --    0.72374   0.72412   0.72809   0.72882   0.73073
 Alpha virt. eigenvalues --    0.73205   0.73364   0.74137   0.74587   0.74613
 Alpha virt. eigenvalues --    0.75438   0.75757   0.76388   0.76915   0.77204
 Alpha virt. eigenvalues --    0.77320   0.77698   0.77832   0.78049   0.78509
 Alpha virt. eigenvalues --    0.79200   0.79578   0.79690   0.80365   0.80759
 Alpha virt. eigenvalues --    0.81492   0.81985   0.82348   0.82560   0.83748
 Alpha virt. eigenvalues --    0.84283   0.84699   0.84756   0.85400   0.85997
 Alpha virt. eigenvalues --    0.86367   0.86937   0.87525   0.87867   0.88348
 Alpha virt. eigenvalues --    0.88440   0.88833   0.88931   0.89531   0.90288
 Alpha virt. eigenvalues --    0.90541   0.91267   0.91344   0.92372   0.92857
 Alpha virt. eigenvalues --    0.94259   0.94471   0.94803   0.95151   0.96136
 Alpha virt. eigenvalues --    0.96280   0.97232   0.97797   0.97799   0.97916
 Alpha virt. eigenvalues --    0.99373   0.99966   1.00497   1.01066   1.01488
 Alpha virt. eigenvalues --    1.01783   1.02321   1.02329   1.03321   1.03862
 Alpha virt. eigenvalues --    1.03933   1.04199   1.04594   1.04608   1.05499
 Alpha virt. eigenvalues --    1.05899   1.06101   1.06173   1.06252   1.07147
 Alpha virt. eigenvalues --    1.08049   1.08266   1.08468   1.08665   1.09128
 Alpha virt. eigenvalues --    1.09281   1.09682   1.09752   1.10695   1.10875
 Alpha virt. eigenvalues --    1.11397   1.11794   1.11970   1.12335   1.12979
 Alpha virt. eigenvalues --    1.13549   1.14021   1.14649   1.15086   1.15370
 Alpha virt. eigenvalues --    1.16790   1.16797   1.17659   1.17834   1.17910
 Alpha virt. eigenvalues --    1.19000   1.19029   1.20820   1.20930   1.22003
 Alpha virt. eigenvalues --    1.22166   1.23273   1.23932   1.24768   1.25696
 Alpha virt. eigenvalues --    1.25749   1.26117   1.27111   1.27838   1.29110
 Alpha virt. eigenvalues --    1.29353   1.29666   1.31440   1.31598   1.32931
 Alpha virt. eigenvalues --    1.34997   1.36213   1.37277   1.38224   1.39480
 Alpha virt. eigenvalues --    1.40502   1.42475   1.43041   1.43541   1.43560
 Alpha virt. eigenvalues --    1.44095   1.45090   1.45518   1.45519   1.46021
 Alpha virt. eigenvalues --    1.46210   1.46626   1.46880   1.47205   1.47508
 Alpha virt. eigenvalues --    1.47995   1.48268   1.48419   1.48654   1.48783
 Alpha virt. eigenvalues --    1.49390   1.49779   1.50023   1.50085   1.50224
 Alpha virt. eigenvalues --    1.50912   1.51136   1.51284   1.51458   1.52104
 Alpha virt. eigenvalues --    1.52353   1.52924   1.52929   1.54441   1.55133
 Alpha virt. eigenvalues --    1.55462   1.55485   1.55513   1.56288   1.56734
 Alpha virt. eigenvalues --    1.56952   1.57804   1.57900   1.58090   1.58888
 Alpha virt. eigenvalues --    1.58978   1.59219   1.59285   1.60095   1.60585
 Alpha virt. eigenvalues --    1.60903   1.61704   1.61851   1.62231   1.62421
 Alpha virt. eigenvalues --    1.63206   1.63436   1.63924   1.64274   1.64534
 Alpha virt. eigenvalues --    1.65195   1.65218   1.66017   1.66036   1.67082
 Alpha virt. eigenvalues --    1.67265   1.67397   1.67661   1.68104   1.68923
 Alpha virt. eigenvalues --    1.69093   1.69113   1.69681   1.70028   1.70362
 Alpha virt. eigenvalues --    1.70946   1.71212   1.71685   1.71885   1.72607
 Alpha virt. eigenvalues --    1.72795   1.73019   1.73820   1.73978   1.74261
 Alpha virt. eigenvalues --    1.74368   1.74506   1.75299   1.75568   1.75769
 Alpha virt. eigenvalues --    1.75819   1.76359   1.76641   1.76709   1.76892
 Alpha virt. eigenvalues --    1.77518   1.77946   1.78303   1.79423   1.79678
 Alpha virt. eigenvalues --    1.80422   1.81691   1.82176   1.82195   1.82395
 Alpha virt. eigenvalues --    1.83411   1.83471   1.83737   1.83905   1.84256
 Alpha virt. eigenvalues --    1.84548   1.85209   1.85331   1.86603   1.86810
 Alpha virt. eigenvalues --    1.86995   1.87195   1.87430   1.87783   1.88609
 Alpha virt. eigenvalues --    1.89174   1.89560   1.89754   1.90347   1.90468
 Alpha virt. eigenvalues --    1.91401   1.92155   1.92304   1.92606   1.92729
 Alpha virt. eigenvalues --    1.92983   1.93042   1.93167   1.93443   1.93445
 Alpha virt. eigenvalues --    1.93577   1.93824   1.94967   1.95247   1.95384
 Alpha virt. eigenvalues --    1.95523   1.95953   1.96218   1.96800   1.97123
 Alpha virt. eigenvalues --    1.97352   1.97944   1.97985   1.98955   1.99113
 Alpha virt. eigenvalues --    1.99350   2.00071   2.00595   2.00642   2.01323
 Alpha virt. eigenvalues --    2.01988   2.02719   2.02767   2.03749   2.05085
 Alpha virt. eigenvalues --    2.05182   2.06759   2.06918   2.07004   2.08714
 Alpha virt. eigenvalues --    2.09463   2.10230   2.10397   2.11520   2.11691
 Alpha virt. eigenvalues --    2.11795   2.12601   2.12708   2.13367   2.13491
 Alpha virt. eigenvalues --    2.13754   2.13892   2.14584   2.15631   2.16607
 Alpha virt. eigenvalues --    2.18272   2.19174   2.21232   2.21282   2.21863
 Alpha virt. eigenvalues --    2.21914   2.23950   2.24805   2.25155   2.25678
 Alpha virt. eigenvalues --    2.25778   2.25945   2.26563   2.27459   2.27602
 Alpha virt. eigenvalues --    2.29046   2.30035   2.30228   2.30749   2.31624
 Alpha virt. eigenvalues --    2.32429   2.33535   2.33697   2.34446   2.35422
 Alpha virt. eigenvalues --    2.36210   2.36714   2.36776   2.37282   2.37624
 Alpha virt. eigenvalues --    2.37888   2.38538   2.39461   2.40390   2.40568
 Alpha virt. eigenvalues --    2.41518   2.42588   2.42764   2.42910   2.43072
 Alpha virt. eigenvalues --    2.43627   2.43701   2.44475   2.44544   2.45355
 Alpha virt. eigenvalues --    2.45735   2.46423   2.48369   2.48390   2.49549
 Alpha virt. eigenvalues --    2.49825   2.50850   2.51933   2.52695   2.52723
 Alpha virt. eigenvalues --    2.54579   2.54738   2.55503   2.56368   2.57049
 Alpha virt. eigenvalues --    2.58378   2.58525   2.59069   2.59590   2.59952
 Alpha virt. eigenvalues --    2.60294   2.60396   2.60956   2.61006   2.61456
 Alpha virt. eigenvalues --    2.62067   2.62339   2.62351   2.62561   2.62660
 Alpha virt. eigenvalues --    2.62830   2.63383   2.63508   2.63744   2.63907
 Alpha virt. eigenvalues --    2.64146   2.64614   2.65066   2.65718   2.65821
 Alpha virt. eigenvalues --    2.66247   2.66532   2.66857   2.67329   2.67461
 Alpha virt. eigenvalues --    2.67474   2.68062   2.68739   2.69404   2.69671
 Alpha virt. eigenvalues --    2.70109   2.70730   2.71271   2.71509   2.71760
 Alpha virt. eigenvalues --    2.72472   2.72938   2.73111   2.73308   2.73951
 Alpha virt. eigenvalues --    2.74428   2.74808   2.75364   2.76233   2.76557
 Alpha virt. eigenvalues --    2.77562   2.77826   2.78328   2.78845   2.79434
 Alpha virt. eigenvalues --    2.80209   2.80615   2.81402   2.81542   2.81802
 Alpha virt. eigenvalues --    2.82592   2.83156   2.83416   2.83495   2.84247
 Alpha virt. eigenvalues --    2.84534   2.85047   2.85261   2.85563   2.86226
 Alpha virt. eigenvalues --    2.86598   2.86642   2.87915   2.88160   2.88674
 Alpha virt. eigenvalues --    2.88955   2.89547   2.90504   2.90674   2.91023
 Alpha virt. eigenvalues --    2.91172   2.92614   2.93810   2.94464   2.95198
 Alpha virt. eigenvalues --    2.96044   2.96405   2.97282   2.99047   3.00392
 Alpha virt. eigenvalues --    3.00407   3.01592   3.02785   3.02828   3.05249
 Alpha virt. eigenvalues --    3.05918   3.06923   3.07070   3.08366   3.08390
 Alpha virt. eigenvalues --    3.10870   3.11433   3.12807   3.13469   3.15265
 Alpha virt. eigenvalues --    3.15608   3.15816   3.17674   3.19275   3.19733
 Alpha virt. eigenvalues --    3.21231   3.23366   3.24323   3.25032   3.25167
 Alpha virt. eigenvalues --    3.26706   3.27356   3.28682   3.29090   3.31357
 Alpha virt. eigenvalues --    3.31422   3.34771   3.35609   3.37367   3.37463
 Alpha virt. eigenvalues --    3.38681   3.39018   3.39992   3.40910   3.42371
 Alpha virt. eigenvalues --    3.42611   3.43256   3.44669   3.45250   3.47640
 Alpha virt. eigenvalues --    3.48060   3.48062   3.49118   3.49593   3.50220
 Alpha virt. eigenvalues --    3.50403   3.51141   3.53151   3.53709   3.58305
 Alpha virt. eigenvalues --    3.60117   3.60487   3.61013   3.62012   3.64282
 Alpha virt. eigenvalues --    3.66955   3.67920   3.68936   3.71839   3.71854
 Alpha virt. eigenvalues --    3.74420   3.74715   3.76470   3.77727   3.79117
 Alpha virt. eigenvalues --    3.79862   3.80151   3.81289   3.83801   3.85736
 Alpha virt. eigenvalues --    3.86343   3.87731   3.92207   4.02817   4.02886
 Alpha virt. eigenvalues --    4.03345   4.03349   4.03518   4.03859   4.04199
 Alpha virt. eigenvalues --    4.04539   4.05425   4.05858   4.05959   4.08985
 Alpha virt. eigenvalues --    4.09231   4.12721   4.14797   4.17003   4.18223
 Alpha virt. eigenvalues --    4.22047   4.22268   4.23350   4.26538   4.31299
 Alpha virt. eigenvalues --    4.37605   4.40901   4.41122   4.45975   4.46564
 Alpha virt. eigenvalues --    4.62605   4.62661   4.64124   4.83367   4.83582
 Alpha virt. eigenvalues --    4.84265   4.87567   4.87580   4.88098  23.43977
 Alpha virt. eigenvalues --   23.45302  23.46929  23.65310  23.65425  23.67629
 Alpha virt. eigenvalues --   23.80610  23.82451  23.86829  23.90556  23.92930
 Alpha virt. eigenvalues --   23.93130  23.93259  23.93491  23.94273  23.94481
 Alpha virt. eigenvalues --   23.94579  23.94888  23.95273  23.95752  23.96099
 Alpha virt. eigenvalues --   23.97052  23.97758  23.99537  24.00206  24.08228
 Alpha virt. eigenvalues --   24.08299  24.09011  24.09099  24.09292  24.09807
 Alpha virt. eigenvalues --   24.10870  24.10903  24.11398  24.11518  24.11856
 Alpha virt. eigenvalues --   24.12910  24.19454  24.19519  24.20101  24.20140
 Alpha virt. eigenvalues --   24.20460  24.20576
          Condensed to atoms (all electrons):
 Mulliken charges:
               1
     1  C   -0.268081
     2  C   -0.284725
     3  H    0.112350
     4  H    0.109241
     5  C   -0.284645
     6  H    0.101439
     7  H    0.112356
     8  H    0.105823
     9  H    0.120121
    10  H    0.109253
    11  C   -0.021558
    12  C   -0.027805
    13  C   -0.018732
    14  C    0.006445
    15  C   -0.010332
    16  C    0.007638
    17  C    0.007643
    18  C    0.006461
    19  C   -0.010313
    20  C   -0.027804
    21  C   -0.018733
    22  C   -0.021534
    23  C   -0.064003
    24  C   -0.045516
    25  C   -0.076956
    26  C   -0.078398
    27  C   -0.087238
    28  C   -0.079718
    29  C   -0.090582
    30  C   -0.095237
    31  C   -0.090422
    32  C   -0.033211
    33  C   -0.039654
    34  C   -0.036930
    35  H    0.078745
    36  H    0.077669
    37  H    0.075759
    38  H    0.086057
    39  H    0.087321
    40  H    0.088785
    41  H    0.085399
    42  H    0.087951
    43  H    0.086606
    44  H    0.081258
    45  H    0.078617
    46  H    0.084421
    47  C   -0.033240
    48  C   -0.036909
    49  C   -0.039602
    50  C   -0.090394
    51  C   -0.090586
    52  C   -0.095276
    53  C   -0.078403
    54  C   -0.087245
    55  C   -0.079724
    56  C   -0.076942
    57  C   -0.045503
    58  C   -0.063987
    59  H    0.078614
    60  H    0.084427
    61  H    0.081257
    62  H    0.085395
    63  H    0.087951
    64  H    0.086611
    65  H    0.086055
    66  H    0.088785
    67  H    0.087324
    68  H    0.075762
    69  H    0.078742
    70  H    0.077674
    71  C   -0.038799
    72  C   -0.207966
    73  C   -0.038666
    74  C   -0.207962
    75  H    0.101435
    76  H    0.105822
    77  H    0.120120
 Sum of Mulliken charges =  -0.00000
 Mulliken charges with hydrogens summed into heavy atoms:
               1
     1  C   -0.268081
     2  C   -0.284725
     5  C   -0.284645
    11  C   -0.021558
    12  C   -0.027805
    13  C   -0.018732
    14  C    0.006445
    15  C   -0.010332
    16  C    0.007638
    17  C    0.007643
    18  C    0.006461
    19  C   -0.010313
    20  C   -0.027804
    21  C   -0.018733
    22  C   -0.021534
    23  C    0.017255
    24  C    0.038905
    25  C    0.001661
    26  C    0.007000
    27  C    0.000713
    28  C    0.006888
    29  C   -0.001797
    30  C   -0.007915
    31  C   -0.004365
    32  C    0.042547
    33  C    0.038015
    34  C    0.041814
    47  C    0.042522
    48  C    0.041833
    49  C    0.038072
    50  C   -0.004339
    51  C   -0.001801
    52  C   -0.007952
    53  C    0.006992
    54  C    0.000706
    55  C    0.006887
    56  C    0.001671
    57  C    0.038925
    58  C    0.017270
    71  C    0.182810
    72  C    0.119417
    73  C    0.182925
    74  C    0.119415
 Electronic spatial extent (au):  <R**2>=          17571.6660
 Charge=             -0.0000 electrons
 Dipole moment (field-independent basis, Debye):
    X=              0.3007    Y=             -0.2348    Z=             -0.1638  Tot=              0.4152
 Quadrupole moment (field-independent basis, Debye-Ang):
   XX=           -233.8753   YY=           -235.5542   ZZ=           -258.2979
   XY=              2.6816   XZ=             -6.7000   YZ=              9.5573
 Traceless Quadrupole moment (field-independent basis, Debye-Ang):
   XX=              8.7005   YY=              7.0216   ZZ=            -15.7221
   XY=              2.6816   XZ=             -6.7000   YZ=              9.5573
 Octapole moment (field-independent basis, Debye-Ang**2):
  XXX=            -11.8840  YYY=             33.5892  ZZZ=             48.1483  XYY=            -17.2806
  XXY=              6.8586  XXZ=              1.5089  XZZ=            -29.0821  YZZ=              5.0245
  YYZ=            -17.8963  XYZ=             15.6959
 Hexadecapole moment (field-independent basis, Debye-Ang**3):
 XXXX=          -4898.9101 YYYY=          -8872.0235 ZZZZ=         -10670.5399 XXXY=           -602.4399
 XXXZ=            163.2123 YYYX=           -523.6567 YYYZ=           2352.6850 ZZZX=             63.1055
 ZZZY=           2607.2301 XXYY=          -2281.8622 XXZZ=          -2545.6555 YYZZ=          -3325.4475
 XXYZ=            725.6258 YYXZ=             13.0330 ZZXY=           -179.6213
 N-N= 5.172397060418D+03 E-N=-1.419588730676D+04  KE= 1.652059881094D+03
 No NMR shielding tensors so no spin-rotation constants.
 Leave Link  601 at Tue Mar 17 11:13:09 2026, MaxMem=   104857600 cpu:               0.5 elap:               0.5
 (Enter /sw/cluster/pub/apps//g16/l9999.exe)
 1\1\GINC-N07\SP\RB3LYP\6-311G(d,p)\C43H34\UNKNOWN\17-Mar-2026\0\\#p B3
 LYP/6-311G(d,p) nosymm density=current sp\\Generated by extraQ₂\\0,1
 \C,0,0.64581222,-0.50420332,-0.35205579\C,0,1.42550566,-2.02236101,1.8
 3148079\H,0,2.61082316,-0.92199949,0.39820878\H,0,1.8137066,-2.3290142
 ,-0.24277247\C,0,0.6788086,0.37935432,-2.97852466\H,0,3.22766759,-3.25
 684258,1.61889258\H,0,0.65517769,-1.62797933,-2.17845281\H,0,3.5112430
 3,-1.70581915,2.42761589\H,0,2.70928786,-3.02514912,3.29609043\H,0,2.1
 3494921,-0.75393331,-1.90959014\C,0,0.71628246,0.92384744,0.19238583\C
 ,0,1.55708568,1.63203601,-2.95951798\C,0,0.83757984,-1.08826046,2.8905
 5429\C,0,0.77010966,2.79543632,-2.95951798\C,0,-0.30616942,-1.66144161
 ,3.47651944\C,0,-0.54199692,1.34225396,0.65730998\C,0,-1.50156614,0.25
 351647,0.45648158\C,0,-0.55950192,-2.95997113,2.84478312\C,0,-0.642129
 16,2.40169706,-2.95951798\C,0,0.43175709,-3.18489179,1.87543006\C,0,-0
 .72050134,0.99674693,-2.95432275\C,0,-0.83157607,-0.83370187,-0.129650
 65\C,0,-1.53123507,-1.98916696,-0.45239592\C,0,-1.95804604,0.37067882,
 -3.02776752\C,0,0.45191436,-4.37413958,1.15891023\C,0,-2.89803246,-2.0
 6066997,-0.17598539\C,0,-0.53781795,-5.3314108,1.39638864\C,0,-3.11581
 833,1.14959521,-3.07434944\C,0,-1.53246039,-5.09949753,2.34859751\C,0,
 -3.03666797,2.54342686,-3.05777203\C,0,-3.55923357,-0.98188325,0.41452
 486\C,0,-2.86558878,0.18346464,0.73323891\C,0,-1.79848096,3.17950983,-
 3.00512789\C,0,-1.54754096,-3.91444796,3.08221399\H,0,-2.31787373,-3.7
 4304033,3.82611017\H,0,-1.7389211,4.26246552,-3.00739012\H,0,-3.383946
 87,1.02311794,1.18278234\H,0,-4.6207715,-1.05229092,0.62525795\H,0,-3.
 94543886,3.13418308,-3.09309522\H,0,-2.29453212,-5.85100546,2.52315555
 \H,0,-3.44687949,-2.96486892,-0.41366254\H,0,-0.53105425,-6.26286467,0
 .84104193\H,0,-4.08484836,0.66574155,-3.11885335\H,0,-1.03175353,-2.83
 917791,-0.90263528\H,0,1.2232687,-4.56935527,0.42031199\H,0,-2.0381929
 1,-0.70955419,-3.03552976\C,0,-0.70954664,2.60818462,1.21534191\C,0,1.
 36765145,4.05478525,-2.98405661\C,0,-0.97364369,-1.01534084,4.51635388
 \C,0,0.39315617,3.45414829,1.31103639\C,0,2.75834785,4.14230572,-3.016
 72917\C,0,-0.48321153,0.20453501,4.97663359\C,0,1.6465936,3.03796194,0
 .85788656\C,0,3.54141255,2.98631092,-3.03357385\C,0,0.66385729,0.76461
 296,4.41107736\C,0,2.94169334,1.72454328,-3.0087218\C,0,1.33174535,0.1
 181848,3.36926653\C,0,1.81288993,1.76938492,0.29867578\H,0,3.56164112,
 0.83353496,-3.02853389\H,0,2.2169155,0.56990888,2.93821252\H,0,2.79086
 469,1.46579026,-0.05644849\H,0,2.49616828,3.70735808,0.93158811\H,0,4.
 6220907,3.06876769,-3.07098558\H,0,1.03814144,1.71279958,4.77981687\H,
 0,0.27843139,4.44300425,1.74142252\H,0,3.23667995,5.11533687,-3.036592
 51\H,0,-0.99126769,0.71993546,5.78431365\H,0,-1.6795685,2.93068323,1.5
 7707928\H,0,0.76422504,4.95591085,-2.9790859\H,0,-1.85629908,-1.455678
 56,4.96731319\C,0,1.04506993,-0.65392147,-1.86577366\C,0,2.80659394,-2
 .53539384,2.32526864\C,0,1.65340961,-1.4529601,0.39487039\C,0,0.884205
 43,-0.34624889,-4.33710339\H,0,1.89954264,-0.74622428,-4.41372586\H,0,
 0.180816,-1.17681161,-4.44010701\H,0,0.72539846,0.34342302,-5.1683411\
 \Version=ES64L-G16RevA.03\HF=-1659.4684237\RMSD=8.365e-09\Dipole=0.118
 3015,-0.0923751,-0.0644508\Quadrupole=6.4686089,5.2203548,-11.6889637,
 1.9937199,-4.9812613,7.105652\PG=C01 [X(C43H34)]\\@


 WE HAVE SEEN THAT MAN ON THE AVERAGE DOES NOT LIVE ABOVE
 TWO-AND-TWENTY YEARS.  DURING THESE TWO AND TWENTY
 YEARS HE IS LIABLE TO TWO AND TWENTY THOUSAND EVILS,
 MANY OF WHICH ARE INCURABLE.  YET EVEN IN THIS DREADFUL STATE
 MEN STILL STRUT AND POSE ON THE STAGE OF LIFE.
 THEY MAKE LOVE AT THE RISK OF DESTRUCTION,
 INTRIGUE, CARRY ON WAR, AND FORM PROJECTS, JUST AS IF THEY
 WERE TO LIVE IN LUXURY AND HAPPINESS FOR A THOUSAND
 AGES.

                                              -- VOLTAIRE
 Job cpu time:       0 days  0 hours 23 minutes 43.2 seconds.
 Elapsed time:       0 days  0 hours 23 minutes 44.9 seconds.
 File lengths (MBytes):  RWF=    519 Int=      0 D2E=      0 Chk=     56 Scr=      1
 Normal termination of Gaussian 16 at Tue Mar 17 11:13:09 2026.
