%chk=f3-6-311Gdp_SP.chk
#p B3LYP/6-311G(d,p) nosymm density=current sp

Generated by extraQ₂

0 1
C         0.64581222      -0.50420332      -0.35205579
C         1.42550566      -2.02236101       1.83148079
H         2.61082316      -0.92199949       0.39820878
H         1.81370660      -2.32901420      -0.24277247
C         0.67880860       0.37935432      -2.97852466
H         3.22766759      -3.25684258       1.61889258
H         0.65517769      -1.62797933      -2.17845281
H         3.51124303      -1.70581915       2.42761589
H         2.70928786      -3.02514912       3.29609043
H         2.13494921      -0.75393331      -1.90959014
C         0.71628246       0.92384744       0.19238583
C         1.55708568       1.63203601      -2.95951798
C         0.83757984      -1.08826046       2.89055429
C         0.77010966       2.79543632      -2.95951798
C        -0.30616942      -1.66144161       3.47651944
C        -0.54199692       1.34225396       0.65730998
C        -1.50156614       0.25351647       0.45648158
C        -0.55950192      -2.95997113       2.84478312
C        -0.64212916       2.40169706      -2.95951798
C         0.43175709      -3.18489179       1.87543006
C        -0.72050134       0.99674693      -2.95432275
C        -0.83157607      -0.83370187      -0.12965065
C        -1.53123507      -1.98916696      -0.45239592
C        -1.95804604       0.37067882      -3.02776752
C         0.45191436      -4.37413958       1.15891023
C        -2.89803246      -2.06066997      -0.17598539
C        -0.53781795      -5.33141080       1.39638864
C        -3.11581833       1.14959521      -3.07434944
C        -1.53246039      -5.09949753       2.34859751
C        -3.03666797       2.54342686      -3.05777203
C        -3.55923357      -0.98188325       0.41452486
C        -2.86558878       0.18346464       0.73323891
C        -1.79848096       3.17950983      -3.00512789
C        -1.54754096      -3.91444796       3.08221399
H        -2.31787373      -3.74304033       3.82611017
H        -1.73892110       4.26246552      -3.00739012
H        -3.38394687       1.02311794       1.18278234
H        -4.62077150      -1.05229092       0.62525795
H        -3.94543886       3.13418308      -3.09309522
H        -2.29453212      -5.85100546       2.52315555
H        -3.44687949      -2.96486892      -0.41366254
H        -0.53105425      -6.26286467       0.84104193
H        -4.08484836       0.66574155      -3.11885335
H        -1.03175353      -2.83917791      -0.90263528
H         1.22326870      -4.56935527       0.42031199
H        -2.03819291      -0.70955419      -3.03552976
C        -0.70954664       2.60818462       1.21534191
C         1.36765145       4.05478525      -2.98405661
C        -0.97364369      -1.01534084       4.51635388
C         0.39315617       3.45414829       1.31103639
C         2.75834785       4.14230572      -3.01672917
C        -0.48321153       0.20453501       4.97663359
C         1.64659360       3.03796194       0.85788656
C         3.54141255       2.98631092      -3.03357385
C         0.66385729       0.76461296       4.41107736
C         2.94169334       1.72454328      -3.00872180
C         1.33174535       0.11818480       3.36926653
C         1.81288993       1.76938492       0.29867578
H         3.56164112       0.83353496      -3.02853389
H         2.21691550       0.56990888       2.93821252
H         2.79086469       1.46579026      -0.05644849
H         2.49616828       3.70735808       0.93158811
H         4.62209070       3.06876769      -3.07098558
H         1.03814144       1.71279958       4.77981687
H         0.27843139       4.44300425       1.74142252
H         3.23667995       5.11533687      -3.03659251
H        -0.99126769       0.71993546       5.78431365
H        -1.67956850       2.93068323       1.57707928
H         0.76422504       4.95591085      -2.97908590
H        -1.85629908      -1.45567856       4.96731319
C         1.04506993      -0.65392147      -1.86577366
C         2.80659394      -2.53539384       2.32526864
C         1.65340961      -1.45296010       0.39487039
C         0.88420543      -0.34624889      -4.33710339
H         1.89954264      -0.74622428      -4.41372586
H         0.18081600      -1.17681161      -4.44010701
H         0.72539846       0.34342302      -5.16834110



