%chk=bz-def2TZVP_SP.chk
#p B3LYP/def2TZVP nosymm density=current sp

Generated by extraQ₂

0 1
C        -0.73973400      -1.17808900       0.00000000
C         0.65039400      -1.22967000       0.00000000
C         1.39013400      -0.05157900       0.00000000
C         0.73973400       1.17808900       0.00000000
C        -0.65039400       1.22967000       0.00000000
C        -1.39013400       0.05157900       0.00000000
H        -1.31562800      -2.09525500       0.00000000
H         1.15673100      -2.18699500       0.00000000
H         2.47236900      -0.09174200       0.00000000
H         1.31562800       2.09525500       0.00000000
H        -1.15673100       2.18699500       0.00000000
H        -2.47236900       0.09174200       0.00000000



