#p b3lyp/6-31g nosymm density=current sp

Verify additional points: Sm atoms correspond to centroids, Am to +1Å, and Lr to -1Å

0 1
C -0.739734 -1.178089 0.000000
C 0.650394 -1.229670 0.000000
C 1.390133 -0.051579 0.000000
C 0.739734 1.178089 0.000000
C -0.650394 1.229670 0.000000
C -1.390133 0.051579 0.000000
H -1.315627 -2.095254 0.000000
H 1.156731 -2.186994 0.000000
H 2.472368 -0.091742 0.000000
H 1.315627 2.095254 0.000000
H -1.156731 2.186994 0.000000
H -2.472368 0.091742 0.000000
Sm   0.000000  0.000000  0.000000
Am   0.000000  0.000000  1.000000
Lr   0.000000  0.000000 -1.000000