Generated by extraQ₂                                                  
SP        RB3LYP                                                      6-31+G(d)           
Number of atoms                            I               12
Info1-9                                    I   N=           9
          21          19           0           0           0         110
           1          18        -502
Full Title                                 C   N=           2
Generated by extraQ₂  
Route                                      C   N=           4
#p B3LYP/6-31+G* nosymm density=current sp      
Charge                                     I                0
Multiplicity                               I                1
Number of electrons                        I               42
Number of alpha electrons                  I               21
Number of beta electrons                   I               21
Number of basis functions                  I              126
Number of independent functions            I              126
Number of point charges in /Mol/           I                0
Number of translation vectors              I                0
Atomic numbers                             I   N=          12
           6           6           6           6           6           6
           1           1           1           1           1           1
Nuclear charges                            R   N=          12
  6.00000000E+00  6.00000000E+00  6.00000000E+00  6.00000000E+00  6.00000000E+00
  6.00000000E+00  1.00000000E+00  1.00000000E+00  1.00000000E+00  1.00000000E+00
  1.00000000E+00  1.00000000E+00
Current cartesian coordinates              R   N=          36
 -2.40537380E+00 -1.09544400E+00  0.00000000E+00 -2.54003758E-01 -2.63082947E+00
  0.00000000E+00  2.15137760E+00 -1.53538736E+00  0.00000000E+00  2.40537380E+00
  1.09544400E+00  0.00000000E+00  2.54003758E-01  2.63082947E+00  0.00000000E+00
 -2.15137760E+00  1.53538736E+00  0.00000000E+00 -4.27548835E+00 -1.94711711E+00
 -1.88972612E-06 -4.51497145E-01 -4.67623312E+00  0.00000000E+00  3.82400821E+00
 -2.72911412E+00  0.00000000E+00  4.27548835E+00  1.94711711E+00  0.00000000E+00
  4.51497145E-01  4.67623312E+00  0.00000000E+00 -3.82400821E+00  2.72911412E+00
  0.00000000E+00
Number of symbols in /Mol/                 I                0
Force Field                                I                0
Atom Types                                 C   N=          12
                                                            
                                                            
                        
Int Atom Types                             I   N=          12
           0           0           0           0           0           0
           0           0           0           0           0           0
MM charges                                 R   N=          12
  0.00000000E+00  0.00000000E+00  0.00000000E+00  0.00000000E+00  0.00000000E+00
  0.00000000E+00  0.00000000E+00  0.00000000E+00  0.00000000E+00  0.00000000E+00
  0.00000000E+00  0.00000000E+00
Integer atomic weights                     I   N=          12
          12          12          12          12          12          12
           1           1           1           1           1           1
Real atomic weights                        R   N=          12
  1.20000000E+01  1.20000000E+01  1.20000000E+01  1.20000000E+01  1.20000000E+01
  1.20000000E+01  1.00782504E+00  1.00782504E+00  1.00782504E+00  1.00782504E+00
  1.00782504E+00  1.00782504E+00
Atom fragment info                         I   N=          12
           0           0           0           0           0           0
           0           0           0           0           0           0
Atom residue num                           I   N=          12
           0           0           0           0           0           0
           0           0           0           0           0           0
Nuclear spins                              I   N=          12
           0           0           0           0           0           0
           1           1           1           1           1           1
Nuclear ZEff                               R   N=          12
 -3.60000000E+00 -3.60000000E+00 -3.60000000E+00 -3.60000000E+00 -3.60000000E+00
 -3.60000000E+00 -1.00000000E+00 -1.00000000E+00 -1.00000000E+00 -1.00000000E+00
 -1.00000000E+00 -1.00000000E+00
Nuclear ZNuc                               R   N=          12
  6.00000000E+00  6.00000000E+00  6.00000000E+00  6.00000000E+00  6.00000000E+00
  6.00000000E+00  1.00000000E+00  1.00000000E+00  1.00000000E+00  1.00000000E+00
  1.00000000E+00  1.00000000E+00
Nuclear QMom                               R   N=          12
  0.00000000E+00  0.00000000E+00  0.00000000E+00  0.00000000E+00  0.00000000E+00
  0.00000000E+00  0.00000000E+00  0.00000000E+00  0.00000000E+00  0.00000000E+00
  0.00000000E+00  0.00000000E+00
Nuclear GFac                               R   N=          12
  0.00000000E+00  0.00000000E+00  0.00000000E+00  0.00000000E+00  0.00000000E+00
  0.00000000E+00  2.79284600E+00  2.79284600E+00  2.79284600E+00  2.79284600E+00
  2.79284600E+00  2.79284600E+00
MicOpt                                     I   N=          12
          -1          -1          -1          -1          -1          -1
          -1          -1          -1          -1          -1          -1
Number of residues                         I                0
Number of secondary structures             I                0
Number of contracted shells                I               42
Number of primitive shells                 I               96
Pure/Cartesian d shells                    I                1
Pure/Cartesian f shells                    I                0
Highest angular momentum                   I                2
Largest degree of contraction              I                6
Shell types                                I   N=          42
           0          -1          -1          -1           2           0
          -1          -1          -1           2           0          -1
          -1          -1           2           0          -1          -1
          -1           2           0          -1          -1          -1
           2           0          -1          -1          -1           2
           0           0           0           0           0           0
           0           0           0           0           0           0
Number of primitives per shell             I   N=          42
           6           3           1           1           1           6
           3           1           1           1           6           3
           1           1           1           6           3           1
           1           1           6           3           1           1
           1           6           3           1           1           1
           3           1           3           1           3           1
           3           1           3           1           3           1
Shell to atom map                          I   N=          42
           1           1           1           1           1           2
           2           2           2           2           3           3
           3           3           3           4           4           4
           4           4           5           5           5           5
           5           6           6           6           6           6
           7           7           8           8           9           9
          10          10          11          11          12          12
Primitive exponents                        R   N=          96
  3.04752488E+03  4.57369518E+02  1.03948685E+02  2.92101553E+01  9.28666296E+00
  3.16392696E+00  7.86827235E+00  1.88128854E+00  5.44249258E-01  1.68714478E-01
  4.38000000E-02  8.00000000E-01  3.04752488E+03  4.57369518E+02  1.03948685E+02
  2.92101553E+01  9.28666296E+00  3.16392696E+00  7.86827235E+00  1.88128854E+00
  5.44249258E-01  1.68714478E-01  4.38000000E-02  8.00000000E-01  3.04752488E+03
  4.57369518E+02  1.03948685E+02  2.92101553E+01  9.28666296E+00  3.16392696E+00
  7.86827235E+00  1.88128854E+00  5.44249258E-01  1.68714478E-01  4.38000000E-02
  8.00000000E-01  3.04752488E+03  4.57369518E+02  1.03948685E+02  2.92101553E+01
  9.28666296E+00  3.16392696E+00  7.86827235E+00  1.88128854E+00  5.44249258E-01
  1.68714478E-01  4.38000000E-02  8.00000000E-01  3.04752488E+03  4.57369518E+02
  1.03948685E+02  2.92101553E+01  9.28666296E+00  3.16392696E+00  7.86827235E+00
  1.88128854E+00  5.44249258E-01  1.68714478E-01  4.38000000E-02  8.00000000E-01
  3.04752488E+03  4.57369518E+02  1.03948685E+02  2.92101553E+01  9.28666296E+00
  3.16392696E+00  7.86827235E+00  1.88128854E+00  5.44249258E-01  1.68714478E-01
  4.38000000E-02  8.00000000E-01  1.87311370E+01  2.82539436E+00  6.40121692E-01
  1.61277759E-01  1.87311370E+01  2.82539436E+00  6.40121692E-01  1.61277759E-01
  1.87311370E+01  2.82539436E+00  6.40121692E-01  1.61277759E-01  1.87311370E+01
  2.82539436E+00  6.40121692E-01  1.61277759E-01  1.87311370E+01  2.82539436E+00
  6.40121692E-01  1.61277759E-01  1.87311370E+01  2.82539436E+00  6.40121692E-01
  1.61277759E-01
Contraction coefficients                   R   N=          96
  1.83473713E-03  1.40373228E-02  6.88426223E-02  2.32184443E-01  4.67941348E-01
  3.62311985E-01 -1.19332420E-01 -1.60854152E-01  1.14345644E+00  1.00000000E+00
  1.00000000E+00  1.00000000E+00  1.83473713E-03  1.40373228E-02  6.88426223E-02
  2.32184443E-01  4.67941348E-01  3.62311985E-01 -1.19332420E-01 -1.60854152E-01
  1.14345644E+00  1.00000000E+00  1.00000000E+00  1.00000000E+00  1.83473713E-03
  1.40373228E-02  6.88426223E-02  2.32184443E-01  4.67941348E-01  3.62311985E-01
 -1.19332420E-01 -1.60854152E-01  1.14345644E+00  1.00000000E+00  1.00000000E+00
  1.00000000E+00  1.83473713E-03  1.40373228E-02  6.88426223E-02  2.32184443E-01
  4.67941348E-01  3.62311985E-01 -1.19332420E-01 -1.60854152E-01  1.14345644E+00
  1.00000000E+00  1.00000000E+00  1.00000000E+00  1.83473713E-03  1.40373228E-02
  6.88426223E-02  2.32184443E-01  4.67941348E-01  3.62311985E-01 -1.19332420E-01
 -1.60854152E-01  1.14345644E+00  1.00000000E+00  1.00000000E+00  1.00000000E+00
  1.83473713E-03  1.40373228E-02  6.88426223E-02  2.32184443E-01  4.67941348E-01
  3.62311985E-01 -1.19332420E-01 -1.60854152E-01  1.14345644E+00  1.00000000E+00
  1.00000000E+00  1.00000000E+00  3.34946043E-02  2.34726953E-01  8.13757326E-01
  1.00000000E+00  3.34946043E-02  2.34726953E-01  8.13757326E-01  1.00000000E+00
  3.34946043E-02  2.34726953E-01  8.13757326E-01  1.00000000E+00  3.34946043E-02
  2.34726953E-01  8.13757326E-01  1.00000000E+00  3.34946043E-02  2.34726953E-01
  8.13757326E-01  1.00000000E+00  3.34946043E-02  2.34726953E-01  8.13757326E-01
  1.00000000E+00
P(S=P) Contraction coefficients            R   N=          96
  0.00000000E+00  0.00000000E+00  0.00000000E+00  0.00000000E+00  0.00000000E+00
  0.00000000E+00  6.89990666E-02  3.16423961E-01  7.44308291E-01  1.00000000E+00
  1.00000000E+00  0.00000000E+00  0.00000000E+00  0.00000000E+00  0.00000000E+00
  0.00000000E+00  0.00000000E+00  0.00000000E+00  6.89990666E-02  3.16423961E-01
  7.44308291E-01  1.00000000E+00  1.00000000E+00  0.00000000E+00  0.00000000E+00
  0.00000000E+00  0.00000000E+00  0.00000000E+00  0.00000000E+00  0.00000000E+00
  6.89990666E-02  3.16423961E-01  7.44308291E-01  1.00000000E+00  1.00000000E+00
  0.00000000E+00  0.00000000E+00  0.00000000E+00  0.00000000E+00  0.00000000E+00
  0.00000000E+00  0.00000000E+00  6.89990666E-02  3.16423961E-01  7.44308291E-01
  1.00000000E+00  1.00000000E+00  0.00000000E+00  0.00000000E+00  0.00000000E+00
  0.00000000E+00  0.00000000E+00  0.00000000E+00  0.00000000E+00  6.89990666E-02
  3.16423961E-01  7.44308291E-01  1.00000000E+00  1.00000000E+00  0.00000000E+00
  0.00000000E+00  0.00000000E+00  0.00000000E+00  0.00000000E+00  0.00000000E+00
  0.00000000E+00  6.89990666E-02  3.16423961E-01  7.44308291E-01  1.00000000E+00
  1.00000000E+00  0.00000000E+00  0.00000000E+00  0.00000000E+00  0.00000000E+00
  0.00000000E+00  0.00000000E+00  0.00000000E+00  0.00000000E+00  0.00000000E+00
  0.00000000E+00  0.00000000E+00  0.00000000E+00  0.00000000E+00  0.00000000E+00
  0.00000000E+00  0.00000000E+00  0.00000000E+00  0.00000000E+00  0.00000000E+00
  0.00000000E+00  0.00000000E+00  0.00000000E+00  0.00000000E+00  0.00000000E+00
  0.00000000E+00
Coordinates of each shell                  R   N=         126
 -2.40537380E+00 -1.09544400E+00  0.00000000E+00 -2.40537380E+00 -1.09544400E+00
  0.00000000E+00 -2.40537380E+00 -1.09544400E+00  0.00000000E+00 -2.40537380E+00
 -1.09544400E+00  0.00000000E+00 -2.40537380E+00 -1.09544400E+00  0.00000000E+00
 -2.54003758E-01 -2.63082947E+00  0.00000000E+00 -2.54003758E-01 -2.63082947E+00
  0.00000000E+00 -2.54003758E-01 -2.63082947E+00  0.00000000E+00 -2.54003758E-01
 -2.63082947E+00  0.00000000E+00 -2.54003758E-01 -2.63082947E+00  0.00000000E+00
  2.15137760E+00 -1.53538736E+00  0.00000000E+00  2.15137760E+00 -1.53538736E+00
  0.00000000E+00  2.15137760E+00 -1.53538736E+00  0.00000000E+00  2.15137760E+00
 -1.53538736E+00  0.00000000E+00  2.15137760E+00 -1.53538736E+00  0.00000000E+00
  2.40537380E+00  1.09544400E+00  0.00000000E+00  2.40537380E+00  1.09544400E+00
  0.00000000E+00  2.40537380E+00  1.09544400E+00  0.00000000E+00  2.40537380E+00
  1.09544400E+00  0.00000000E+00  2.40537380E+00  1.09544400E+00  0.00000000E+00
  2.54003758E-01  2.63082947E+00  0.00000000E+00  2.54003758E-01  2.63082947E+00
  0.00000000E+00  2.54003758E-01  2.63082947E+00  0.00000000E+00  2.54003758E-01
  2.63082947E+00  0.00000000E+00  2.54003758E-01  2.63082947E+00  0.00000000E+00
 -2.15137760E+00  1.53538736E+00  0.00000000E+00 -2.15137760E+00  1.53538736E+00
  0.00000000E+00 -2.15137760E+00  1.53538736E+00  0.00000000E+00 -2.15137760E+00
  1.53538736E+00  0.00000000E+00 -2.15137760E+00  1.53538736E+00  0.00000000E+00
 -4.27548835E+00 -1.94711711E+00 -1.88972612E-06 -4.27548835E+00 -1.94711711E+00
 -1.88972612E-06 -4.51497145E-01 -4.67623312E+00  0.00000000E+00 -4.51497145E-01
 -4.67623312E+00  0.00000000E+00  3.82400821E+00 -2.72911412E+00  0.00000000E+00
  3.82400821E+00 -2.72911412E+00  0.00000000E+00  4.27548835E+00  1.94711711E+00
  0.00000000E+00  4.27548835E+00  1.94711711E+00  0.00000000E+00  4.51497145E-01
  4.67623312E+00  0.00000000E+00  4.51497145E-01  4.67623312E+00  0.00000000E+00
 -3.82400821E+00  2.72911412E+00  0.00000000E+00 -3.82400821E+00  2.72911412E+00
  0.00000000E+00
Num ILSW                                   I              100
ILSW                                       I   N=         100
           0           1           0           0           2           0
           0           0           0           0         402          -1
           5           0           0           0           0           0
           0           0           0           0           0           0
           1           1           0           0           0           0
           0           0      100000           0          -1           0
           0           0           0           0           0           0
           0           0           0           1           0           0
           0 -2000000000           1           0           0           0
           0           0           4          52           0           0
           0           0           5           0           0           0
           0           0           0          12           0           1
           0           0           0           0           0           0
           0           0           0           0           0           0
           0           0           0           0           0           0
           0           0           0           0           0           0
           0           0           0           0
Num RLSW                                   I               52
RLSW                                       R   N=          52
  8.00000000E-01  7.20000000E-01  1.00000000E+00  8.10000000E-01  2.00000000E-01
  0.00000000E+00  0.00000000E+00  1.00000000E+00  0.00000000E+00  0.00000000E+00
  0.00000000E+00  0.00000000E+00  1.00000000E+00  0.00000000E+00  0.00000000E+00
  0.00000000E+00  0.00000000E+00  1.00000000E+00  0.00000000E+00  0.00000000E+00
  0.00000000E+00  0.00000000E+00  1.00000000E+00  0.00000000E+00  0.00000000E+00
  0.00000000E+00  0.00000000E+00  1.00000000E+00  0.00000000E+00  0.00000000E+00
  0.00000000E+00  0.00000000E+00  1.00000000E+00  0.00000000E+00  0.00000000E+00
  0.00000000E+00  0.00000000E+00  0.00000000E+00  1.00000000E+00  1.00000000E+00
  0.00000000E+00  1.00000000E+00  0.00000000E+00  0.00000000E+00  0.00000000E+00
  0.00000000E+00  0.00000000E+00  0.00000000E+00  0.00000000E+00  0.00000000E+00
  0.00000000E+00  0.00000000E+00
MxBond                                     I                3
NBond                                      I   N=          12
           3           3           3           3           3           3
           1           1           1           1           1           1
IBond                                      I   N=          36
           2           6           7           1           3           8
           2           4           9           3           5          10
           4           6          11           1           5          12
           1           0           0           2           0           0
           3           0           0           4           0           0
           5           0           0           6           0           0
RBond                                      R   N=          36
  1.50000000E+00  1.50000000E+00  1.00000000E+00  1.50000000E+00  1.50000000E+00
  1.00000000E+00  1.50000000E+00  1.50000000E+00  1.00000000E+00  1.50000000E+00
  1.50000000E+00  1.00000000E+00  1.50000000E+00  1.50000000E+00  1.00000000E+00
  1.50000000E+00  1.50000000E+00  1.00000000E+00  1.00000000E+00  0.00000000E+00
  0.00000000E+00  1.00000000E+00  0.00000000E+00  0.00000000E+00  1.00000000E+00
  0.00000000E+00  0.00000000E+00  1.00000000E+00  0.00000000E+00  0.00000000E+00
  1.00000000E+00  0.00000000E+00  0.00000000E+00  1.00000000E+00  0.00000000E+00
  0.00000000E+00
Virial Ratio                               R      2.010309639297609E+00
SCF Energy                                 R     -2.322589220142488E+02
Total Energy                               R     -2.322589220142488E+02
RMS Density                                R      1.413966620099395E-09
Job Status                                 I                1
Nuclear derivative order                   I                0
External E-field                           R   N=          35
  0.00000000E+00  0.00000000E+00  0.00000000E+00  0.00000000E+00  0.00000000E+00
  0.00000000E+00  0.00000000E+00  0.00000000E+00  0.00000000E+00  0.00000000E+00
  0.00000000E+00  0.00000000E+00  0.00000000E+00  0.00000000E+00  0.00000000E+00
  0.00000000E+00  0.00000000E+00  0.00000000E+00  0.00000000E+00  0.00000000E+00
  0.00000000E+00  0.00000000E+00  0.00000000E+00  0.00000000E+00  0.00000000E+00
  0.00000000E+00  0.00000000E+00  0.00000000E+00  0.00000000E+00  0.00000000E+00
  0.00000000E+00  0.00000000E+00  0.00000000E+00  0.00000000E+00  0.00000000E+00
IOpCl                                      I                0
IROHF                                      I                0
Alpha Orbital Energies                     R   N=         126
 -1.01987570E+01 -1.01984919E+01 -1.01984916E+01 -1.01979389E+01 -1.01979385E+01
 -1.01976748E+01 -8.56673361E-01 -7.49808445E-01 -7.49806409E-01 -6.06920716E-01
 -6.06919184E-01 -5.27371218E-01 -4.67694701E-01 -4.48487039E-01 -4.26619214E-01
 -4.26617104E-01 -3.69238806E-01 -3.49731958E-01 -3.49730601E-01 -2.57064842E-01
 -2.57063290E-01 -1.44467161E-02 -1.44451694E-02  8.90868348E-03  2.62011613E-02
  2.62014841E-02  4.59454230E-02  4.59456222E-02  6.68131410E-02  7.80282226E-02
  7.95404653E-02  9.22685101E-02  9.22719256E-02  9.97598199E-02  1.26748661E-01
  1.42729261E-01  1.42730085E-01  1.44810076E-01  1.44810466E-01  1.55207306E-01
  1.55214594E-01  1.95859854E-01  1.96790548E-01  1.96790794E-01  2.05070113E-01
  2.11664584E-01  2.11668188E-01  2.35130766E-01  2.43675262E-01  2.43675858E-01
  2.66319533E-01  2.78989144E-01  2.78992173E-01  3.24627415E-01  3.47636914E-01
  3.47638515E-01  3.48954162E-01  3.48955674E-01  5.65335783E-01  5.75471813E-01
  6.01024338E-01  6.20315274E-01  6.59117147E-01  7.17287294E-01  7.17288514E-01
  7.20782424E-01  7.20785997E-01  7.46639359E-01  7.46639971E-01  7.68558852E-01
  7.68561799E-01  8.03330193E-01  8.27907635E-01  8.95496073E-01  9.31063272E-01
  9.31064415E-01  9.64124547E-01  9.64125671E-01  9.75139712E-01  1.03175517E+00
  1.07387173E+00  1.07387404E+00  1.13606619E+00  1.13607114E+00  1.16984543E+00
  1.16984681E+00  1.25087509E+00  1.30879424E+00  1.39154302E+00  1.43428438E+00
  1.43428727E+00  1.47805003E+00  1.47805179E+00  1.50507654E+00  1.50507882E+00
  1.74917234E+00  1.81566514E+00  1.88310732E+00  1.90351440E+00  1.98660494E+00
  1.98660829E+00  2.10329189E+00  2.10329474E+00  2.14988382E+00  2.14988981E+00
  2.16129061E+00  2.16129470E+00  2.30071729E+00  2.30072337E+00  2.31958141E+00
  2.57125082E+00  2.57125301E+00  2.64221031E+00  2.69955425E+00  2.69955661E+00
  2.73057301E+00  2.73057595E+00  2.82536715E+00  3.01767929E+00  3.39425923E+00
  4.22098023E+00  4.23785843E+00  4.23786160E+00  4.37584108E+00  4.37584231E+00
  4.67621213E+00
Alpha MO coefficients                      R   N=       15876
  4.05058968E-01  2.00499650E-02 -7.97254114E-05 -3.62947010E-05 -1.40452468E-10
 -3.86303096E-03  3.30514145E-04  1.50439399E-04  6.36000996E-10  3.10761049E-04
  4.74312464E-04  2.16038324E-04  1.05032257E-09 -3.78537206E-03 -3.87779921E-03
 -3.91548874E-03  6.13386010E-05  1.06109155E-10  4.83258308E-11  4.05317358E-01
  2.00630307E-02 -8.44501042E-06 -8.70757230E-05  6.35143923E-11 -3.86845352E-03
  3.50750299E-05  3.60464960E-04 -2.40083021E-10  3.26510200E-04  4.99062846E-05
  5.21972482E-04 -5.86384279E-10 -3.90292803E-03 -3.76481221E-03 -3.91790852E-03
  1.55086269E-05  2.34189116E-11 -4.64439693E-11  4.05262202E-01  2.00602500E-02
  7.12580892E-05 -5.07980674E-05 -1.71694269E-12 -3.86732752E-03 -2.95120259E-04
  2.10229241E-04  5.94240954E-11  3.23203727E-04 -4.25725002E-04  3.04953564E-04
  2.70173739E-10 -3.81054890E-03 -3.85622248E-03 -3.91739163E-03 -7.68515556E-05
 -2.34954172E-12 -4.78109514E-12  4.05058969E-01  2.00499651E-02  7.97254113E-05
  3.62947011E-05  1.78903232E-11 -3.86303096E-03 -3.30514144E-04 -1.50439399E-04
 -4.17437838E-11  3.10761048E-04 -4.74312464E-04 -2.16038322E-04 -2.54284322E-10
 -3.78537206E-03 -3.87779921E-03 -3.91548874E-03  6.13386009E-05  4.16302452E-12
  1.89629924E-12  4.05317358E-01  2.00630307E-02  8.44501038E-06  8.70757230E-05
 -1.71771260E-12 -3.86845351E-03 -3.50750297E-05 -3.60464960E-04  5.94196958E-11
  3.26510204E-04 -4.99062873E-05 -5.21972482E-04  2.70170838E-10 -3.90292803E-03
 -3.76481221E-03 -3.91790852E-03  1.55086269E-05 -5.14699977E-12  1.36710792E-12
  4.05262202E-01  2.00602499E-02 -7.12580892E-05  5.07980674E-05  6.35037159E-11
 -3.86732752E-03  2.95120258E-04 -2.10229241E-04 -2.40071616E-10  3.23203716E-04
  4.25725000E-04 -3.04953564E-04 -5.86383893E-10 -3.81054890E-03 -3.85622248E-03
 -3.91739163E-03 -7.68515556E-05 -1.96567099E-11  4.81558187E-11 -1.83254026E-04
  1.15415287E-03 -1.83298403E-04  1.15432225E-03 -1.83290779E-04  1.15426937E-03
 -1.83254026E-04  1.15415287E-03 -1.83298402E-04  1.15432225E-03 -1.83290779E-04
  1.15426937E-03  5.83337431E-02  2.93285719E-03 -1.02882180E-04  2.35571168E-04
 -1.43756201E-11 -8.01389273E-04  6.81250027E-04 -1.53276170E-03  5.43927989E-11
  8.52226118E-04 -5.49679071E-04  1.84448020E-03  8.63024685E-11 -6.09430778E-04
 -4.81351056E-04 -5.47495186E-04  6.60232152E-05  1.32781496E-11  8.06623689E-12
  5.23025975E-01  2.62969099E-02 -1.01768149E-04  4.61277138E-05  7.58503531E-11
 -7.19905580E-03  6.72837346E-04 -2.10538766E-04 -6.47841476E-11  7.69604895E-03
 -5.51931380E-04  2.44324111E-03 -1.93334958E-11 -4.90597332E-03 -4.87340185E-03
 -4.90870825E-03 -3.78788578E-05  9.45787198E-12 -4.02284946E-12  4.64586687E-01
  2.33585574E-02  6.18007309E-05  1.41770532E-04 -7.51366528E-12 -6.39212014E-03
 -4.69987876E-04 -8.77543438E-04  1.58780597E-11  6.82555043E-03 -1.06653151E-03
  2.13990161E-03  8.24747834E-12 -4.38839233E-03 -4.29843134E-03 -4.36027986E-03
 -2.84119611E-05  3.31200086E-12  2.52249682E-12 -5.83337432E-02 -2.93285720E-03
 -1.02882180E-04  2.35571168E-04 -5.60432409E-13  8.01389275E-04  6.81250026E-04
 -1.53276170E-03 -2.03823379E-12 -8.52226124E-04 -5.49679071E-04  1.84448021E-03
 -2.27117918E-11  6.09430780E-04  4.81351058E-04  5.47495187E-04 -6.60232152E-05
  1.24386871E-13  6.66475270E-13 -5.23025975E-01 -2.62969099E-02 -1.01768149E-04
  4.61277138E-05  9.47838316E-12  7.19905580E-03  6.72837346E-04 -2.10538765E-04
 -7.30296607E-12 -7.69604894E-03 -5.51931384E-04  2.44324111E-03  3.85792677E-11
  4.90597332E-03  4.87340185E-03  4.90870825E-03  3.78788578E-05 -5.85090923E-12
 -8.42681446E-13 -4.64586687E-01 -2.33585574E-02  6.18007309E-05  1.41770532E-04
 -6.77679727E-11  6.39212014E-03 -4.69987876E-04 -8.77543438E-04  2.35124887E-11
 -6.82555043E-03 -1.06653151E-03  2.13990161E-03 -7.77137343E-11  4.38839233E-03
  4.29843134E-03  4.36027986E-03  2.84119611E-05 -7.59121683E-12 -7.10719277E-13
 -1.11042262E-05  9.43233680E-05 -9.96859017E-05  8.43623839E-04 -8.85249027E-05
  7.49770444E-04  1.11042262E-05 -9.43233683E-05  9.96859018E-05 -8.43623840E-04
  8.85249027E-05 -7.49770444E-04  5.70087100E-01  2.86628003E-02  4.66614183E-05
 -7.65854756E-06 -1.40393622E-10 -7.84095110E-03 -2.11814350E-04  9.21967312E-05
  5.30562172E-10  8.36620563E-03  2.43706042E-03  8.95420330E-04  8.42316291E-10
 -5.31619106E-03 -5.34339988E-03 -5.35047267E-03  2.59489029E-06  1.37417564E-10
  6.23756464E-11  2.34661533E-01  1.17985875E-02  2.36214369E-04 -6.46002903E-06
  3.20602501E-11 -3.23367400E-03 -1.53772497E-03  8.09703771E-05 -1.96749964E-10
  3.46654278E-03  1.84330859E-03  8.96723964E-04 -4.76665836E-10 -2.18291164E-03
 -2.20454222E-03 -2.20229915E-03  9.01934923E-05  1.84336159E-11 -4.53888497E-11
 -3.35759495E-01 -1.68816218E-02  1.40584854E-04  1.56965388E-04  1.04708547E-11
  4.62495254E-03 -8.71276306E-04 -1.05723616E-03  4.05870023E-11 -4.95310498E-03
  2.14724060E-03  3.76011638E-04  2.30236027E-10  3.07071580E-03  3.20704957E-03
  3.15113022E-03 -1.94771391E-05 -6.07429992E-12 -6.87907905E-12 -5.70087100E-01
 -2.86628003E-02  4.66614183E-05 -7.65854755E-06 -5.49073080E-12  7.84095110E-03
 -2.11814350E-04  9.21967310E-05 -1.98186359E-11 -8.36620563E-03  2.43706042E-03
  8.95420335E-04 -2.21855240E-10  5.31619106E-03  5.34339988E-03  5.35047267E-03
 -2.59489026E-06  3.46762929E-12  1.51699212E-12 -2.34661533E-01 -1.17985875E-02
  2.36214369E-04 -6.46002906E-06  8.73108843E-12  3.23367400E-03 -1.53772497E-03
  8.09703774E-05  4.29545240E-11 -3.46654277E-03  1.84330858E-03  8.96723964E-04
  2.27141773E-10  2.18291164E-03  2.20454222E-03  2.20229915E-03 -9.01934924E-05
 -8.15763532E-12  1.07298600E-13  3.35759495E-01  1.68816218E-02  1.40584854E-04
  1.56965388E-04  4.67597966E-11 -4.62495254E-03 -8.71276306E-04 -1.05723616E-03
 -2.05781194E-10  4.95310497E-03  2.14724060E-03  3.76011633E-04 -4.70703264E-10
 -3.07071580E-03 -3.20704957E-03 -3.15113022E-03  1.94771391E-05 -2.10275408E-11
  4.47741191E-11 -1.08598679E-04  9.20437941E-04 -4.47618470E-05  3.77922992E-04
  6.40284820E-05 -5.41042647E-04  1.08598679E-04 -9.20437941E-04  4.47618470E-05
 -3.77922992E-04 -6.40284820E-05  5.41042647E-04 -5.84419773E-02 -2.95943112E-03
 -9.46615747E-05  1.46737459E-04  9.92916131E-12  1.22873122E-03  7.23555781E-04
 -1.04185877E-03 -1.14429343E-11 -3.60194449E-03 -1.91709910E-03  2.47842654E-03
 -3.54690074E-11  4.26803880E-04  6.09271389E-04  5.48900174E-04  1.12804330E-04
 -1.92468196E-11 -6.60464996E-12  5.23102223E-01  2.64895990E-02  9.25366932E-05
  2.19058443E-04  7.26605207E-11 -1.10019810E-02 -7.06059786E-04 -1.97155329E-03
 -4.31094770E-11  3.22607877E-02  1.86624064E-03  6.27533329E-03  4.85376835E-11
 -4.50477638E-03 -4.76851663E-03 -4.91300147E-03  3.46541911E-05  4.20670357E-12
  2.02169473E-12 -4.64760651E-01 -2.35351548E-02  2.23164779E-04 -3.43189037E-05
  6.15710339E-12  9.77419701E-03 -1.89481360E-03  4.49684175E-04  3.77322658E-12
 -2.86589245E-02  5.68943635E-03 -1.85452705E-03 -2.01742915E-11  4.08126208E-03
  4.15786281E-03  4.36507300E-03 -1.49355426E-04  6.92086365E-13 -1.08549701E-12
 -5.84419772E-02 -2.95943112E-03  9.46615747E-05 -1.46737459E-04 -1.53888180E-12
  1.22873122E-03 -7.23555780E-04  1.04185877E-03  4.49700189E-13 -3.60194447E-03
  1.91709909E-03 -2.47842654E-03  9.16368123E-12  4.26803879E-04  6.09271388E-04
  5.48900173E-04  1.12804330E-04 -7.56511320E-13  1.63019638E-12  5.23102223E-01
  2.64895990E-02 -9.25366932E-05 -2.19058443E-04 -8.05402844E-12 -1.10019810E-02
  7.06059786E-04  1.97155329E-03 -2.26324567E-12  3.22607877E-02 -1.86624063E-03
 -6.27533329E-03 -1.43674082E-12 -4.50477638E-03 -4.76851663E-03 -4.91300147E-03
  3.46541912E-05  1.46074053E-12 -1.23989759E-12 -4.64760651E-01 -2.35351548E-02
 -2.23164779E-04  3.43189036E-05 -6.23089038E-11  9.77419701E-03  1.89481360E-03
 -4.49684174E-04  4.46322205E-11 -2.86589245E-02 -5.68943635E-03  1.85452705E-03
 -5.00671627E-12  4.08126208E-03  4.15786281E-03  4.36507300E-03 -1.49355426E-04
 -5.67801880E-13 -5.45076541E-12  1.00509021E-05 -3.42160960E-05 -8.98644283E-05
  3.05686305E-04  7.98593687E-05 -2.71735671E-04  1.00509020E-05 -3.42160962E-05
 -8.98644283E-05  3.05686306E-04  7.98593687E-05 -2.71735672E-04  5.70448770E-01
  2.88870743E-02  2.17806124E-04  1.18636216E-04 -9.68912428E-11 -1.19961763E-02
 -1.96132557E-03 -1.03365779E-03  1.11512591E-10  3.51722319E-02  6.24624770E-03
  3.18773387E-03  3.46240960E-10 -5.15518529E-03 -4.95762797E-03 -5.35773236E-03
 -1.07126833E-04  1.79822375E-10  8.21197449E-11 -2.34482285E-01 -1.18741575E-02
  1.47960509E-04 -1.16543515E-04 -4.36490344E-11  4.93272733E-03 -1.05196022E-03
  1.01630042E-03 -1.18524840E-11 -1.44665710E-02  2.50794199E-03 -3.13686044E-03
 -2.09796599E-10  2.04721057E-03  2.10946562E-03  2.20224489E-03  1.50473551E-04
  1.77683100E-12 -2.52977192E-11 -3.35648808E-01 -1.69971724E-02  3.67890941E-05
 -1.99213109E-04  9.99064027E-12  7.06042187E-03 -4.69964293E-04  1.58474034E-03
 -7.07776473E-12 -2.07054083E-02  1.91312937E-03 -4.41847074E-03  1.04621219E-10
  3.10332306E-03  2.84679496E-03  3.15240976E-03 -4.60363172E-05 -3.45742139E-12
 -4.23023018E-12  5.70448770E-01  2.88870743E-02 -2.17806124E-04 -1.18636216E-04
  1.50187376E-11 -1.19961763E-02  1.96132557E-03  1.03365779E-03 -4.36804863E-12
  3.51722319E-02 -6.24624770E-03 -3.18773388E-03 -8.95496466E-11 -5.15518529E-03
 -4.95762797E-03 -5.35773236E-03 -1.07126833E-04  2.53535356E-14  2.13173034E-13
 -2.34482286E-01 -1.18741575E-02 -1.47960509E-04  1.16543515E-04  8.53503540E-12
  4.93272733E-03  1.05196022E-03 -1.01630042E-03 -7.69957897E-12 -1.44665711E-02
 -2.50794199E-03  3.13686044E-03  1.06545856E-10  2.04721057E-03  2.10946562E-03
  2.20224489E-03  1.50473551E-04 -5.26881770E-12 -8.61429292E-14 -3.35648808E-01
 -1.69971724E-02 -3.67890941E-05  1.99213109E-04 -5.74711927E-11  7.06042187E-03
  4.69964292E-04 -1.58474034E-03 -2.86378201E-12 -2.07054083E-02 -1.91312937E-03
  4.41847074E-03 -2.15286040E-10  3.10332306E-03  2.84679496E-03  3.15240976E-03
 -4.60363172E-05 -1.84092607E-11  1.72024179E-11 -9.80373357E-05  3.33690779E-04
  4.02565382E-05 -1.36832697E-04  5.76387522E-05 -1.95961224E-04 -9.80373357E-05
  3.33690778E-04  4.02565382E-05 -1.36832697E-04  5.76387522E-05 -1.95961225E-04
  4.05738138E-01  2.11852872E-02  2.54889257E-04  1.16095178E-04  7.85956181E-11
 -2.14907977E-02 -8.44900489E-03 -3.84795065E-03 -1.44145382E-09  6.46754719E-02
  1.10733411E-02  5.04326875E-03 -1.55417524E-09 -3.50030514E-03 -3.35640574E-03
 -3.60466663E-03 -9.54664462E-05  3.22087209E-10  1.46681744E-10 -4.05466849E-01
 -2.11716206E-02 -2.68553352E-05 -2.78771748E-04 -1.07392294E-10  2.14870060E-02
  8.91846491E-04  9.24090818E-03  5.55409802E-10 -6.46707877E-02 -1.16875924E-03
 -1.21101698E-02  8.75740731E-10  3.31823895E-03  3.53338691E-03  3.60211187E-03
  2.42337233E-05 -3.83389792E-11  5.38899864E-11  4.05524772E-01  2.11745445E-02
 -2.27919990E-04  1.62754046E-04 -3.00589886E-12 -2.14878071E-02  7.55652501E-03
 -5.39353121E-03 -1.66988567E-10  6.46720025E-02 -9.90292046E-03  7.06835406E-03
 -4.09290094E-10 -3.46201147E-03 -3.39070447E-03 -3.60265772E-03  1.19673797E-04
  1.31626503E-11  1.59434901E-11 -4.05738138E-01 -2.11852872E-02  2.54889257E-04
  1.16095178E-04 -2.12383810E-11  2.14907977E-02 -8.44900489E-03 -3.84795065E-03
  1.13738027E-10 -6.46754719E-02  1.10733411E-02  5.04326875E-03  4.00423844E-10
  3.50030514E-03  3.35640574E-03  3.60466663E-03  9.54664462E-05 -1.11920146E-11
 -5.09625980E-12  4.05466849E-01  2.11716207E-02 -2.68553352E-05 -2.78771748E-04
 -3.00851606E-12 -2.14870060E-02  8.91846491E-04  9.24090818E-03 -1.66986615E-10
  6.46707877E-02 -1.16875925E-03 -1.21101698E-02 -4.09281646E-10 -3.31823895E-03
 -3.53338691E-03 -3.60211187E-03 -2.42337233E-05  2.06657970E-11 -5.35528610E-13
 -4.05524772E-01 -2.11745445E-02 -2.27919990E-04  1.62754046E-04 -1.07398024E-10
  2.14878071E-02  7.55652501E-03 -5.39353121E-03  5.55412255E-10 -6.46720025E-02
 -9.90292047E-03  7.06835406E-03  8.75727098E-10  3.46201147E-03  3.39070447E-03
  3.60265772E-03 -1.19673797E-04  1.54955437E-11 -6.42986591E-11 -2.32340850E-04
 -1.77628727E-03  2.32286411E-04  1.77669085E-03 -2.32300328E-04 -1.77663646E-03
  2.32340850E-04  1.77628727E-03 -2.32286411E-04 -1.77669085E-03  2.32300328E-04
  1.77663646E-03 -9.42855251E-02  1.78580031E-01  5.54496657E-02  2.52531198E-02
 -1.26329207E-08  1.19904655E-01  6.91569409E-03  3.14931847E-03 -6.01984535E-09
 -9.23968527E-04 -3.40370933E-03 -1.54862094E-03 -5.08799437E-09  2.74397457E-03
  2.74555029E-03 -1.10926860E-02 -1.11685578E-06  4.51562779E-09  2.05655627E-09
 -9.42849104E-02  1.78578760E-01  5.85450050E-03  6.06470736E-02 -6.89616227E-10
  1.19905256E-01  7.30272896E-04  7.56535798E-03  6.07459906E-10 -9.21859815E-04
 -3.59865663E-04 -3.72141662E-03  2.76098913E-09  2.74607252E-03  2.74357024E-03
 -1.10926617E-02 -3.25210428E-07  2.43128664E-10  9.55268519E-11 -9.42850172E-02
  1.78578678E-01 -4.95938690E-02  3.53955016E-02 -3.14731749E-10  1.19906572E-01
 -6.18710287E-03  4.41594038E-03  5.76388994E-11 -9.27346902E-04  3.04333825E-03
 -2.17312923E-03 -1.22958762E-09  2.74439712E-03  2.74532063E-03 -1.10926839E-02
  1.24815714E-06  1.14910312E-11  1.06564043E-10 -9.42855251E-02  1.78580031E-01
 -5.54496657E-02 -2.52531198E-02  1.63170964E-10  1.19904655E-01 -6.91569408E-03
 -3.14931847E-03  2.30557944E-10 -9.23968056E-04  3.40370924E-03  1.54862091E-03
  1.12813658E-09  2.74397457E-03  2.74555029E-03 -1.10926860E-02 -1.11685576E-06
 -4.43062016E-11 -2.02198116E-11 -9.42849104E-02  1.78578760E-01 -5.85450050E-03
 -6.06470736E-02 -3.14745121E-10  1.19905256E-01 -7.30272897E-04 -7.56535798E-03
  5.78521498E-11 -9.21860267E-04  3.59865653E-04  3.72141671E-03 -1.22930983E-09
  2.74607252E-03  2.74357024E-03 -1.10926617E-02 -3.25210449E-07  8.79416730E-11
 -6.13390323E-11 -9.42850172E-02  1.78578678E-01  4.95938690E-02 -3.53955016E-02
 -6.89605491E-10  1.19906572E-01  6.18710287E-03 -4.41594037E-03  6.07434225E-10
 -9.27346488E-04 -3.04333819E-03  2.17312918E-03  2.76046251E-09  2.74439712E-03
  2.74532063E-03 -1.10926839E-02  1.24815715E-06  2.31681546E-10  1.20774164E-10
  3.53223672E-02  1.86808192E-03  3.53221286E-02  1.86870645E-03  3.53221308E-02
  1.86909722E-03  3.53223672E-02  1.86808191E-03  3.53221286E-02  1.86870645E-03
  3.53221308E-02  1.86909721E-03 -1.26413414E-01  2.48820556E-01  7.81748513E-03
  3.68717335E-02 -3.30022122E-08  1.95737556E-01 -1.21495550E-02 -1.09629797E-03
 -1.81933774E-08 -1.40569889E-02 -1.33244720E-02 -6.98595047E-03 -1.33865372E-08
 -5.96313270E-04  3.95397591E-03 -1.25611083E-02  1.31297147E-03  9.98544269E-09
  4.27749542E-09 -3.33172409E-02  6.55788737E-02 -1.10235526E-01  1.65731482E-02
 -4.20470978E-09  5.15878052E-02 -1.50500674E-02 -1.59550555E-03  2.47027482E-09
 -3.69547508E-03  2.67813365E-03 -4.23464331E-03  7.49817490E-09 -1.12316830E-03
  2.00822133E-03 -3.31051753E-03 -1.02866216E-02  3.50697946E-10 -1.35642377E-10
  9.30963658E-02 -1.83242195E-01 -3.36300785E-02 -7.55154258E-02 -4.68679395E-10
 -1.44150035E-01 -1.31674831E-02 -3.85784725E-03 -8.24441456E-10  1.03468998E-02
 -7.70364545E-03  8.24666217E-03 -3.25791542E-09  5.13908545E-03 -7.61183249E-03
  9.25061258E-03  1.95901439E-03  1.72414689E-10  1.77175198E-11  1.26413414E-01
 -2.48820556E-01  7.81748513E-03  3.68717335E-02 -3.10189876E-10 -1.95737556E-01
 -1.21495550E-02 -1.09629797E-03  3.06313735E-10  1.40569888E-02 -1.33244719E-02
 -6.98595053E-03  3.18843338E-09  5.96313270E-04 -3.95397591E-03  1.25611083E-02
 -1.31297147E-03  3.51896506E-11  1.33601984E-11  3.33172409E-02 -6.55788737E-02
 -1.10235526E-01  1.65731482E-02 -6.00680770E-10 -5.15878052E-02 -1.50500674E-02
 -1.59550555E-03 -6.58897761E-10  3.69547506E-03  2.67813373E-03 -4.23464331E-03
 -3.04626280E-09  1.12316830E-03 -2.00822133E-03  3.31051753E-03  1.02866216E-02
  1.41511380E-10  6.55113526E-11 -9.30963658E-02  1.83242195E-01 -3.36300785E-02
 -7.55154258E-02 -3.60849787E-09  1.44150035E-01 -1.31674831E-02 -3.85784725E-03
  2.20123709E-09 -1.03468997E-02 -7.70364540E-03  8.24666222E-03  7.09836141E-09
 -5.13908545E-03  7.61183249E-03 -9.25061258E-03 -1.95901439E-03  2.38454889E-10
  2.84830595E-10  7.49546940E-02  7.36426849E-03  1.97551304E-02  1.94056313E-03
 -5.51997331E-02 -5.42362379E-03 -7.49546940E-02 -7.36426849E-03 -1.97551304E-02
 -1.94056313E-03  5.51997331E-02  5.42362379E-03 -3.45133953E-02  6.79332379E-02
  5.15852551E-02 -9.85173912E-02 -9.01035458E-09  5.34401660E-02  3.26915255E-03
 -1.47625343E-02 -4.96773704E-09 -3.83331799E-03 -5.00236681E-03  1.09034351E-03
 -3.65210117E-09  7.14938463E-03 -6.23261315E-03 -3.42936705E-03 -6.98880573E-03
  2.32543733E-09  2.04797666E-09 -1.26733877E-01  2.49451619E-01  3.12855709E-02
  1.95359080E-02  2.55155473E-11  1.96234489E-01  2.77054851E-03 -1.18616382E-02
  1.45362748E-10 -1.40875667E-02 -2.25052033E-03 -1.49116047E-02  1.26050915E-09
  2.76356530E-03  6.02683621E-04 -1.25929211E-02  2.55376944E-03  1.36533624E-10
  2.15939704E-10 -9.22203517E-02  1.81517994E-01 -6.08003441E-02 -5.70680594E-02
 -3.87811421E-10  1.42794386E-01  5.07687408E-04 -1.37435406E-02  1.00315494E-10
 -1.02520197E-02  1.02313929E-02 -4.52693133E-03 -4.72737254E-10  7.35630131E-03
 -4.90686653E-03 -9.16354752E-03  3.00006398E-03 -1.19612771E-11  9.55218564E-11
  3.45133953E-02 -6.79332379E-02  5.15852551E-02 -9.85173912E-02 -8.48074221E-11
 -5.34401660E-02  3.26915255E-03 -1.47625343E-02  8.38076419E-11  3.83331793E-03
 -5.00236689E-03  1.09034370E-03  8.68941881E-10 -7.14938463E-03  6.23261315E-03
  3.42936705E-03  6.98880573E-03  5.66686964E-12  1.22429372E-11  1.26733877E-01
 -2.49451619E-01  3.12855709E-02  1.95359080E-02  9.58464359E-11 -1.96234489E-01
  2.77054851E-03 -1.18616382E-02 -5.05792061E-10  1.40875668E-02 -2.25052055E-03
 -1.49116047E-02 -1.24511995E-09 -2.76356530E-03 -6.02683621E-04  1.25929211E-02
 -2.55376944E-03  8.98567966E-12  1.21996197E-10  9.22203517E-02 -1.81517994E-01
 -6.08003441E-02 -5.70680594E-02 -2.15888803E-09 -1.42794386E-01  5.07687409E-04
 -1.37435406E-02  1.13057688E-09  1.02520197E-02  1.02313928E-02 -4.52693151E-03
  2.72030544E-09 -7.35630131E-03  4.90686653E-03  9.16354752E-03 -3.00006398E-03
 -1.52358111E-10  2.13034580E-10  2.04641513E-02  2.01029316E-03  7.51451644E-02
  7.38324322E-03  5.46808805E-02  5.37292818E-03 -2.04641513E-02 -2.01029316E-03
 -7.51451644E-02 -7.38324322E-03 -5.46808805E-02 -5.37292818E-03 -4.97220982E-04
  1.03033193E-03 -8.58590749E-02  1.87714421E-01 -3.36982955E-10  8.17812420E-04
 -2.13271910E-02  4.61141379E-02 -1.81094025E-10 -2.79913913E-04 -2.87390003E-03
  6.06360157E-03 -1.05500069E-10 -6.08912547E-03  6.07053600E-03 -3.98361505E-05
  6.14695114E-03  9.17406154E-10 -1.83136452E-09  8.91619086E-02 -1.84761350E-01
  1.07664862E-01  5.01875566E-02 -2.31023569E-10 -1.46605714E-01  3.01846981E-02
  5.05172482E-02  1.74479026E-09  5.00196251E-02  5.07369678E-03  1.79215068E-02
  1.89734079E-09  6.79686526E-03 -3.46414802E-03  7.14191314E-03  3.55867422E-03
  2.84017532E-10 -2.12627861E-10 -8.86647280E-02  1.83730982E-01  1.09268519E-01
  4.98776452E-02 -1.39333921E-10  1.45788263E-01  5.79297078E-02 -9.87272435E-03
 -8.26579175E-10 -4.97398060E-02  1.67998486E-02 -7.83170612E-03 -1.26066012E-09
 -4.07291942E-03  7.58687347E-04 -7.10211749E-03 -6.35738068E-03  6.45261288E-11
  9.32276334E-11 -4.97220982E-04  1.03033193E-03  8.58590749E-02 -1.87714421E-01
 -2.91604360E-12  8.17812422E-04  2.13271910E-02 -4.61141379E-02  4.41142405E-12
 -2.79914248E-04  2.87390008E-03 -6.06360158E-03  2.09893109E-11 -6.08912547E-03
  6.07053600E-03 -3.98361506E-05  6.14695114E-03  4.81679391E-11 -1.04644468E-10
  8.91619086E-02 -1.84761350E-01 -1.07664862E-01 -5.01875566E-02  1.13876021E-10
 -1.46605714E-01 -3.01846981E-02 -5.05172482E-02  8.02457474E-10  5.00196253E-02
 -5.07369671E-03 -1.79215068E-02  1.21969616E-09  6.79686526E-03 -3.46414802E-03
  7.14191314E-03  3.55867422E-03 -1.08761016E-10  1.62442086E-11 -8.86647280E-02
  1.83730982E-01 -1.09268519E-01 -4.98776452E-02  1.02743820E-10  1.45788263E-01
 -5.79297078E-02  9.87272435E-03 -1.71979084E-09 -4.97398061E-02 -1.67998486E-02
  7.83170618E-03 -1.79090749E-09 -4.07291942E-03  7.58687347E-04 -7.10211749E-03
 -6.35738068E-03 -2.40265893E-11 -3.43857142E-10  5.51914110E-04  1.27876982E-04
 -9.88311547E-02 -2.28521718E-02  9.82801435E-02  2.27247089E-02  5.51914109E-04
  1.27876983E-04 -9.88311547E-02 -2.28521718E-02  9.82801435E-02  2.27247089E-02
 -1.02667993E-01  2.12748496E-01 -6.27798455E-02 -2.96889956E-02 -6.95367267E-08
  1.68814086E-01 -5.56316399E-02 -2.56056491E-02 -3.73317859E-08 -5.76024885E-02
 -1.91926429E-02 -8.77520555E-03 -2.27082019E-08  1.47153701E-03 -5.30915662E-03
 -8.22374988E-03  4.42987727E-03  1.42469046E-08  6.49924637E-09  5.09035687E-02
 -1.05482392E-01 -1.75124007E-01  5.14946334E-02 -1.32436152E-08 -8.36991286E-02
 -4.10003197E-02  3.44630267E-02  2.51829907E-09  2.85600573E-02 -4.79661794E-03
  1.09752688E-02  1.19935791E-08  2.10024173E-03 -1.97481913E-04  4.07739591E-03
 -8.51464592E-03  9.07553907E-10 -5.30843482E-10  5.17648309E-02 -1.07266949E-01
  7.50586497E-02  1.65437484E-01 -2.61259888E-09 -8.51162876E-02  3.56105973E-04
  5.36505626E-02 -2.46310097E-09  2.90424716E-02 -5.29470854E-03  1.08974030E-02
 -5.10949261E-09 -6.47149799E-03  8.40637354E-03  4.14640640E-03  1.99156772E-04
  5.40631317E-10  6.15283350E-11 -1.02667993E-01  2.12748496E-01  6.27798455E-02
  2.96889956E-02 -6.44955552E-10  1.68814086E-01  5.56316399E-02  2.56056491E-02
  8.97017787E-10 -5.76024884E-02  1.91926429E-02  8.77520552E-03  5.11278818E-09
  1.47153701E-03 -5.30915662E-03 -8.22374988E-03  4.42987727E-03  9.52798352E-11
  4.39741391E-11  5.09035687E-02 -1.05482392E-01  1.75124007E-01 -5.14946334E-02
 -2.61379611E-09 -8.36991286E-02  4.10003197E-02 -3.44630267E-02 -2.47085430E-09
  2.85600575E-02  4.79661788E-03 -1.09752688E-02 -5.12097362E-09  2.10024173E-03
 -1.97481913E-04  4.07739591E-03 -8.51464592E-03  4.02350920E-10  3.67144495E-10
  5.17648309E-02 -1.07266949E-01 -7.50586497E-02 -1.65437484E-01 -1.32450837E-08
 -8.51162876E-02 -3.56105973E-04 -5.36505626E-02  2.53484375E-09  2.90424715E-02
  5.29470848E-03 -1.08974031E-02  1.20104654E-08 -6.47149799E-03  8.40637354E-03
  4.14640640E-03  1.99156772E-04  1.95383072E-10  1.03652247E-09  1.13803033E-01
  2.63146429E-02 -5.64232058E-02 -1.30465308E-02 -5.73786500E-02 -1.32678893E-02
  1.13803033E-01  2.63146429E-02 -5.64232058E-02 -1.30465308E-02 -5.73786500E-02
 -1.32678893E-02  9.01280488E-03 -1.90527087E-02  1.81447842E-01  8.26356082E-02
  8.63329377E-08 -3.45565496E-02  6.39361768E-02  2.91178466E-02  3.39551295E-08
 -6.25045930E-03  4.41813066E-03  2.01249182E-03  6.28806323E-09 -8.75736242E-04
 -2.99832963E-03  1.49184008E-04  1.40848675E-03 -1.20905123E-08 -5.50624507E-09
  9.01382519E-03 -1.90549427E-02  1.91605239E-02  1.98456369E-01  1.98738742E-08
 -3.45583005E-02  6.75164034E-03  6.99305150E-02  4.73107239E-09 -6.25608440E-03
  4.66920706E-04  4.83160917E-03 -7.10674207E-10 -3.52389825E-03 -3.50022086E-04
  1.49249693E-04  3.56938917E-04 -1.71249890E-09  1.20027274E-09  9.01347552E-03
 -1.90544751E-02 -1.62287208E-01  1.15823062E-01  6.60776050E-09 -3.45562636E-02
 -5.71863785E-02  4.08130143E-02  3.12638885E-09 -6.25665212E-03 -3.95153344E-03
  2.81956147E-03 -5.44951246E-10 -1.41142906E-03 -2.46244376E-03  1.49221062E-04
 -1.76560341E-03 -6.96144195E-10 -7.84099104E-11  9.01280488E-03 -1.90527087E-02
 -1.81447842E-01 -8.26356082E-02  3.88306873E-09 -3.45565496E-02 -6.39361768E-02
 -2.91178466E-02  1.39167555E-09 -6.25045937E-03 -4.41813064E-03 -2.01249183E-03
 -1.17932707E-10 -8.75736242E-04 -2.99832963E-03  1.49184008E-04  1.40848675E-03
 -4.05796506E-10 -1.84771975E-10  9.01382519E-03 -1.90549427E-02 -1.91605239E-02
 -1.98456369E-01  6.60775767E-09 -3.45583005E-02 -6.75164034E-03 -6.99305150E-02
  3.12645307E-09 -6.25608435E-03 -4.66920686E-04 -4.83160918E-03 -5.45841569E-10
 -3.52389825E-03 -3.50022086E-04  1.49249693E-04  3.56938917E-04 -5.16222998E-10
 -4.73642921E-10  9.01347552E-03 -1.90544751E-02  1.62287208E-01 -1.15823062E-01
  1.98740160E-08 -3.45562636E-02  5.71863785E-02 -4.08130143E-02  4.73124430E-09
 -6.25665213E-03  3.95153344E-03 -2.81956146E-03 -7.08979386E-10 -1.41142906E-03
 -2.46244376E-03  1.49221062E-04 -1.76560341E-03 -2.18634096E-10 -2.07979342E-09
 -1.09152370E-01 -5.56478008E-02 -1.09153335E-01 -5.56475078E-02 -1.09153180E-01
 -5.56471734E-02 -1.09152370E-01 -5.56478008E-02 -1.09153335E-01 -5.56475078E-02
 -1.09153180E-01 -5.56471734E-02  5.93332772E-02 -1.22996283E-01  1.22016308E-01
  5.55571902E-02  1.45088206E-07 -1.49319989E-01  4.99488839E-02  2.27443300E-02
  5.99919271E-08  1.91209838E-01  4.71589873E-02  2.14765572E-02  1.01610477E-08
 -7.62088923E-03  1.08947723E-02  4.56539023E-03 -1.22850854E-02 -1.45721903E-08
 -6.63610616E-09 -5.93332792E-02  1.22996421E-01 -1.28924484E-02 -1.33445833E-01
  4.60098037E-08  1.49319791E-01 -5.27709398E-03 -5.46285330E-02  1.59014905E-08
 -1.91204749E-01 -4.97943917E-03 -5.15785754E-02 -6.62657023E-10 -1.54795313E-02
  1.22056317E-02 -4.56538631E-03  3.11561703E-03 -2.94239066E-09  2.35252668E-09
  5.93329794E-02 -1.22995680E-01 -1.09125574E-01  7.78922326E-02  1.97476083E-08
 -1.49319178E-01 -4.46725268E-02  3.18854507E-02  9.20838435E-09  1.91205336E-01
 -4.21777065E-02  3.01035984E-02  3.22125602E-10 -2.94790846E-03  6.22166929E-03
  4.56538554E-03  1.54004985E-02 -1.57486939E-09 -1.21736260E-11 -5.93332772E-02
  1.22996283E-01  1.22016308E-01  5.55571902E-02  1.34448326E-08  1.49319989E-01
  4.99488839E-02  2.27443300E-02  5.64970537E-09 -1.91209838E-01  4.71589873E-02
  2.14765571E-02 -4.05431334E-10  7.62088923E-03 -1.08947723E-02 -4.56539023E-03
  1.22850854E-02 -8.78232264E-10 -3.99971640E-10  5.93332792E-02 -1.22996421E-01
 -1.28924484E-02 -1.33445833E-01  1.97478622E-08 -1.49319791E-01 -5.27709398E-03
 -5.46285330E-02  9.20853447E-09  1.91204749E-01 -4.97943915E-03 -5.15785754E-02
  3.22127481E-10  1.54795313E-02 -1.22056317E-02  4.56538631E-03 -3.11561703E-03
 -1.04288209E-09 -1.18010879E-09 -5.93329794E-02  1.22995680E-01 -1.09125574E-01
  7.78922326E-02  4.60102988E-08  1.49319178E-01 -4.46725268E-02  3.18854507E-02
  1.59015634E-08 -1.91205336E-01 -4.21777065E-02  3.01035984E-02 -6.62584331E-10
  2.94790846E-03 -6.22166929E-03 -4.56538554E-03 -1.54004985E-02 -1.56882217E-10
 -3.76386845E-09 -1.40472997E-01 -8.47779227E-02  1.40471601E-01  8.47767592E-02
 -1.40474995E-01 -8.47793629E-02  1.40472997E-01  8.47779227E-02 -1.40471601E-01
 -8.47767592E-02  1.40474995E-01  8.47793629E-02  2.46036611E-06 -5.38100476E-06
 -1.14557891E-01  2.51541435E-01  1.53893536E-12 -4.75286269E-06 -3.64813885E-02
  8.01105099E-02  2.90415993E-12 -2.36853303E-05 -9.24813990E-03  2.02963101E-02
 -8.79601915E-12 -2.53866237E-03  2.53901621E-03  1.41028183E-07  2.55038758E-03
  1.27056783E-09 -2.79071089E-09 -2.19910405E-06  4.84901626E-06  2.75121407E-01
 -2.65691895E-02  2.06707876E-09  3.71466195E-06  8.76174321E-02 -8.46411133E-03
  3.04705728E-09  2.93355631E-05  2.22014850E-02 -2.13960213E-03  2.82043858E-09
  6.43204619E-04 -6.43327952E-04 -9.13542855E-08  3.81433079E-03  6.15740330E-10
 -2.06070944E-10  1.56273043E-06 -3.30278681E-06 -1.60570454E-01 -2.24974324E-01
  6.27400485E-10 -5.10040166E-07 -5.11399698E-02 -7.16474163E-02 -6.21436360E-10
 -2.69681711E-05 -1.29517322E-02 -1.81548930E-02 -1.94061753E-09  3.18225005E-03
 -3.18206161E-03  1.46597839E-07  1.26376109E-03 -2.19464026E-11  2.45112137E-11
 -2.46036611E-06  5.38100479E-06 -1.14557891E-01  2.51541435E-01  4.96625831E-13
  4.75286241E-06 -3.64813885E-02  8.01105099E-02 -4.56530308E-13  2.36853190E-05
 -9.24813994E-03  2.02963102E-02  4.85633004E-12  2.53866237E-03 -2.53901621E-03
 -1.41028173E-07 -2.55038758E-03 -4.41800005E-11  9.69475965E-11  2.19910409E-06
 -4.84901631E-06  2.75121407E-01 -2.65691895E-02 -6.27460787E-10 -3.71466201E-06
  8.76174321E-02 -8.46411133E-03  6.22630652E-10 -2.93355552E-05  2.22014849E-02
 -2.13960213E-03  1.93029339E-09 -6.43204619E-04  6.43327952E-04  9.13542873E-08
 -3.81433079E-03 -4.02475845E-12  3.26412898E-11 -1.56273046E-06  3.30278686E-06
 -1.60570454E-01 -2.24974324E-01 -2.06664137E-09  5.10040519E-07 -5.11399698E-02
 -7.16474163E-02 -3.04849422E-09  2.69681745E-05 -1.29517323E-02 -1.81548931E-02
 -2.80702014E-09 -3.18225005E-03  3.18206161E-03 -1.46597862E-07 -1.26376109E-03
 -2.48768408E-10 -5.99663724E-10 -1.34772545E-06  7.24054140E-07  5.64908201E-06
  2.62521851E-06 -6.62062781E-06 -3.50265196E-06  1.34772546E-06 -7.24054128E-07
 -5.64908208E-06 -2.62521854E-06  6.62062786E-06  3.50265195E-06 -2.03175823E-02
  4.79462475E-02  2.33456648E-01  1.48329484E-01  2.06829990E-07  6.97369693E-02
  8.48222901E-02  3.26213238E-02  7.72142140E-08  3.81710697E-02  1.79753521E-02
 -4.24021025E-04 -3.45166677E-09 -1.19879668E-02  4.49730902E-03 -5.42572517E-04
 -1.64500642E-03 -1.21425168E-08 -5.61163912E-09 -1.33741284E-03  3.15630250E-03
 -8.30097129E-02  2.61240281E-02  8.58137414E-08  4.58972603E-03  1.27018613E-02
  4.76964470E-03  4.12975517E-08  2.51115771E-03  1.74822950E-02 -6.19125183E-04
  1.27889513E-08 -2.07869976E-03  1.58595099E-03 -3.56474025E-05 -1.34299064E-02
 -4.16651623E-09  4.36340050E-09  1.89814099E-02 -4.47925044E-02  1.81044913E-01
 -1.86853468E-01  4.78165072E-08 -6.51505285E-02  7.28786762E-02 -4.37666641E-02
  2.09745370E-08 -3.56419193E-02  1.78937529E-02 -9.47846809E-04 -5.36042621E-09
  1.15999494E-02 -4.60221347E-03  5.06990422E-04 -4.18196119E-03 -2.88241240E-09
  6.63751067E-10  2.03175823E-02 -4.79462475E-02  2.33456648E-01  1.48329484E-01
  3.86665683E-08 -6.97369693E-02  8.48222901E-02  3.26213238E-02  1.98590250E-08
 -3.81710697E-02  1.79753521E-02 -4.24021087E-04  6.88116031E-09  1.19879668E-02
 -4.49730902E-03  5.42572517E-04  1.64500642E-03 -2.05909368E-09 -9.28566135E-10
  1.33741284E-03 -3.15630250E-03 -8.30097129E-02  2.61240281E-02  4.86918565E-08
 -4.58972603E-03  1.27018613E-02  4.76964470E-03  2.13531394E-08 -2.51115773E-03
  1.74822951E-02 -6.19125187E-04 -6.08186814E-09  2.07869976E-03 -1.58595099E-03
  3.56474025E-05  1.34299064E-02 -1.47844194E-09 -2.61791162E-09 -1.89814099E-02
  4.47925044E-02  1.81044913E-01 -1.86853468E-01  8.78961480E-08  6.51505285E-02
  7.28786762E-02 -4.37666641E-02  4.28614070E-08  3.56419193E-02  1.78937529E-02
 -9.47846753E-04  1.41558760E-08 -1.15999494E-02  4.60221347E-03 -5.06990422E-04
  4.18196119E-03  8.07310296E-10 -6.10872852E-09 -1.49165559E-01 -1.24472462E-01
 -9.81468927E-03 -8.19068609E-03  1.39347793E-01  1.16279322E-01  1.49165559E-01
  1.24472462E-01  9.81468927E-03  8.19068609E-03 -1.39347793E-01 -1.16279322E-01
 -1.01875904E-02  2.40412413E-02  1.56589734E-01 -1.24633502E-02  1.03696306E-07
  3.49668303E-02  3.68681803E-02  2.87782581E-02  3.87118414E-08  1.91334985E-02
  9.01619259E-04  1.75937835E-02 -1.72950195E-09  3.93645152E-03 -7.69199529E-03
 -2.71989164E-04 -1.08190281E-02 -6.16433973E-09 -2.64471436E-09 -2.26892895E-02
  5.35433142E-02  3.43938169E-02  3.04011096E-01  4.56224847E-08  7.78766869E-02
  9.02111279E-03  1.00901367E-01  2.26572465E-08  4.26260754E-02  7.13155638E-04
  1.80867616E-02  8.11492402E-09  3.05908395E-03 -1.14238410E-02 -6.05835903E-04
 -8.14363044E-04 -1.97864914E-09  2.50662181E-09 -1.25030826E-02  2.95047901E-02
 -1.78582086E-01  3.99435356E-02  2.50657956E-08  4.29159585E-02 -3.95164688E-02
  4.07217650E-02  1.09882236E-08  2.34802056E-02  3.82623244E-04  1.76751395E-02
 -3.58561439E-09  5.70670591E-03 -1.03161075E-02 -3.33970824E-04  8.05274454E-03
 -1.52370321E-09  2.57253652E-10  1.01875904E-02 -2.40412413E-02  1.56589734E-01
 -1.24633502E-02  1.93861179E-08 -3.49668303E-02  3.68681803E-02  2.87782581E-02
  9.95681332E-09 -1.91334985E-02  9.01619258E-04  1.75937836E-02  3.44845195E-09
 -3.93645152E-03  7.69199529E-03  2.71989164E-04  1.08190281E-02 -1.02366595E-09
 -4.84556053E-10  2.26892895E-02 -5.35433142E-02  3.43938169E-02  3.04011096E-01
  2.33202496E-08 -7.78766869E-02  9.02111279E-03  1.00901367E-01  1.02333280E-08
 -4.26260753E-02  7.13155604E-04  1.80867616E-02 -2.14769067E-09 -3.05908395E-03
  1.14238410E-02  6.05835903E-04  8.14363044E-04 -6.32825351E-10 -1.30271273E-09
  1.25030826E-02 -2.95047901E-02 -1.78582086E-01  3.99435356E-02  4.14696132E-08
 -4.29159585E-02 -3.95164688E-02  4.07217650E-02  1.95378741E-08 -2.34802056E-02
  3.82623213E-04  1.76751395E-02  5.39070272E-09 -5.70670591E-03  1.03161075E-02
  3.33970824E-04 -8.05274454E-03  9.18504635E-11 -2.93638131E-09 -7.47845813E-02
 -6.24056993E-02 -1.66574727E-01 -1.39000553E-01 -9.17860963E-02 -7.65917272E-02
  7.47845813E-02  6.24056993E-02  1.66574727E-01  1.39000553E-01  9.17860963E-02
  7.65917272E-02 -2.96839197E-08  7.90004276E-08  5.86357773E-08  2.66942663E-08
  2.23571364E-01 -2.12660443E-08 -3.25834706E-08 -1.48436080E-08  1.18302823E-01
 -1.97605445E-07 -7.90887283E-09 -4.23412182E-09  1.24031371E-02 -1.71486968E-08
  9.24820710E-09 -1.91866439E-09 -1.75144568E-08  8.96238521E-03  4.08169076E-03
  2.10942697E-08 -5.49965546E-08 -2.91135293E-07 -1.74010080E-07  2.23570417E-01
 -1.43373118E-08 -1.33010076E-07 -2.63582252E-08  1.18302702E-01  1.56055041E-07
 -3.76263967E-08  1.75576719E-08  1.24022116E-02 -5.04970624E-09  1.32446921E-08
  2.87478209E-10 -5.38708296E-09  9.46300791E-04  9.80248912E-03 -1.22559658E-08
  2.23693466E-08  2.90793223E-07  1.97580923E-07  2.23570729E-01  5.88952177E-08
  9.20464792E-08  5.89462882E-08  1.18302475E-01 -2.62229101E-07  5.72232297E-08
 -5.23409287E-08  1.24013313E-02 -9.40822360E-09  1.22909330E-08 -1.27922421E-09
 -1.99141771E-08 -8.01603428E-03  5.72103079E-03 -8.40440137E-09  3.28460790E-08
 -3.83859548E-07 -1.74807851E-07  2.23571364E-01  2.15442625E-10 -1.10645507E-07
 -5.03867359E-08  1.18302823E-01  4.17281478E-07 -1.16211403E-07 -5.21822872E-08
  1.24031371E-02 -2.61473028E-08  1.31552564E-08  1.89006810E-09 -2.60769860E-08
 -8.96238521E-03 -4.08169076E-03 -1.22554834E-08  2.23689958E-08  3.39945295E-07
  8.96502841E-08  2.23570417E-01  5.88917831E-08  1.04888993E-07  3.07405212E-08
  1.18302702E-01 -2.62119967E-07 -3.26464520E-09  7.76021951E-08  1.24022116E-02
 -1.41394853E-08  1.70216093E-08 -1.27920446E-09 -1.51593488E-08 -9.46300791E-04
 -9.80248912E-03  2.10933626E-08 -5.49965324E-08 -3.22388151E-07 -1.05379555E-07
  2.23570729E-01 -1.43314848E-08 -1.07195626E-07 -8.30402556E-08  1.18302475E-01
  1.55605992E-07 -1.22190085E-08 -4.08811559E-08  1.24013313E-02  7.41009351E-10
  7.45416648E-09  2.87293941E-10 -1.12061116E-08  8.01603428E-03 -5.72103079E-03
 -1.46612345E-07 -1.20849396E-07  1.17896415E-07  1.23851464E-07  1.06793500E-07
  9.61286560E-08 -2.99867906E-07 -2.93620083E-07  1.06783238E-07  9.61150063E-08
  1.17905469E-07  1.23873446E-07  2.10924187E-03 -9.56368862E-03 -1.98210093E-01
  1.65428884E-01  3.22858797E-08  1.37949563E-02 -6.07369715E-02  7.04545376E-02
  3.48805438E-08 -8.79844330E-02 -3.39543585E-02 -9.41881886E-03  6.94120132E-09
  1.66016982E-03  2.39419328E-03 -5.93439343E-04  1.47838124E-02  1.48803991E-08
  4.38524915E-09  2.16411141E-03 -9.81381852E-03  2.18601808E-01 -1.36400094E-01
  1.27769821E-07  1.41590172E-02  8.55419750E-02 -3.51430810E-02  7.00048851E-08
 -9.02836383E-02  2.00311533E-03 -3.60762797E-02  2.31029598E-09 -5.75953719E-03
  9.92036136E-03 -6.09039097E-04  1.18897711E-02  5.47232443E-09  5.03766039E-09
 -4.27328715E-03  1.93770180E-02 -1.83264675E-01  1.33254004E-01  1.78539948E-07
 -2.79535390E-02 -4.25583859E-02  3.13175597E-02  9.92364749E-08  1.78267975E-01
 -5.73718572E-02  4.10088726E-02  1.63657318E-08 -1.03817572E-02  2.16641322E-03
  1.20241404E-03  2.08099495E-02 -4.63288808E-09  5.55298001E-09  2.10924187E-03
 -9.56368862E-03  1.98210093E-01 -1.65428884E-01  1.93954074E-07  1.37949563E-02
  6.07369714E-02 -7.04545376E-02  1.04949670E-07 -8.79844334E-02  3.39543586E-02
  9.41881889E-03  9.29500852E-09  1.66016982E-03  2.39419328E-03 -5.93439343E-04
  1.47838124E-02 -6.78552439E-09 -3.20804815E-09  2.16411141E-03 -9.81381852E-03
 -2.18601808E-01  1.36400094E-01  1.77307776E-07  1.41590172E-02 -8.55419750E-02
  3.51430810E-02  9.90640127E-08 -9.02836378E-02 -2.00311535E-03  3.60762797E-02
  1.74463588E-08 -5.75953719E-03  9.92036136E-03 -6.09039097E-04  1.18897711E-02
  1.18321462E-09 -7.24580917E-09 -4.27328715E-03  1.93770180E-02  1.83264675E-01
 -1.33254004E-01  1.27537961E-07 -2.79535390E-02  4.25583859E-02 -3.13175597E-02
  6.81304452E-08  1.78267975E-01  5.73718572E-02 -4.10088726E-02  8.27867561E-10
 -1.03817572E-02  2.16641322E-03  1.20241404E-03  2.08099495E-02  7.35240636E-09
 -5.01899864E-12  8.44284804E-02  8.83461035E-02  8.66479298E-02  9.06685079E-02
 -1.71076133E-01 -1.79013917E-01  8.44284804E-02  8.83461035E-02  8.66479298E-02
  9.06685079E-02 -1.71076133E-01 -1.79013917E-01 -3.71676059E-03  1.68536547E-02
  1.24625159E-01  2.01841584E-01 -5.68830390E-08 -2.43139468E-02  2.08217561E-02
  6.51541486E-02 -6.14651374E-08  1.55053504E-01  5.45273469E-02  2.82634010E-02
 -1.22144150E-08 -1.81841881E-02  1.10387749E-02  1.04582712E-03 -1.07239522E-02
 -2.41231123E-08 -1.23429998E-08  3.68498700E-03 -1.67091157E-02 -1.53656231E-01
 -1.81448839E-01 -2.24897524E-07  2.41034923E-02 -5.61341959E-02 -4.03495647E-02
 -1.21185113E-07 -1.53723969E-01 -9.03356175E-03 -6.02212929E-02 -2.35898622E-09
 -1.35758546E-02  2.06597632E-02 -1.03686346E-03 -2.09449011E-03 -8.88762337E-09
 -9.47409832E-09  3.16626774E-05 -1.44262821E-04  1.56801074E-01  2.16786406E-01
 -3.13211683E-07  2.09597579E-04  5.99604391E-02  8.33334096E-02 -1.74687268E-07
 -1.32964082E-03  4.10559283E-03  4.84596296E-03 -3.00897320E-08 -9.36203856E-03
  9.42343027E-03 -9.02800803E-06 -3.90281671E-03  8.23037404E-09 -9.89806495E-09
 -3.71676059E-03  1.68536547E-02 -1.24625159E-01 -2.01841584E-01 -3.41811314E-07
 -2.43139468E-02 -2.08217561E-02 -6.51541486E-02 -1.84957027E-07  1.55053505E-01
 -5.45273470E-02 -2.82634009E-02 -1.63910875E-08 -1.81841881E-02  1.10387749E-02
  1.04582712E-03 -1.07239522E-02  1.20618438E-08  5.42647309E-09  3.68498700E-03
 -1.67091157E-02  1.53656231E-01  1.81448839E-01 -3.13908326E-07  2.41034923E-02
  5.61341959E-02  4.03495647E-02 -1.74784547E-07 -1.53723970E-01  9.03356173E-03
  6.02212930E-02 -2.94756447E-08 -1.35758546E-02  2.06597632E-02 -1.03686346E-03
 -2.09449011E-03 -2.04394832E-09  1.26461529E-08  3.16626774E-05 -1.44262820E-04
 -1.56801074E-01 -2.16786406E-01 -2.25027026E-07  2.09597576E-04 -5.99604391E-02
 -8.33334096E-02 -1.22247530E-07 -1.32964037E-03 -4.10559272E-03 -4.84596299E-03
 -3.20170103E-09 -9.36203856E-03  9.42343027E-03 -9.02800798E-06 -3.90281671E-03
 -1.30042131E-08 -9.54123136E-10 -1.48797175E-01 -1.55702013E-01  1.47515774E-01
  1.54360893E-01  1.28144843E-03  1.34036491E-03 -1.48797175E-01 -1.55702013E-01
  1.47515774E-01  1.54360893E-01  1.28144843E-03  1.34036490E-03 -3.13236270E-08
  7.31615760E-08 -2.48630319E-07 -1.12572726E-07  3.33009829E-01 -6.28594702E-09
 -2.38297474E-07 -1.11529623E-07  2.16637076E-01  9.86571287E-08 -9.91683705E-08
 -4.24067826E-08  5.78401236E-02  6.37788591E-09 -4.64491556E-09 -4.18765977E-09
  7.40161282E-09  2.88095118E-03  5.85687277E-03  1.17076199E-08 -3.54985224E-08
  1.04123476E-07  4.41966063E-10  1.03168160E-01  7.33160557E-08  2.89273890E-08
  9.29970543E-08  6.71149612E-02 -1.22592707E-07  3.71180692E-08  9.39774853E-09
  1.79218565E-02  1.16210261E-08 -1.00738752E-08 -3.48847805E-10  5.29716726E-09
 -1.81423569E-02  3.32314443E-03 -1.11073251E-08  3.50768700E-08 -8.88676293E-08
 -3.62089041E-08 -2.29842818E-01 -5.03174977E-08  1.78645093E-08 -7.54865433E-08
 -1.49522568E-01  2.73182275E-07 -5.94868924E-08  3.95630349E-08 -3.99231584E-02
 -3.57148605E-09 -1.14875386E-09  1.23469318E-09  4.19678577E-09 -5.43642180E-03
 -1.36167823E-02 -1.03223988E-09 -5.40441747E-09  2.39010147E-08  1.09895692E-08
 -3.33009829E-01  1.14253053E-07 -5.36160227E-08 -2.35716086E-08 -2.16637076E-01
 -3.64214787E-07  7.53032259E-08  3.22256164E-08 -5.78401236E-02  4.60658136E-09
 -1.32946687E-09 -9.60920649E-10  3.97859393E-09  2.88095118E-03  5.85687277E-03
 -1.09167268E-08  3.45718612E-08 -8.47426689E-08 -4.23927389E-08 -1.03168160E-01
 -5.09001936E-08 -4.62150946E-08  6.38402970E-08 -6.71149612E-02  2.81321776E-07
 -6.34140370E-09 -7.27802708E-08 -1.79218565E-02  1.41146225E-09 -6.08326835E-09
  1.15563754E-09 -7.99759379E-10 -1.81423569E-02  3.32314443E-03  1.15274235E-08
 -3.52728050E-08  6.76410025E-08  7.78310148E-08  2.29842818E-01  7.75529616E-08
  8.77504611E-08 -4.22278214E-08  1.49522568E-01 -1.37298088E-07  3.12621253E-08
  2.72643066E-08  3.99231584E-02  3.73690869E-09 -2.24624451E-09 -2.72955614E-10
  1.32563586E-08 -5.43642180E-03 -1.36167823E-02  4.95691876E-08  2.81187468E-08
 -4.01427846E-08 -9.20017223E-09 -3.38622506E-08 -7.67181183E-08  3.02737714E-08
  5.93651665E-08 -3.33646199E-08 -7.62237228E-08 -4.00188974E-08 -8.68162459E-09
 -6.87858363E-09  1.60700980E-08 -5.34166080E-08 -2.73275774E-08  7.31354230E-02
 -1.41457329E-09 -5.77663067E-08 -1.26137617E-08  4.75780461E-02  2.22241482E-08
 -1.94372802E-08 -1.41938216E-08  1.27025427E-02  1.58114090E-09 -1.20037850E-09
 -9.19021594E-10  1.44430809E-09  8.81464623E-03 -1.66795914E-02  2.14209002E-09
 -7.25868847E-09  2.04620008E-08 -1.11346843E-09  3.24963131E-01  2.62367201E-08
 -1.22032302E-09  2.26593580E-08  2.11403341E-01 -6.20968399E-08  1.09746948E-08
 -5.98251953E-09  5.64453202E-02  2.74956728E-09 -2.54056133E-09  1.05114026E-10
  1.05728789E-09  6.28085512E-03  4.34368270E-03 -1.98358385E-09  6.49838419E-09
 -1.65119505E-08 -7.69141101E-09  2.51827205E-01 -1.24673604E-08  3.86103356E-09
 -1.96394299E-08  1.63825604E-01  7.81805861E-08 -1.60816965E-08  1.10007581E-08
  4.37390678E-02 -7.09574224E-10 -2.12623641E-10  8.28636416E-11  8.69054939E-10
 -1.06588643E-02 -8.36199569E-03 -2.27094850E-10 -1.18867714E-09  5.43527316E-09
  2.00275400E-09 -7.31354230E-02  2.51214220E-08 -1.02753195E-08 -8.50186311E-09
 -4.75780461E-02 -8.02547969E-08  1.59373053E-08  8.52974546E-09 -1.27025427E-02
  1.09442699E-09 -3.74167788E-10 -2.11345868E-10  7.90756549E-10  8.81464623E-03
 -1.66795914E-02 -2.85312018E-09  8.79941550E-09 -2.07792605E-08 -1.14063331E-08
 -3.24963131E-01 -9.79217204E-09 -7.80734955E-09  1.20917935E-08 -2.11403341E-01
  4.42272748E-08 -1.18714983E-09 -1.23004743E-08 -5.64453202E-02  2.99926127E-10
 -1.44127868E-09  4.42367580E-10 -1.88163513E-10  6.28085512E-03  4.34368270E-03
  2.96058913E-09 -8.28658019E-09  1.73461510E-08  1.81128148E-08 -2.51827205E-01
  6.93111383E-09  2.25810918E-08 -2.12386661E-09 -1.63825604E-01  4.10774986E-09
  1.09581199E-08 -1.30606263E-09 -4.37390678E-02  1.01394541E-09 -5.54547857E-10
 -2.41837432E-10  2.62537316E-09 -1.06588643E-02 -8.36199569E-03  1.08860558E-08
  6.15916996E-09 -8.51979488E-09 -7.83145809E-10 -6.24843694E-09 -1.56671309E-08
  6.64825185E-09  1.30412440E-08 -8.51613063E-09 -1.79373521E-08 -9.08438255E-09
 -3.12358482E-09  7.49604781E-10 -1.78026779E-09  2.47216661E-09  4.45507793E-09
 -6.11281021E-03 -1.25893337E-09  2.57015040E-08 -3.72955108E-08 -6.94754314E-03
  6.16414637E-09  6.30038035E-08 -1.27297894E-07 -1.10607631E-02 -6.20473719E-10
  6.95336182E-10  1.41726101E-11  7.63697209E-10 -1.21911761E-02  2.72465960E-02
  1.91900798E-09 -2.53588322E-09  3.37128356E-09  3.76672358E-09 -2.98964448E-01
 -4.18134663E-08  2.31162004E-08 -8.11770665E-09 -3.39762564E-01 -1.01076466E-07
  6.00612451E-08 -2.10778137E-08 -5.41064221E-01 -5.26178311E-10  4.41412953E-10
  1.48825549E-10  3.57254853E-10  1.62366412E-02  8.15661675E-03 -3.90109652E-10
  1.50670940E-10 -2.50187963E-09 -7.68612919E-11  3.05078503E-01  2.82220043E-09
 -3.00258913E-09  1.26447420E-08  3.46712721E-01 -3.72139445E-08  3.12498666E-08
  2.75799711E-08  5.52121744E-01  2.11549353E-10  2.96197868E-11 -1.80883600E-10
 -2.05449896E-10  1.64462801E-02  6.04139069E-03  1.24819114E-10 -1.44132925E-10
 -7.01857681E-10  1.08866609E-09 -6.11281021E-03 -3.52974821E-09 -2.58629190E-09
  8.62004465E-09 -6.94754314E-03  1.56832189E-08 -1.79631090E-08  3.10808393E-08
 -1.10607631E-02 -5.74839163E-11  2.73700258E-11  1.05551321E-11  5.65423420E-11
  1.21911761E-02 -2.72465960E-02  9.61164866E-10 -1.89908286E-09  3.29666303E-09
  1.82017308E-09 -2.98964448E-01 -2.24294796E-09 -6.05694759E-09  5.71517560E-09
 -3.39762564E-01  8.54040956E-09 -3.78378306E-08  2.77963307E-09 -5.41064221E-01
  1.59521235E-11 -9.08826376E-11  1.04693863E-10  4.96372571E-11 -1.62366412E-02
 -8.15661675E-03 -2.07514920E-09  3.49396720E-09 -4.92871424E-09 -1.92772159E-09
  3.05078503E-01  3.55622410E-08 -1.13136831E-08 -1.98700454E-08  3.46712721E-01
  1.09754226E-07 -2.42093566E-08 -5.47106507E-08  5.52121744E-01 -4.00993083E-10
  4.06164506E-10 -1.18507227E-10 -6.33181784E-11 -1.64462801E-02 -6.04139069E-03
  2.36174122E-09  5.89087611E-09  1.23511588E-10 -3.26278151E-09  5.20734188E-10
  5.74741112E-09 -2.29669825E-11 -4.14554783E-10  3.98136704E-10 -1.45960400E-09
  1.31007136E-09  4.86991782E-09 -4.29903651E-08  1.01865849E-07 -2.13087458E-07
 -9.69857051E-08  3.48743775E-01  7.19452650E-08 -4.13000160E-07 -1.88886939E-07
  3.96337415E-01 -4.18130677E-07 -2.44588182E-07 -1.19253239E-07  6.31157085E-01
 -4.72070903E-09  3.27079317E-10 -9.15823650E-10 -3.31858244E-09 -1.04924890E-02
 -4.20348409E-03  4.32924876E-09 -2.73112920E-08  3.76612134E-08 -3.77601603E-08
 -1.79666606E-01  1.80397348E-07 -2.05982814E-08  1.04143213E-07 -2.04187182E-01
 -2.35119765E-07 -8.48259346E-08  1.02297079E-07 -3.25159282E-01  1.49394485E-08
 -1.26207228E-08 -9.48002501E-10  3.20160708E-09 -2.49108917E-02  8.24901911E-03
 -1.63581656E-08  5.01723554E-08 -2.94675984E-08 -3.47360458E-08 -1.69077969E-01
 -1.70009045E-08  7.66272152E-08 -1.24275193E-07 -1.92154004E-01  8.43198939E-07
 -2.45733193E-07  8.43501104E-08 -3.05994390E-01 -5.98464096E-09  1.23046289E-09
  2.15540462E-09  3.94193418E-09  1.07128564E-02  2.44338923E-02 -7.20463419E-09
  8.35975834E-09  9.78248553E-09  4.48103344E-09  3.48743775E-01  2.03493315E-07
 -6.39379006E-08 -2.89982366E-08  3.96337415E-01 -9.15765738E-07  1.82710613E-07
  8.98229183E-08  6.31157085E-01  5.10431315E-10  1.21027083E-09 -6.39909220E-10
 -4.60973246E-10  1.04924890E-02  4.20348409E-03 -1.63352790E-08  5.01369757E-08
 -4.54600943E-08  6.39283592E-10 -1.79666606E-01 -1.70721533E-08 -4.36068009E-08
  1.39650675E-07 -2.04187182E-01  8.44302679E-07 -1.09719991E-07 -2.40048555E-07
 -3.25159282E-01  1.50388141E-09 -6.26427172E-09  2.15950916E-09 -3.58297780E-09
  2.49108917E-02 -8.24901911E-03  4.25711028E-09 -2.72046678E-08 -3.94072751E-09
  5.31636941E-08 -1.69077969E-01  1.81765536E-07  6.47220236E-08 -8.45744465E-08
 -1.92154004E-01 -2.34244335E-07  1.46321841E-08 -1.40984530E-07 -3.05994390E-01
  1.98821955E-09  3.29517706E-10 -9.53943385E-10  1.62095458E-08 -1.07128564E-02
 -2.44338923E-02 -1.34836375E-07 -3.34079852E-07 -4.08807561E-08 -4.46694412E-08
 -2.62616180E-08 -1.22936599E-07  1.24632053E-09  2.39154548E-08 -2.62635520E-08
 -1.23063169E-07 -4.08609448E-08 -4.44920146E-08  2.65933670E-02 -5.96364586E-02
  6.99547954E-02  3.18591269E-02  1.09002271E-07 -2.20763730E-01  1.02845626E-01
  4.68385442E-02  1.28755393E-07  3.08757155E-01 -2.11673854E-01 -9.64738942E-02
 -2.09702686E-07  3.70176117E-03 -5.27659990E-03  4.93571350E-03  5.95700312E-03
 -6.85735467E-09 -3.12019475E-09  2.65930188E-02 -5.96361885E-02  7.38710077E-03
  7.65114757E-02 -1.90688127E-08 -2.20758904E-01  1.08603436E-02  1.12486142E-01
 -1.83465042E-08  3.08726564E-01 -2.22432486E-02 -2.31552666E-01  1.02548753E-07
 -7.49990921E-03  5.92495412E-03  4.93561652E-03  1.51061687E-03 -6.59572565E-09
  3.00711039E-09  2.65933749E-02 -5.96374274E-02 -6.25674465E-02  4.46536860E-02
 -4.57044890E-08 -2.20759911E-01 -9.19862800E-02  6.56496641E-02 -5.48705587E-08
  3.08379539E-01  1.89451744E-01 -1.35102242E-01 -1.79492930E-07  1.43570496E-03
 -3.01058821E-03  4.93558127E-03 -7.46771455E-03  1.56160096E-09  5.32996836E-09
  2.65933670E-02 -5.96364586E-02 -6.99547954E-02 -3.18591269E-02  7.73613300E-08
 -2.20763730E-01 -1.02845626E-01 -4.68385442E-02  9.41606820E-08  3.08757151E-01
  2.11673855E-01  9.64738944E-02  2.58256271E-07  3.70176117E-03 -5.27659990E-03
  4.93571350E-03  5.95700312E-03  2.65661825E-09  1.20740995E-09  2.65930188E-02
 -5.96361885E-02 -7.38710077E-03 -7.65114757E-02 -4.57485011E-08 -2.20758904E-01
 -1.08603436E-02 -1.12486142E-01 -5.49248160E-08  3.08726566E-01  2.22432489E-02
  2.31552665E-01 -1.79453573E-07 -7.49990921E-03  5.92495413E-03  4.93561652E-03
  1.51061687E-03  5.04308493E-09 -2.32252823E-09  2.65933749E-02 -5.96374274E-02
  6.25674465E-02 -4.46536860E-02 -1.90088658E-08 -2.20759911E-01  9.19862800E-02
 -6.56496641E-02 -1.82552475E-08  3.08379537E-01 -1.89451745E-01  1.35102243E-01
  1.02381206E-07  1.43570496E-03 -3.01058821E-03  4.93558127E-03 -7.46771455E-03
 -2.06311360E-09 -6.95106326E-09  2.27734680E-02  4.59384802E-02  2.27735887E-02
  4.59406457E-02  2.27732779E-02  4.59435578E-02  2.27734680E-02  4.59384802E-02
  2.27735887E-02  4.59406456E-02  2.27732779E-02  4.59435578E-02  1.63304233E-02
 -5.08653543E-02  1.07991046E-01  4.92755710E-02  3.01401639E-08 -3.35386782E-02
  1.03481767E-01  1.82845526E-02  1.29263436E-08  4.35073443E-01 -7.34893122E-01
 -6.82108020E-01 -5.13000034E-07 -3.01577695E-03 -2.99918434E-03  8.19283220E-04
  1.28414297E-03 -7.92320823E-09 -3.24747359E-09  7.21684981E-04 -2.24770782E-03
  3.20616235E-04  5.23905053E-03  2.50294401E-09 -1.48195078E-03  5.64859570E-02
 -9.34089405E-04  1.48566025E-08  1.89221661E-02  6.71122711E-01 -1.07083331E-01
  2.51313868E-07 -4.71205039E-04  2.05543479E-04  3.62406379E-05 -1.78215488E-03
  1.56264370E-10  8.25046387E-10 -1.56087435E-02  4.86185670E-02  9.22925384E-02
 -6.59884212E-02  1.05330347E-08  3.20503543E-02  9.66329576E-02 -3.20281365E-02
  7.94143011E-09 -4.15369179E-01 -5.29991123E-01  8.23128481E-01 -8.52875709E-08
  3.41312426E-03  2.33609545E-03 -7.82929258E-04  1.18648773E-03  2.92178978E-10
 -6.27384760E-10 -1.63304233E-02  5.08653543E-02  1.07991046E-01  4.92755710E-02
 -7.93855080E-09  3.35386782E-02  1.03481767E-01  1.82845526E-02 -8.78537859E-09
 -4.35073441E-01 -7.34893121E-01 -6.82108022E-01  7.13186008E-08  3.01577695E-03
  2.99918434E-03 -8.19283220E-04 -1.28414297E-03 -4.49197669E-11 -3.43128047E-10
 -7.21684981E-04  2.24770782E-03  3.20616235E-04  5.23905053E-03  5.47221962E-09
  1.48195078E-03  5.64859570E-02 -9.34089403E-04  1.93899573E-09 -1.89221660E-02
  6.71122713E-01 -1.07083331E-01 -8.20020864E-08  4.71205039E-04 -2.05543479E-04
 -3.62406379E-05  1.78215488E-03 -7.22755856E-10  3.49239524E-10  1.56087435E-02
 -4.86185670E-02  9.22925384E-02 -6.59884212E-02  1.17647688E-08 -3.20503543E-02
  9.66329576E-02 -3.20281365E-02  2.76449562E-08  4.15369177E-01 -5.29991122E-01
  8.23128483E-01  2.22221025E-07 -3.41312426E-03 -2.33609545E-03  7.82929258E-04
 -1.18648773E-03  6.00435952E-10 -7.09808512E-10 -1.05074414E-03 -3.21270476E-02
 -4.62420504E-05 -1.41660255E-03  1.00445685E-03  3.07024215E-02  1.05074415E-03
  3.21270476E-02  4.62420505E-05  1.41660255E-03 -1.00445685E-03 -3.07024215E-02
 -8.59517325E-03  2.67719626E-02 -5.69253561E-02 -2.57447353E-02 -1.58462657E-08
  1.76507253E-02 -2.80701618E-02 -6.75832759E-02 -6.77131685E-09 -2.28664550E-01
  7.04803507E-01 -3.39063643E-01  2.69902759E-07  2.39691411E-04  2.92615032E-03
 -4.31218645E-04  6.78199054E-04  3.84155800E-09  2.43238165E-09 -1.84398297E-02
  5.74364948E-02 -1.28884225E-02 -1.33415801E-01 -1.25153200E-08  3.78659167E-02
 -8.84693674E-03 -1.14579312E-01 -2.32673269E-08 -4.91263757E-01  1.29621684E-01
  1.06692312E+00 -9.71615058E-08  4.30795697E-03  2.48415358E-03 -9.25038684E-04
 -2.77743684E-04  2.77121474E-10 -5.47203385E-10 -9.84500941E-03  3.06655747E-02
  5.83387384E-02 -4.14434348E-02  5.76108983E-10  2.02140891E-02  2.22426395E-02
 -7.44358246E-02  3.07764895E-09 -2.61783451E-01 -8.00538254E-01 -1.34081719E-01
  4.09558578E-08  3.85450176E-04  3.24083428E-03 -4.93788641E-04  4.67002980E-05
  4.54887212E-10  5.08802340E-10  8.59517325E-03 -2.67719626E-02 -5.69253561E-02
 -2.57447353E-02  4.18550099E-09 -1.76507253E-02 -2.80701617E-02 -6.75832759E-02
  4.63177505E-09  2.28664549E-01  7.04803508E-01 -3.39063644E-01 -3.75196943E-08
 -2.39691411E-04 -2.92615032E-03  4.31218645E-04 -6.78199055E-04  3.18232679E-10
 -4.65901374E-10  1.84398297E-02 -5.74364948E-02 -1.28884225E-02 -1.33415801E-01
 -9.00344065E-09 -3.78659167E-02 -8.84693675E-03 -1.14579312E-01 -8.28001252E-09
  4.91263760E-01  1.29621685E-01  1.06692312E+00  4.70903763E-08 -4.30795697E-03
 -2.48415358E-03  9.25038684E-04  2.77743684E-04 -1.53071601E-10 -5.26428476E-10
  9.84500942E-03 -3.06655747E-02  5.83387384E-02 -4.14434348E-02  5.01274009E-09
 -2.02140891E-02  2.22426395E-02 -7.44358246E-02  9.13496578E-10  2.61783450E-01
 -8.00538254E-01 -1.34081718E-01 -1.52075217E-07 -3.85450176E-04 -3.24083428E-03
  4.93788641E-04 -4.67002978E-05 -4.66406178E-10  2.64764550E-11  5.53360608E-04
  1.69083877E-02  1.18706627E-03  3.62782054E-02  6.33829484E-04  1.93656867E-02
 -5.53360608E-04 -1.69083877E-02 -1.18706627E-03 -3.62782054E-02 -6.33829486E-04
 -1.93656867E-02  2.69387263E-02 -6.20674716E-02  4.72536939E-02  3.96381535E-02
  2.17389397E-08 -2.47437028E-01 -3.89492711E-02  5.08424608E-02  3.00701938E-08
 -1.19720001E+01 -3.17369479E+00 -5.09526607E-01 -4.39829179E-07 -2.75768355E-03
 -3.36228957E-04  1.80443934E-04 -6.24594800E-03 -6.30509570E-09 -3.20997696E-09
 -3.08240786E-02  7.10194540E-02 -1.74361232E-02 -6.66365644E-02 -1.48041343E-09
  2.83124331E-01 -3.96814339E-02  2.03556513E-02  1.17693325E-09  1.36985373E+01
 -2.22254472E-01  3.58439850E+00  2.17910053E-07 -3.37002020E-03  6.91031240E-03
 -2.06683171E-04  3.21788107E-03  1.17085641E-09  6.21559457E-10  3.88491011E-03
 -8.95100266E-03  8.96415426E-03  2.73147361E-02  1.99090093E-08 -3.56831116E-02
  6.20271976E-02  8.33400957E-02  2.38982702E-08 -1.72654476E+00  1.18721284E+00
  8.94020562E-01 -5.63867270E-08  3.69932596E-03 -4.14554608E-03  2.59136292E-05
  2.41539600E-03  2.39701406E-10 -9.31868669E-10  2.69387263E-02 -6.20674717E-02
 -4.72536939E-02 -3.96381536E-02 -1.27517589E-08 -2.47437028E-01  3.89492708E-02
 -5.08424607E-02 -1.59550874E-08 -1.19720002E+01  3.17369481E+00  5.09526607E-01
  7.41048366E-09 -2.75768356E-03 -3.36228962E-04  1.80443927E-04 -6.24594800E-03
 -5.23197659E-10 -7.43945580E-10 -3.08240786E-02  7.10194541E-02  1.74361232E-02
  6.66365644E-02  1.20994342E-08  2.83124330E-01  3.96814340E-02 -2.03556509E-02
  1.42463861E-08  1.36985374E+01  2.22254468E-01 -3.58439852E+00 -2.66975558E-08
 -3.37002020E-03  6.91031241E-03 -2.06683158E-04  3.21788107E-03 -1.25914944E-09
  2.57026160E-10  3.88491012E-03 -8.95100274E-03 -8.96415424E-03 -2.73147361E-02
  1.51513864E-08 -3.56831113E-02 -6.20271973E-02 -8.33400958E-02  2.28404191E-08
 -1.72654487E+00 -1.18721286E+00 -8.94020557E-01  1.41123701E-07  3.69932596E-03
 -4.14554608E-03  2.59136213E-05  2.41539601E-03  1.00761441E-09 -4.47428589E-11
 -9.48258357E-03 -2.99116380E-03  1.08506485E-02  3.42689690E-03 -1.36748202E-03
 -4.30869463E-04 -9.48258357E-03 -2.99116336E-03  1.08506486E-02  3.42689630E-03
 -1.36748203E-03 -4.30869006E-04  2.00391888E-02 -4.61707864E-02  4.94219303E-02
 -1.84879020E-03  1.61515569E-08 -1.84065029E-01  2.50426867E-02 -8.07895548E-02
  2.23285401E-08 -8.90564570E+00 -1.62371816E+00 -1.99759114E+00 -3.27066514E-07
 -6.20616992E-03  3.90447853E-03  1.34379040E-04 -4.71421566E-04 -4.95839631E-09
 -1.80254381E-09  1.33104428E-02 -3.06677612E-02 -2.24230553E-02  3.16669784E-02
  1.62435335E-08 -1.22258938E-01 -9.62416134E-02  2.15948558E-03  2.34582504E-08
 -5.91529670E+00 -1.45108972E+00 -1.39842927E+00  8.20211218E-08  2.37602916E-03
 -3.90480651E-03  8.91714705E-05  4.06576446E-03  3.04232595E-10  6.36295848E-10
 -3.33491920E-02  7.68375061E-02  6.17445413E-02 -4.01393707E-02  6.65288526E-09
  3.06318651E-01 -7.45719437E-03  2.01856945E-02  7.69607768E-09  1.48209454E+01
 -3.02728709E+00  2.36340316E+00 -1.09651230E-08  4.36076043E-03 -5.30364973E-04
 -2.23427867E-04 -6.39868955E-03 -7.31444674E-10 -8.88221841E-10  2.00391888E-02
 -4.61707865E-02 -4.94219303E-02  1.84879017E-03 -9.49156444E-09 -1.84065030E-01
 -2.50426867E-02  8.07895548E-02 -1.18831236E-08 -8.90564586E+00  1.62371820E+00
  1.99759115E+00  5.52813509E-09 -6.20616993E-03  3.90447852E-03  1.34379037E-04
 -4.71421568E-04 -7.84099391E-10  3.24395061E-10  1.33104428E-02 -3.06677611E-02
  2.24230553E-02 -3.16669783E-02  1.71471799E-08 -1.22258938E-01  9.62416135E-02
 -2.15948552E-03  2.06656751E-08 -5.91529650E+00  1.45108970E+00  1.39842923E+00
 -5.08561473E-08  2.37602916E-03 -3.90480650E-03  8.91714815E-05  4.06576445E-03
 -1.91789342E-10  7.50816829E-10 -3.33491920E-02  7.68375060E-02 -6.17445412E-02
  4.01393707E-02 -6.09886863E-09  3.06318651E-01  7.45719453E-03 -2.01856944E-02
 -5.63552983E-09  1.48209452E+01  3.02728705E+00 -2.36340315E+00  1.85135211E-07
  4.36076043E-03 -5.30364982E-04 -2.23427876E-04 -6.39868954E-03  9.88909029E-10
  5.10292573E-10 -7.05421506E-03 -2.22912778E-03 -4.68478381E-03 -1.47350499E-03
  1.17394782E-02  3.70352073E-03 -7.05421507E-03 -2.22912728E-03 -4.68478378E-03
 -1.47350567E-03  1.17394781E-02  3.70352142E-03 -4.95467635E-09  6.82374667E-09
 -1.17174348E-08 -5.32131358E-09 -8.32052385E-02 -2.73261555E-09 -3.15743796E-07
 -1.43720331E-07 -1.31957606E-01  6.77540934E-06  1.00879449E-06  4.61787262E-07
  2.39224817E-01  9.17137108E-10 -4.00168678E-09  2.19632778E-09  3.26947580E-09
 -6.29829756E-03 -2.86810510E-03  6.20189997E-09 -3.12985536E-08  3.69241691E-10
  1.25448527E-08 -8.32011144E-02  1.45824826E-07  2.89810520E-08  1.95138101E-07
 -1.31950288E-01 -7.99710644E-06 -2.85510863E-07 -1.80502947E-06  2.39167776E-01
  2.46848515E-09 -8.70035345E-10 -9.36726341E-10 -2.36835934E-11 -6.64635734E-04
 -6.88857815E-03 -6.65653011E-09  2.68338972E-08  1.10940326E-08 -1.08412661E-08
 -8.31953943E-02 -1.15508525E-07  9.90276348E-08 -3.43465584E-08 -1.31942208E-01
  1.07453468E-05 -1.87058126E-06  1.67674359E-06  2.39134283E-01 -9.80990831E-10
 -1.18598117E-09  2.69480209E-09 -1.46846787E-09  5.63309995E-03 -4.02048260E-03
  9.60938328E-09 -2.73954306E-08 -1.11111073E-08 -5.05588905E-09 -8.32052385E-02
  1.37544749E-09 -7.75629861E-08 -3.53350691E-08 -1.31957606E-01 -1.19969717E-05
  2.37528852E-06  1.07821866E-06  2.39224817E-01 -7.55725364E-10  1.39783890E-09
  2.09793087E-10 -1.43082237E-09  6.29829756E-03  2.86810510E-03 -6.66020449E-09
  2.68393256E-08 -8.81515700E-10  1.54856997E-08 -8.32011144E-02 -1.15439324E-07
  3.90373575E-08  9.71983803E-08 -1.31950288E-01  1.07556974E-05  4.12020544E-08
 -2.51440793E-06  2.39167776E-01 -2.35632478E-09  1.92586459E-10  2.69344247E-09
 -8.61660164E-11  6.64635734E-04  6.88857815E-03  6.20234108E-09 -3.13205230E-08
  9.72194057E-09 -7.99568543E-09 -8.31953943E-02  1.45809127E-07  1.66197457E-07
 -1.06276448E-07 -1.31942208E-01 -8.00638628E-06 -1.54877381E-06  9.74888926E-07
  2.39134283E-01  5.40079195E-10  1.04765779E-09 -9.42734704E-10  1.90341800E-09
 -5.63309995E-03  4.02048260E-03 -2.74875429E-08 -4.28267949E-07  6.65062865E-10
  8.73878380E-08 -3.58060810E-09 -7.23396993E-08  1.80113878E-09  5.87738873E-08
 -3.57248566E-09 -7.23529648E-08  6.66047069E-10  8.75455419E-08 -2.48603201E-02
  5.82138996E-02 -4.57519313E-02 -2.08363649E-02 -3.54995526E-08  2.01090093E-01
 -1.12806257E-02 -5.13650865E-03 -9.15440666E-08  4.34672871E+01  8.90697046E+00
  4.05642587E+00  6.34122689E-07  3.73579736E-03 -2.11101679E-03  7.07510886E-04
  3.87929829E-03  3.50906178E-09  1.59806944E-09  2.48604405E-02 -5.82146320E-02
  4.83112528E-03  5.00413364E-02  1.40533215E-09 -2.01088542E-01  1.19056268E-03
  1.23387811E-02  1.68883626E-08 -4.34670531E+01 -9.40553001E-01 -9.74184085E+00
 -3.24106455E-07  3.55876453E-03 -5.18362347E-03 -7.07606196E-04 -9.83863274E-04
  2.19294554E-09  1.53560467E-10 -2.48602735E-02  5.82139674E-02  4.09203706E-02
 -2.92048182E-02  5.58989342E-08  2.01089649E-01  1.00892062E-02 -7.20097467E-03
  8.20393643E-08  4.34671247E+01 -7.96640011E+00  5.68550716E+00  6.91910766E-08
  2.26011092E-03 -6.35315030E-04  7.07655534E-04 -4.86305934E-03 -1.63128934E-09
  1.27729539E-09  2.48603200E-02 -5.82138994E-02 -4.57519311E-02 -2.08363648E-02
  2.78187726E-08 -2.01090092E-01 -1.12806251E-02 -5.13650936E-03  5.09665148E-08
 -4.34672872E+01  8.90697039E+00  4.05642603E+00 -4.64168326E-07 -3.73579737E-03
  2.11101678E-03 -7.07510899E-04 -3.87929827E-03 -5.01717287E-09 -2.29241106E-09
 -2.48604405E-02  5.82146319E-02  4.83112517E-03  5.00413364E-02  5.59063351E-08
  2.01088542E-01  1.19056355E-03  1.23387809E-02  8.20532035E-08  4.34670531E+01
 -9.40553154E-01 -9.74184083E+00  6.91671545E-08 -3.55876453E-03  5.18362348E-03
  7.07606214E-04  9.83863243E-04 -1.06682800E-10 -2.06967589E-09  2.48602736E-02
 -5.82139675E-02  4.09203708E-02 -2.92048183E-02  1.40753769E-09 -2.01089650E-01
  1.00892067E-02 -7.20097395E-03  1.68917596E-08 -4.34671247E+01 -7.96640020E+00
  5.68550702E+00 -3.24142614E-07 -2.26011092E-03  6.35315043E-04 -7.07655504E-04
  4.86305936E-03  1.55603986E-09  1.55343939E-09 -5.11320506E-03 -1.02456869E-01
  5.11317983E-03  1.02456657E-01 -5.11354494E-03 -1.02460942E-01  5.11320504E-03
  1.02456869E-01 -5.11317985E-03 -1.02456657E-01  5.11354492E-03  1.02460941E-01
 -1.04123464E-02  7.47807016E-03  4.86744693E-02  2.21669318E-02  3.40890745E-08
  1.42706558E-01  1.50233090E-01  6.84136483E-02  2.00364528E-07 -2.38992305E-01
 -2.38743839E-01 -1.08465127E-01 -1.53322097E-07  7.74376319E-03 -6.77464561E-05
 -2.33005312E-02  5.18260365E-03  5.99783393E-09  2.72761563E-09 -1.04114848E-02
  7.47782472E-03  5.13930196E-03  5.32370512E-02  4.08445910E-08  1.42700573E-01
  1.58603818E-02  1.64322143E-01  1.02824590E-08 -2.37637446E-01 -2.54951981E-02
 -2.60680963E-01  1.49700847E-07 -2.00117958E-03  9.67816477E-03 -2.33000438E-02
  1.31394033E-03 -4.55492270E-09  1.03067006E-09 -1.04117450E-02  7.47664358E-03
 -4.35340162E-02  3.10691652E-02 -9.13595483E-08  1.42712400E-01 -1.34377713E-01
  9.59095395E-02 -1.10644980E-07 -2.37227901E-01  2.13000703E-01 -1.52279256E-01
 -3.44215924E-07  5.77219863E-03  1.90465882E-03 -2.33003080E-02 -6.49680905E-03
 -1.84526249E-09  3.95588259E-09 -1.04123464E-02  7.47807013E-03 -4.86744693E-02
 -2.21669319E-02  5.55833487E-08  1.42706558E-01 -1.50233090E-01 -6.84136483E-02
  6.64316041E-08 -2.38992323E-01  2.38743843E-01  1.08465129E-01  6.63843216E-07
  7.74376319E-03 -6.77464550E-05 -2.33005312E-02  5.18260364E-03  5.75567647E-09
  2.62188730E-09 -1.04114848E-02  7.47782474E-03 -5.13930196E-03 -5.32370512E-02
 -9.13751201E-08  1.42700573E-01 -1.58603818E-02 -1.64322143E-01 -1.10665872E-07
 -2.37637428E-01  2.54951975E-02  2.60680959E-01 -3.44323773E-07 -2.00117958E-03
  9.67816477E-03 -2.33000438E-02  1.31394034E-03  1.77692327E-09 -3.98250948E-09
 -1.04117450E-02  7.47664355E-03  4.35340162E-02 -3.10691652E-02  4.07193097E-08
  1.42712400E-01  1.34377713E-01 -9.59095395E-02  1.00506015E-08 -2.37227920E-01
 -2.13000706E-01  1.52279258E-01  1.50835867E-07  5.77219863E-03  1.90465882E-03
 -2.33003080E-02 -6.49680905E-03 -2.21694350E-09 -4.10857982E-09  4.73633762E-02
  3.57751469E-01  4.73637588E-02  3.57737925E-01  4.73638880E-02  3.57735910E-01
  4.73633762E-02  3.57751469E-01  4.73637588E-02  3.57737925E-01  4.73638880E-02
  3.57735910E-01 -2.96796327E-09 -1.18550767E-08 -1.20941325E-08 -8.81871772E-09
 -1.11228752E-01  5.09680717E-08 -2.37099444E-07 -1.05393147E-07 -1.83379699E-01
 -2.20658755E-05 -4.57936414E-06 -1.95692202E-06  7.71673715E-01  3.56555468E-09
 -2.04863029E-09 -4.57031701E-09  2.92398227E-09 -9.55268764E-03 -3.23069002E-03
 -6.63341278E-09 -2.91755526E-10  2.31800349E-09  2.49660807E-09 -7.98699772E-02
  2.12685836E-07  5.19491640E-09  1.74315226E-07 -1.31676375E-01  1.83251386E-05
 -4.23575557E-07  3.94353127E-06  5.54192115E-01  1.88026649E-09  1.62370523E-09
 -5.82724684E-09  1.50227984E-09  2.28879297E-03 -7.45890082E-03  2.23660677E-09
 -8.56984332E-10 -3.11200092E-08  1.03124072E-08  3.13546818E-02 -1.16313262E-07
  1.36349796E-08  1.85957485E-09  5.16911865E-02 -1.41151631E-05  2.65212950E-06
 -1.89680598E-06 -2.17586354E-01 -9.31859840E-10  4.49762586E-10 -3.91243627E-09
 -3.27150421E-10  2.95431112E-05  4.91035710E-03 -6.89713776E-09  1.13648326E-08
  3.09417331E-09 -7.19369452E-10  1.11228752E-01  1.09483537E-07 -8.09566839E-08
 -3.91619589E-08  1.83379699E-01  1.37148836E-05 -2.79772682E-06 -1.23495070E-06
 -7.71673715E-01  3.32977741E-09  5.11605337E-11 -4.69517285E-09  2.87508787E-09
 -9.55268764E-03 -3.23069002E-03  2.57158972E-09 -1.29038188E-09 -1.70473502E-08
 -2.95499672E-08  7.98699772E-02 -1.21578676E-07  1.18773149E-08  9.88100841E-09
  1.31676375E-01 -1.44951443E-05  4.55674968E-07  3.31032620E-06 -5.54192115E-01
 -1.62004994E-10 -3.26237641E-10 -3.75090611E-09 -2.16673885E-10  2.28879297E-03
 -7.45890082E-03 -6.58209187E-09  1.08206497E-09  4.03383833E-09  6.81449353E-09
 -3.13546818E-02  2.04132784E-07  1.37674876E-07 -9.94957696E-08 -5.16911865E-02
  1.85948768E-05  2.82259485E-06 -2.96548591E-06  2.17586354E-01  3.85837402E-09
 -1.46184649E-10 -5.36527124E-09  6.31168790E-10  2.95431112E-05  4.91035710E-03
 -4.54668828E-08 -2.61280385E-07  4.92613706E-09  6.86670793E-08  9.74214702E-09
  8.25278035E-08  1.25896301E-08  8.73769255E-08  9.12322535E-09  7.95514827E-08
  4.20985652E-09  5.98080007E-08  7.48132256E-10  2.99806069E-09  8.42965302E-09
 -9.58941633E-09  2.80102622E-02 -1.28324568E-08  5.59060923E-08  3.49842129E-08
  4.61797177E-02  5.56495618E-06  9.42950779E-07  9.58784827E-07 -1.94348332E-01
  5.97648757E-10 -9.70313671E-10  1.14844140E-09 -2.23400642E-09  6.22116260E-04
  4.72996750E-03  1.53133685E-09 -2.83709848E-09 -1.23551700E-08  7.76218366E-09
 -8.23213542E-02 -3.51889631E-08 -2.27205718E-08 -3.29836935E-08 -1.35718961E-01
 -5.22388696E-06  1.15232036E-08 -1.28120971E-06  5.71163061E-01 -1.00840953E-09
 -3.40301479E-10  4.57026001E-10 -2.26141177E-09 -3.60597792E-03 -7.11170551E-03
 -1.28172646E-09  1.12951384E-09  1.29176537E-08  5.56990442E-09 -1.10330972E-01
  4.06332513E-08 -6.96858302E-09 -1.59271663E-09 -1.81896005E-01  4.37992113E-06
 -9.89963642E-07  3.20102561E-07  7.65477086E-01 -8.22502428E-10  9.65727905E-10
  6.20650814E-10 -7.55720801E-10  8.76320758E-03 -4.85264174E-03  1.72709818E-09
 -2.85423950E-09  2.67968284E-09 -7.47433253E-09 -2.80102622E-02 -2.74348333E-08
  2.39882923E-08  1.75233707E-09 -4.61797177E-02 -3.45371612E-06  6.47501580E-07
  4.36641425E-07  1.94348332E-01 -2.12455918E-09  1.27557064E-09  1.16842947E-09
  5.73120789E-10  6.22116260E-04  4.72996750E-03  5.57744090E-11 -5.78639481E-10
 -5.20439276E-09  8.92095356E-09  8.23213542E-02  1.94584783E-08  2.13374553E-10
 -6.75685051E-10  1.35718961E-01  2.82536358E-06  2.15316268E-07 -6.93620256E-07
 -5.71163061E-01  5.97709931E-10 -4.94283212E-10  1.28413335E-09  1.39110325E-09
 -3.60597792E-03 -7.11170551E-03  1.78595851E-09  2.66178409E-09  4.00275843E-10
  1.26669847E-08  1.10330972E-01 -6.96566610E-08 -2.87030672E-08  4.84338267E-08
  1.81896005E-01 -4.08284151E-06 -4.31938362E-07  6.31121267E-07 -7.65477086E-01
  8.43766864E-10 -1.30529760E-09  2.34704248E-09  4.44169410E-10  8.76320758E-03
 -4.85264174E-03  1.14626345E-08  6.57433021E-08  3.03800293E-10  2.19994318E-09
 -1.09990699E-09 -1.42786438E-08 -3.14676921E-09 -2.18136391E-08 -3.60897131E-09
 -2.61934362E-08 -2.58023230E-09 -3.43385798E-08 -8.95173435E-08 -9.77385452E-07
  2.42296037E-02 -5.32049109E-02 -1.13137992E-10  1.30853975E-05  1.65922625E-02
 -3.64033076E-02 -1.58600955E-10 -2.30394316E-03 -4.45906811E-01  9.78169657E-01
  7.02856070E-10  6.62145563E-03 -6.62130941E-03 -2.06758215E-07 -6.65326431E-03
  3.07161719E-10 -7.02825003E-10 -2.29818293E-07  1.27465289E-06 -5.81914906E-02
  5.61692009E-03  2.86660516E-09 -7.63540162E-06 -3.98201261E-02  3.82982997E-03
  8.38778178E-09  2.02850518E-03  1.06991669E+00 -1.02909527E-01  1.70996225E-08
 -1.67920292E-03  1.67915696E-03 -1.75475909E-09 -9.94795934E-03  9.96405403E-10
  1.54772393E-09 -4.17260689E-07 -8.88269053E-07  3.39615570E-02  4.75851316E-02
  2.99223351E-08  1.79140009E-05  2.32304917E-02  3.25685271E-02  4.86788498E-08
 -1.97263207E-03 -6.24171511E-01 -8.75303236E-01 -2.55544168E-07 -8.30083661E-03
  8.30072828E-03 -4.00790612E-07 -3.29479245E-03 -1.04319090E-09  1.03366334E-09
  8.95167749E-08  9.77386378E-07  2.42296037E-02 -5.32049109E-02  1.11832541E-10
 -1.30853930E-05  1.65922625E-02 -3.64033076E-02  1.82948710E-10  2.30394263E-03
 -4.45906810E-01  9.78169653E-01 -9.70518518E-10 -6.62145563E-03  6.62130941E-03
  2.06758200E-07  6.65326431E-03  7.30100767E-10 -1.62543535E-09  2.29816242E-07
 -1.27465184E-06 -5.81914906E-02  5.61692010E-03 -2.98518686E-08  7.63543024E-06
 -3.98201261E-02  3.82982998E-03 -4.85562639E-08 -2.02850710E-03  1.06991669E+00
 -1.02909528E-01  2.55134338E-07  1.67920292E-03 -1.67915696E-03  1.75408750E-09
  9.94795934E-03 -8.66395810E-11  1.45687416E-09  4.17263178E-07  8.88266405E-07
  3.39615570E-02  4.75851316E-02 -3.03207271E-09 -1.79140301E-05  2.32304916E-02
  3.25685270E-02 -8.65575752E-09  1.97263453E-03 -6.24171509E-01 -8.75303232E-01
 -1.61736445E-08  8.30083661E-03 -8.30072828E-03  4.00791397E-07  3.29479245E-03
 -1.82859606E-09  2.76313565E-10  1.83458766E-07  1.89396960E-05 -3.77133075E-07
 -1.92194878E-05 -8.74834703E-08  1.75461650E-05 -1.83459087E-07 -1.89396941E-05
  3.77132310E-07  1.92195020E-05  8.74836272E-08 -1.75461914E-05 -4.40542759E-08
  8.43788367E-08 -2.13951997E-07 -9.74364767E-08  2.13505383E-01  2.93646588E-07
 -4.98682985E-07 -2.27130293E-07  3.08538690E-01 -1.36744050E-05 -1.50241564E-06
 -6.76006282E-07  3.43710970E+00 -1.03240772E-08  4.88849817E-09  1.93247009E-09
 -1.00917261E-08 -1.32460924E-02 -6.03245370E-03  2.87200978E-09 -2.58497203E-08
  2.15603352E-08 -2.67304849E-08 -2.13506681E-01  1.94282466E-07 -2.95160328E-08
  9.45769111E-08 -3.08539379E-01  7.81368608E-06 -2.38436203E-06  1.96988774E-06
 -3.43709087E+00  1.91447771E-08 -1.66891254E-08 -4.18653647E-09  8.75309124E-09
  1.39871328E-03  1.44873864E-02 -2.01814297E-08  4.71319430E-08 -8.09448306E-08
 -1.49965905E-08  2.13506011E-01  1.34377624E-07 -2.65169795E-08 -7.22748501E-08
  3.08540087E-01 -5.45696117E-06  1.02768863E-06 -2.29483616E-06  3.43708996E+00
 -7.67880680E-09  3.59413732E-09 -8.67720498E-09  9.88419781E-10  1.18472438E-02
 -8.45518489E-03 -1.65201134E-08  2.31572494E-08 -3.22976546E-08 -1.47124291E-08
 -2.13505383E-01  3.14368661E-07 -1.60930454E-07 -7.32194882E-08 -3.08538690E-01
  9.09176160E-06 -1.26861191E-06 -5.87283020E-07 -3.43710970E+00  5.09503986E-09
 -8.26305068E-10 -1.37043527E-08  3.92548267E-09 -1.32460924E-02 -6.03245370E-03
 -2.01853354E-08  4.71393192E-08 -6.44439776E-08 -5.12229252E-08  2.13506681E-01
  1.34413844E-07 -7.20476691E-08  2.74464742E-08  3.08539379E-01 -5.45395857E-06
 -1.03998109E-06  2.27991400E-06  3.43709087E+00 -4.19026112E-10 -3.67523720E-09
 -8.68284428E-09 -6.30629676E-09  1.39871328E-03  1.44873864E-02  2.86634460E-09
 -2.58461919E-08 -6.00596660E-09  3.38075698E-08 -2.13506011E-01  1.94342131E-07
  5.19353532E-08 -8.44259697E-08 -3.08540087E-01  7.81319187E-06 -7.07617250E-08
 -3.07871837E-06 -3.43708996E+00  6.25940490E-09 -3.80502040E-09 -4.19094269E-09
  2.16976885E-08  1.18472438E-02 -8.45518488E-03 -2.22003241E-07 -8.00924819E-07
 -4.66466150E-08 -1.85548775E-07 -3.02358312E-09  1.04226879E-08  3.34181776E-08
  2.50868054E-07 -3.01610783E-09  1.04605175E-08 -4.66379125E-08 -1.85456785E-07
 -1.96471499E-08  5.38047137E-08  1.01060631E-07  2.36990431E-08  1.32565491E-01
  2.30995678E-07 -1.99762883E-08  3.90870990E-08  2.47051653E-01  3.21519284E-05
 -7.67105727E-07  3.67244091E-06 -2.04928186E+00 -5.09750033E-09 -1.29655212E-08
  3.58149840E-09 -1.29247439E-08 -1.89163509E-03  6.29898103E-03  1.16843127E-11
 -1.04964381E-08 -4.89548964E-08 -1.29868024E-08 -1.59878546E-01  8.64564330E-08
  8.96224253E-08  3.64785134E-08 -2.97947200E-01 -1.26934122E-05  7.31939455E-06
 -2.91204583E-06  2.47145282E+00 -1.97070728E-09  3.29924819E-09 -1.14397425E-09
 -2.53754515E-08 -3.75024047E-03 -7.15401834E-04  1.39459284E-08 -2.18606976E-08
  9.70385814E-08 -3.43941552E-08  2.73099101E-02 -3.34831824E-07  1.04994707E-07
 -1.12439367E-07  5.08913113E-02 -7.01700324E-06 -5.18344159E-06 -1.26511926E-06
 -4.22165197E-01 -8.69128969E-09  1.85825668E-08 -1.76403819E-09 -5.70906331E-09
  5.76498423E-03  8.39304945E-03 -2.64620152E-08  4.15670204E-08 -1.27614800E-07
 -3.00992666E-08  1.32565491E-01  5.06379300E-07 -1.56081339E-07 -1.02259421E-07
  2.47051653E-01  9.24765285E-06  4.64119125E-06 -1.04620328E-06 -2.04928186E+00
  1.94056195E-09 -1.30822870E-08 -7.41857969E-09 -7.29114250E-09  1.89163509E-03
 -6.29898103E-03 -1.13150479E-09  5.52760974E-09  5.58672843E-08  6.55320164E-09
 -1.59878546E-01 -6.52732250E-08 -2.21574715E-08  7.68025702E-08 -2.97947200E-01
  2.56186446E-06 -6.81362884E-06 -6.24393492E-07  2.47145282E+00 -4.52865110E-09
  3.90851997E-09 -1.20619582E-09 -2.99061545E-08  3.75024047E-03  7.15401834E-04
  1.97635553E-08 -4.06032146E-08 -1.15961867E-07  4.91651538E-08  2.73099101E-02
 -2.74956358E-07 -2.54682063E-09  1.11759613E-07  5.08913113E-02 -2.42903909E-05
  3.75294392E-06  4.60356438E-06 -4.22165197E-01 -7.31760435E-09  1.88844273E-08
  3.94762479E-09 -2.10908568E-09 -5.76498423E-03 -8.39304945E-03  7.87040505E-09
 -3.27936874E-07 -8.09787682E-09  5.18013615E-08 -1.14803862E-08  1.22795872E-07
  2.64590269E-08 -2.34077640E-08 -4.77505786E-09 -1.78598137E-08 -3.06432441E-08
  7.44863050E-08 -1.60890835E-08  4.39444844E-08  6.54153359E-08  5.71131102E-08
  1.08070618E-01  1.89341327E-07  2.11636060E-08 -4.96252150E-08  2.01402408E-01
  2.62070590E-05  2.46600029E-06 -3.81872739E-06 -1.67062992E+00 -2.00275463E-08
  5.27577249E-09  2.86871570E-09  5.41556977E-09  3.97253576E-03 -6.97411087E-03
  2.01342092E-08 -3.92560345E-08 -2.98644762E-08 -1.19490131E-07  6.07681746E-02
 -2.98049199E-07  6.56730321E-08 -8.42314127E-08  1.13246521E-01 -2.21849959E-05
  4.57799138E-06  3.98947599E-07 -9.39400640E-01  6.28640959E-09  5.23893824E-09
  4.22190291E-09 -1.04253399E-08 -9.55629842E-03  1.33205814E-03 -3.97996730E-09
  1.00623164E-08  2.26690736E-08  4.55913431E-08 -1.68844683E-01  1.57299419E-09
  2.24867868E-08 -4.59170275E-08 -3.14654913E-01  4.04180305E-06 -3.97895736E-06
 -4.55697516E-06  2.61004503E+00 -2.41099125E-08  2.14598964E-08 -8.56551994E-10
 -7.96356341E-09  1.87861861E-03  6.82315376E-04 -2.15600426E-08  3.38895766E-08
 -8.25435472E-08 -7.19109391E-08  1.08070618E-01  4.12789846E-07 -1.51046940E-07
 -3.08723515E-08  2.01402408E-01  7.56521326E-06  1.34641672E-06  4.49940673E-06
 -1.67062992E+00 -1.35356866E-08  4.43133191E-09 -5.99784074E-09  9.22070719E-09
 -3.97253576E-03  6.97411087E-03  1.45058780E-08 -2.34993924E-08  2.71212195E-08
  9.64869480E-08  6.07681747E-02 -3.28745963E-07 -1.18583678E-08  1.40562863E-07
  1.13246521E-01 -7.69308787E-06 -3.07153692E-06 -3.01398837E-06 -9.39400639E-01
  2.90631195E-09  7.31609559E-09 -1.50241335E-09 -1.06143163E-08  9.55629842E-03
 -1.33205813E-03 -4.00970875E-09 -2.43764939E-09 -1.91446198E-08 -3.90745534E-08
 -1.68844683E-01  1.44108548E-07  8.83158511E-08  2.13899428E-08 -3.14654913E-01
 -7.96777553E-06  1.89107173E-06  6.62876131E-06  2.61004503E+00 -1.96862517E-08
  1.86838658E-08 -1.97038610E-09 -6.23110989E-09 -1.87861861E-03 -6.82315377E-04
  6.52737212E-09 -2.66445409E-07 -2.95267925E-08  6.62068636E-08 -2.55303526E-09
 -4.34425871E-08  2.14875149E-08 -2.02098353E-08 -1.08390650E-08  1.28150187E-07
 -1.99587888E-09  3.75928074E-08  6.87227768E-04 -1.25003312E-03  1.04351909E-02
 -3.20630490E-02  1.16167381E-08 -1.20583625E-02 -1.91025521E-02  3.32271878E-02
  2.51144241E-08 -5.07031545E-01 -1.83421117E+00  4.21824664E+00 -2.32250695E-07
  1.19185503E-02 -1.15197027E-02  6.26012756E-05 -1.17794643E-02  5.56111317E-09
 -1.11805015E-08 -1.34485722E-02  2.44451355E-02 -8.23496812E-03  7.53066017E-02
  1.46099855E-07  2.35927295E-01  2.42863488E-02  6.86884881E-02  2.78375486E-07
  9.89242394E+00  1.95930524E+00 -1.74683563E+00 -2.26871365E-06 -5.32727765E-03
 -2.48070739E-03 -1.23234163E-03 -8.09979543E-03 -5.65640486E-09  1.78267346E-09
  1.27613669E-02 -2.31950936E-02  4.67855672E-02 -5.55897325E-02 -1.57902265E-07
 -2.23867886E-01  6.65690766E-02 -2.22176422E-02 -2.96907603E-07 -9.38539344E+00
  2.43144443E-01  2.87361329E+00  2.45416542E-06  1.16123402E-02 -4.20302084E-03
  1.16972839E-03  3.20257911E-03 -1.82032668E-09 -4.09136507E-09  6.87227820E-04
 -1.25003321E-03 -1.04351909E-02  3.20630489E-02  1.60064440E-08 -1.20583632E-02
  1.91025520E-02 -3.32271878E-02  2.92183437E-08 -5.07031442E-01  1.83421115E+00
 -4.21824666E+00 -2.00540942E-07  1.19185503E-02 -1.15197027E-02  6.26012682E-05
 -1.17794643E-02 -4.19087462E-09  9.34746808E-09 -1.34485723E-02  2.44451356E-02
  8.23496817E-03 -7.53066017E-02  1.39131202E-07  2.35927296E-01 -2.42863487E-02
 -6.86884880E-02  2.63920800E-07  9.89242377E+00 -1.95930521E+00  1.74683566E+00
 -2.26602876E-06 -5.32727767E-03 -2.48070739E-03 -1.23234164E-03 -8.09979542E-03
  5.67304644E-09 -1.65494880E-09  1.27613669E-02 -2.31950937E-02 -4.67855671E-02
  5.55897325E-02 -1.55024413E-07 -2.23867887E-01 -6.65690764E-02  2.22176422E-02
 -2.98319534E-07 -9.38539326E+00 -2.43144408E-01 -2.87361330E+00  2.51315894E-06
  1.16123402E-02 -4.20302083E-03  1.16972841E-03  3.20257911E-03  1.27098037E-09
  4.48783376E-09 -5.92059390E-04  4.06345591E-03  1.15974788E-02 -7.91124682E-02
 -1.10050239E-02  7.50479279E-02 -5.92059352E-04  4.06345582E-03  1.15974788E-02
 -7.91124676E-02 -1.10050239E-02  7.50479274E-02 -1.51322498E-02  2.75049279E-02
  7.65753071E-02  3.32015950E-02 -2.59581890E-07  2.65465409E-01  7.16763708E-02
  3.45567130E-02 -5.59447880E-07  1.11304776E+01 -1.67450039E+00 -5.32509027E-01
  5.17093593E-06 -3.82018710E-03 -4.96564393E-03 -1.38667976E-03 -4.81560629E-04
 -8.38873982E-09 -4.42691536E-09  6.97006211E-03 -1.26687618E-02 -3.33345329E-02
 -3.54038530E-02  1.06160699E-07 -1.22273130E-01  3.02345315E-02 -3.97420826E-02
  2.34889452E-07 -5.12602023E+00  4.14536201E+00  4.07387283E-01 -2.82358631E-06
 -5.89753291E-04  4.63697605E-03  6.39233183E-04 -1.56563886E-02  1.57837515E-08
  2.30683094E-09  8.16042813E-03 -1.48334920E-02  5.30511643E-02 -3.14853443E-03
  2.01839516E-07 -1.43165738E-01  1.62411809E-02 -5.11190992E-02  3.54003414E-07
 -6.00444303E+00 -3.01876932E+00 -2.61048781E+00 -1.99171665E-06 -1.00330251E-02
  1.47708118E-02  7.47825687E-04 -4.88163753E-03 -7.41420181E-09 -1.43721376E-08
 -1.51322498E-02  2.75049278E-02 -7.65753072E-02 -3.32015950E-02 -3.55779984E-07
  2.65465408E-01 -7.16763709E-02 -3.45567131E-02 -6.49321944E-07  1.11304776E+01
  1.67450037E+00  5.32509025E-01  4.46395092E-06 -3.82018711E-03 -4.96564391E-03
 -1.38667977E-03 -4.81560640E-04 -1.43740726E-09 -1.59166828E-10  6.97006206E-03
 -1.26687618E-02  3.33345330E-02  3.54038531E-02  2.14908112E-07 -1.22273129E-01
 -3.02345314E-02  3.97420826E-02  3.78684095E-07 -5.12602040E+00 -4.14536198E+00
 -4.07387263E-01 -2.19947540E-06 -5.89753295E-04  4.63697604E-03  6.39233162E-04
 -1.56563886E-02 -1.52714463E-08  3.71072517E-09  8.16042818E-03 -1.48334921E-02
 -5.30511642E-02  3.14853443E-03  9.29148402E-08 -1.43165739E-01 -1.62411809E-02
  5.11190992E-02  2.09499126E-07 -6.00444289E+00  3.01876936E+00  2.61048782E+00
 -2.61308141E-06 -1.00330251E-02  1.47708119E-02  7.47825699E-04 -4.88163753E-03
  1.22609859E-08  1.08291720E-08  1.30479536E-02 -8.90204831E-02 -6.01381875E-03
  4.09708806E-02 -7.04028968E-03  4.80034178E-02  1.30479536E-02 -8.90204832E-02
 -6.01381880E-03  4.09708812E-02 -7.04028964E-03  4.80034174E-02  2.13094057E-02
 -3.13372438E-02 -3.72470625E-02 -1.50628431E-02 -1.41440615E-07 -2.32294469E-01
 -9.31765645E-02 -2.10026350E-02 -4.48549699E-07  2.48638796E+00  1.65401746E+00
  6.90181577E-01 -1.95402296E-06 -5.76194431E-03  3.55791354E-03  2.62215499E-02
 -4.80877151E-03 -4.67200196E-09 -2.01868261E-09  1.24190917E-02 -1.82643578E-02
  1.25007073E-02 -2.47083539E-02  7.98909679E-08 -1.35382073E-01  1.61007561E-01
 -7.02853820E-02  1.90732633E-07  1.44954869E+00 -3.82296210E-01  1.08602170E+00
  2.03532462E-06  4.18430549E-03 -5.46881064E-03  1.52809875E-02  6.78150410E-03
  4.58255940E-09 -9.13048881E-09 -8.89100622E-03  1.30749675E-02 -4.01898892E-03
  2.31960658E-02 -4.27851794E-09  9.69179836E-02  7.65983816E-02  1.74484177E-01
 -1.76496807E-08 -1.04004262E+00  2.93548655E-01 -8.75754865E-01 -2.48508384E-06
 -5.76287445E-03  6.68254971E-03 -1.09405203E-02 -5.62866561E-03 -3.87977887E-09
 -2.53157718E-09 -2.13094057E-02  3.13372438E-02 -3.72470625E-02 -1.50628431E-02
 -1.36052118E-08  2.32294469E-01 -9.31765645E-02 -2.10026349E-02 -4.89609726E-08
 -2.48638796E+00  1.65401746E+00  6.90181559E-01  2.78078327E-06  5.76194431E-03
 -3.55791353E-03 -2.62215499E-02  4.80877152E-03  4.28315710E-09  1.89436630E-09
 -1.24190917E-02  1.82643578E-02  1.25007073E-02 -2.47083539E-02 -5.79562076E-09
  1.35382073E-01  1.61007561E-01 -7.02853820E-02 -2.09323880E-08 -1.44954868E+00
 -3.82296189E-01  1.08602169E+00 -2.45342579E-06 -4.18430548E-03  5.46881064E-03
 -1.52809875E-02 -6.78150409E-03 -4.51186125E-09 -1.27131375E-09  8.89100619E-03
 -1.30749675E-02 -4.01898889E-03  2.31960658E-02  8.20141199E-08 -9.69179832E-02
  7.65983816E-02  1.74484177E-01  1.95699622E-07  1.04004262E+00  2.93548664E-01
 -8.75754846E-01  1.99680098E-06  5.76287445E-03 -6.68254971E-03  1.09405202E-02
  5.62866561E-03 -3.84387552E-09  9.35724755E-09 -5.94070700E-02 -5.22257237E-01
 -3.46212192E-02 -3.04358668E-01  2.47854789E-02  2.17911527E-01  5.94070700E-02
  5.22257237E-01  3.46212192E-02  3.04358668E-01 -2.47854789E-02 -2.17911527E-01
 -2.03660344E-03  2.99564498E-03 -4.00994347E-03  1.80666244E-02  1.36285116E-08
  2.21966802E-02 -7.64580191E-02  1.89455753E-01  4.30478621E-08 -2.36093290E-01
  9.04378717E-02 -6.11663020E-01  1.84941886E-07 -5.67186950E-03  5.88246103E-03
 -2.50608008E-03  6.71262803E-03 -4.94053515E-11  1.29643872E-09  1.74354505E-02
 -2.56460498E-02 -1.36575430E-02 -3.16821504E-02 -2.12659496E-08 -1.90046376E-01
 -1.25747955E-01 -6.47338569E-02 -4.87167747E-08  2.03434722E+00  4.86181898E-01
  1.42573520E+00  4.57317184E-08  3.16648381E-03 -4.97135484E-03  2.14549633E-02
 -6.52048496E-03 -1.31783398E-10  3.58205648E-10  1.94723453E-02 -2.86415113E-02
  3.42504265E-02 -1.51607241E-02  1.02812554E-08 -2.12253495E-01  1.19037846E-01
  1.96739882E-02  2.25569958E-08  2.27054044E+00 -1.47613457E+00  7.49751438E-01
  3.78794704E-08 -6.07522442E-03  4.05967738E-03  2.39611886E-02  4.90831461E-03
  6.40538059E-10  5.07442503E-10  2.03660344E-03 -2.99564498E-03 -4.00994347E-03
  1.80666244E-02  1.41809760E-09 -2.21966803E-02 -7.64580192E-02  1.89455753E-01
  4.89697651E-09  2.36093292E-01  9.04378753E-02 -6.11663029E-01 -2.67288880E-07
  5.67186950E-03 -5.88246103E-03  2.50608008E-03 -6.71262803E-03 -1.24775580E-10
 -8.01341207E-10 -1.74354505E-02  2.56460498E-02 -1.36575430E-02 -3.16821504E-02
 -9.49125916E-09  1.90046376E-01 -1.25747955E-01 -6.47338569E-02 -1.91768158E-08
 -2.03434722E+00  4.86181908E-01  1.42573520E+00  4.35883928E-07 -3.16648380E-03
  4.97135484E-03 -2.14549633E-02  6.52048496E-03  6.27204681E-11  8.99039656E-11
 -1.94723453E-02  2.86415113E-02  3.42504265E-02 -1.51607241E-02  5.78946890E-09
  2.12253495E-01  1.19037846E-01  1.96739881E-02  1.17395882E-08 -2.27054045E+00
 -1.47613457E+00  7.49751447E-01 -4.29640001E-07  6.07522441E-03 -4.05967739E-03
 -2.39611886E-02 -4.90831461E-03  5.46659627E-10 -1.47340468E-09  5.67996653E-03
  4.99200375E-02 -4.86136120E-02 -4.27356182E-01 -5.42937558E-02 -4.77277943E-01
 -5.67996653E-03 -4.99200375E-02  4.86136120E-02  4.27356182E-01  5.42937558E-02
  4.77277944E-01  3.98002398E-02 -7.32289550E-02  6.93686210E-02  3.15941295E-02
 -1.10569388E-07 -6.22773732E-01  2.17322675E-01  9.89744352E-02 -6.68431351E-08
 -2.13401306E-01  3.81698139E-01  1.74050653E-01  8.91347550E-06  2.02961237E-02
 -1.13927945E-02  2.61249099E-03  2.10245032E-02  2.11305320E-08  9.62306911E-09
  3.97943208E-02 -7.32213800E-02  7.32340500E-03  7.58657006E-02  2.03917152E-07
 -6.22686796E-01  2.29564794E-02  2.37675331E-01  3.56839308E-07 -2.19253127E-01
  4.03714357E-02  4.16520005E-01 -8.35890020E-06 -1.92407813E-02  2.81422775E-02
  2.61121021E-03  5.33281626E-03 -8.40705782E-09  2.56869644E-09  3.97961073E-02
 -7.32239019E-02 -6.20371431E-02  4.42770974E-02 -2.75786250E-07 -6.22716329E-01
 -1.94354311E-01  1.38712250E-01 -5.10429189E-07 -2.19120247E-01 -3.40982734E-01
  2.42630257E-01  8.05628214E-06  1.22983412E-02 -3.39605471E-03  2.61126040E-03
 -2.63574048E-02 -7.36987321E-09  1.11172481E-08  3.98002398E-02 -7.32289550E-02
 -6.93686209E-02 -3.15941298E-02  2.75723718E-07 -6.22773732E-01 -2.17322675E-01
 -9.89744362E-02  5.70088433E-07 -2.13401311E-01 -3.81698097E-01 -1.74050734E-01
 -8.11313063E-06  2.02961238E-02 -1.13927946E-02  2.61249099E-03  2.10245032E-02
  6.25942174E-09  2.85080403E-09  3.97943208E-02 -7.32213800E-02 -7.32340490E-03
 -7.58657010E-02 -2.75788327E-07 -6.22686796E-01 -2.29564791E-02 -2.37675332E-01
 -5.10432808E-07 -2.19252951E-01 -4.03713986E-02 -4.16520015E-01  8.05634481E-06
 -1.92407813E-02  2.81422776E-02  2.61121023E-03  5.33281629E-03  3.54800307E-09
 -1.28579472E-08  3.97961073E-02 -7.32239019E-02  6.20371432E-02 -4.42770977E-02
  2.03926787E-07 -6.22716329E-01  1.94354311E-01 -1.38712251E-01  3.56853644E-07
 -2.19120130E-01  3.40982702E-01 -2.42630299E-01 -8.35900337E-06  1.22983412E-02
 -3.39605475E-03  2.61126042E-03 -2.63574048E-02 -3.58051580E-09 -8.02853539E-09
  1.02028197E-01  8.66932335E-01  1.02027707E-01  8.66943401E-01  1.02028187E-01
  8.66951798E-01  1.02028197E-01  8.66932335E-01  1.02027708E-01  8.66943402E-01
  1.02028187E-01  8.66951799E-01  4.25483935E-03  4.44296631E-03  8.02248835E-02
  6.10195556E-02 -1.70593001E-08 -4.06692574E-02  1.58088269E-01  1.60995352E-01
 -6.62689409E-08  4.56199684E+01 -2.15247255E+00  6.32480107E+00  4.00652659E-06
  1.09700040E-02 -1.25318013E-02  5.61677531E-03  9.51859229E-03  6.76675093E-09
  2.15798331E-09  3.11815844E-03  3.26045866E-03  6.71762410E-02  6.59205434E-02
  6.31191652E-08 -2.98041529E-02  2.33849059E-01  1.32540895E-01  1.42859788E-07
  3.34476878E+01  1.80218315E+01 -1.25198021E+00 -3.71139221E-06 -1.23933050E-02
  1.12482498E-02  4.11776579E-03 -8.37464967E-03 -4.67665722E-09  2.86131761E-09
 -1.13549748E-03 -1.18508525E-03  6.94578100E-02  5.21697403E-02 -9.42423887E-08
  1.08604702E-02  2.20608647E-01  2.12380565E-01 -1.87511823E-07 -1.21723113E+01
  1.44963969E+01  2.00076790E+01  3.46381447E-06  1.11361268E-02 -1.07192034E-02
 -1.49920778E-03  8.87669890E-03 -1.47288100E-09  4.19758862E-09 -4.25483837E-03
 -4.44296749E-03  8.02248827E-02  6.10195553E-02  9.66361182E-08  4.06692416E-02
  1.58088267E-01  1.60995352E-01  2.08143974E-07 -4.56199676E+01 -2.15247250E+00
  6.32480057E+00 -3.43123404E-06 -1.09700039E-02  1.25318015E-02 -5.61677507E-03
 -9.51859232E-03  1.58480495E-09  7.59168051E-10 -3.11815852E-03 -3.26045858E-03
  6.71762413E-02  6.59205435E-02 -9.31011770E-08  2.98041540E-02  2.33849059E-01
  1.32540896E-01 -1.84283948E-07 -3.34476879E+01  1.80218319E+01 -1.25198022E+00
  3.43155639E-06  1.23933050E-02 -1.12482498E-02 -4.11776582E-03  8.37464997E-03
  2.19801239E-09 -3.90582542E-09  1.13549672E-03  1.18508608E-03  6.94578095E-02
  5.21697405E-02  6.22555763E-08 -1.08604579E-02  2.20608646E-01  2.12380564E-01
  1.38282326E-07  1.21723106E+01  1.44963970E+01  2.00076795E+01 -3.67498839E-06
 -1.11361267E-02  1.07192031E-02  1.49920758E-03 -8.87669901E-03 -1.01031128E-09
 -5.34777735E-09  6.78509175E-02  2.63330241E-01  4.97459358E-02  1.93057559E-01
 -1.81030809E-02 -7.02567312E-02 -6.78509174E-02 -2.63330242E-01 -4.97459357E-02
 -1.93057558E-01  1.81030810E-02  7.02567336E-02 -1.14448945E-03 -1.19844768E-03
 -5.83868205E-02  6.43464632E-02  4.51690397E-09  1.09369704E-02 -1.76288484E-01
  2.50279900E-01  1.76807577E-08 -1.22822846E+01 -1.03955509E+01  2.23965430E+01
 -1.07709109E-06  7.42196697E-03 -7.00151811E-03 -1.51179515E-03 -1.29886938E-02
 -4.32178937E-10 -3.62525033E-09  3.11232583E-03  3.24740540E-03 -5.34864623E-02
  7.73928770E-02 -1.52300136E-08 -2.97474113E-02 -2.04740542E-01  1.74504653E-01
 -2.92268929E-08  3.33660821E+01 -1.79724951E+01  2.22192592E+00  9.25575218E-07
 -8.77416332E-03  7.63085664E-03  4.10942911E-03  1.29078363E-02  1.30106934E-09
 -5.49707610E-10  4.25827721E-03  4.44351573E-03 -6.72358430E-02  7.51134077E-02
  2.30469538E-08 -4.07024072E-02 -1.24893369E-01  1.87753976E-01  4.39107692E-08
  4.56514260E+01  3.28718127E+00  5.74776615E+00 -8.67069839E-07  6.98609635E-03
 -8.54944797E-03  5.62129842E-03 -1.39389998E-02  4.55704156E-10 -1.18005120E-09
  1.14448977E-03  1.19844722E-03 -5.83868209E-02  6.43464629E-02 -2.59729403E-08
 -1.09369755E-02 -1.76288485E-01  2.50279899E-01 -5.58675677E-08  1.22822848E+01
 -1.03955510E+01  2.23965431E+01  9.22176630E-07 -7.42196683E-03  7.00151806E-03
  1.51179520E-03  1.29886938E-02 -4.76697456E-10 -1.09320530E-10 -3.11232613E-03
 -3.24740515E-03 -5.34864623E-02  7.73928771E-02  2.72521776E-08  2.97474162E-02
 -2.04740542E-01  1.74504653E-01  5.58576277E-08 -3.33660824E+01 -1.79724952E+01
  2.22192601E+00 -9.86094757E-07  8.77416313E-03 -7.63085655E-03 -4.10942921E-03
 -1.29078363E-02 -5.96985895E-10  9.70558237E-10 -4.25827684E-03 -4.44351628E-03
 -6.72358427E-02  7.51134073E-02 -1.83740430E-08  4.07024012E-02 -1.24893368E-01
  1.87753976E-01 -4.61438699E-08 -4.56514258E+01  3.28718126E+00  5.74776606E+00
  1.05981868E-06 -6.98609620E-03  8.54944793E-03 -5.62129835E-03  1.39389998E-02
  7.40877408E-11  1.55736189E-09 -1.82693318E-02 -7.09082639E-02  4.96212863E-02
  1.92559606E-01  6.78917257E-02  2.63469321E-01  1.82693321E-02  7.09082666E-02
 -4.96212860E-02 -1.92559602E-01 -6.78917253E-02 -2.63469319E-01 -5.35492386E-08
  6.25519107E-08 -5.30227415E-08 -2.41987726E-08 -2.21133862E-01  1.20618192E-06
  1.47736903E-07  6.72181839E-08 -4.40114716E-01 -8.38779473E-05 -8.24186985E-06
 -3.78836790E-06  4.72679772E+00 -2.18149077E-08  1.74975468E-08 -1.13853620E-08
 -2.60604232E-08  8.61119642E-03  3.92168615E-03 -4.50056016E-08  1.22398430E-07
 -4.25477484E-08 -9.57904960E-08  2.21133765E-01  3.42440319E-07 -1.55619721E-07
 -6.29198963E-07  4.40112469E-01  8.53182197E-06 -2.10385029E-05  6.83270809E-06
 -4.72678625E+00  2.58782486E-08 -3.98684499E-08  7.96848877E-09 -1.12340473E-08
 -9.09321487E-04 -9.41826205E-03 -4.08016920E-08  6.16458825E-08  9.40638274E-08
 -6.84018832E-08 -2.21134047E-01  9.70907433E-07  8.22259652E-08 -1.02888170E-07
 -4.40112772E-01  2.79907274E-05 -1.00275615E-05 -1.22546134E-05  4.72678409E+00
 -2.40739469E-08  1.89260677E-08 -1.63243177E-09  3.42829709E-08 -7.70185738E-03
  5.49672030E-03 -9.92082479E-08  1.78499576E-07  1.30266509E-07  5.92984221E-08
  2.21133862E-01  1.38818220E-06  6.00143697E-07  2.73093420E-07  4.40114716E-01
  1.27430275E-05  5.55279745E-06  2.54572088E-06 -4.72679772E+00 -3.24172323E-08
  3.71114176E-09 -1.17149680E-08 -2.39645490E-08  8.61119642E-03  3.92168615E-03
 -4.07515594E-08  6.15870132E-08  1.01763918E-08  1.15751687E-07 -2.21133765E-01
  9.70130395E-07 -2.33519384E-08  1.29272156E-07 -4.40112469E-01  2.80600132E-05
 -1.58735789E-05  4.75389703E-07  4.72678625E+00  2.98047220E-08 -3.49515679E-08
 -1.61875013E-09 -1.98427795E-08 -9.09321487E-04 -9.41826205E-03 -4.50491231E-08
  1.22457879E-07 -1.00187872E-07  3.07429007E-08  2.21134047E-01  3.43156387E-07
 -5.76758439E-07  2.95661774E-07  4.40112772E-01  8.51525491E-06 -8.69876692E-06
 -2.04019437E-05 -4.72678409E+00 -2.11744722E-08  7.16759023E-09  7.96205155E-09
  3.60262437E-08 -7.70185738E-03  5.49672030E-03 -7.06933981E-08 -4.57950287E-07
 -1.64570986E-07 -1.58449152E-06 -1.29949948E-07 -1.25249850E-06 -1.29777850E-07
 -1.44569315E-06 -1.29909684E-07 -1.25239204E-06 -1.64530419E-07 -1.58424052E-06
 -2.41923961E-03  3.17466693E-03  8.09022218E-03 -2.34042261E-02  6.51812344E-09
  3.92003891E-02  1.18010314E-02 -4.17098501E-02  1.65480808E-08 -2.05983385E+00
 -2.25149799E+00  3.96886270E+00 -1.64396170E-07 -9.24436096E-03  8.64215605E-03
 -5.26729950E-04  9.50159268E-03 -6.21247281E-10  2.07256598E-09  4.99475822E-02
 -6.55389299E-02 -6.72316319E-03  4.90704152E-02 -6.02690516E-09 -8.09490804E-01
 -6.78796524E-03  1.36119892E-01 -2.42138695E-08  4.25156680E+01  2.89520527E+00
  8.10044986E+00  2.31839450E-07  1.41073545E-02 -1.67692729E-03  1.08744270E-02
  4.83752819E-03 -1.02205424E-10  9.21185526E-11 -4.75277741E-02  6.23636092E-02
  2.96324760E-02 -3.74218912E-02  6.40552552E-09  7.70279765E-01  9.10480246E-02
 -9.32619845E-02  1.82148186E-08 -4.04558413E+01  7.87913599E+00 -2.62314042E+00
 -2.03785195E-07 -9.93723558E-03 -1.89071119E-03 -1.03478608E-02 -9.66629448E-03
  2.73179043E-11 -1.64283601E-10 -2.41923924E-03  3.17466636E-03 -8.09022392E-03
  2.34042260E-02 -5.90085849E-09  3.92003855E-02 -1.18010375E-02  4.17098499E-02
 -1.19240044E-08 -2.05983281E+00  2.25149781E+00 -3.96886266E+00  1.38296617E-07
 -9.24436091E-03  8.64215609E-03 -5.26729883E-04  9.50159286E-03 -2.87428903E-10
  6.76416437E-12  4.99475819E-02 -6.55389294E-02  6.72316217E-03 -4.90704145E-02
  5.44489363E-09 -8.09490801E-01  6.78796142E-03 -1.36119888E-01  6.41477267E-09
  4.25156672E+01 -2.89520544E+00 -8.10044970E+00 -8.01788267E-08  1.41073545E-02
 -1.67692730E-03  1.08744270E-02  4.83752802E-03  1.90052969E-10  3.94052502E-10
 -4.75277739E-02  6.23636086E-02 -2.96324771E-02  3.74218915E-02 -6.68166346E-09
  7.70279764E-01 -9.10480263E-02  9.32619835E-02 -3.43021516E-09 -4.04558409E+01
 -7.87913593E+00  2.62314027E+00  7.63520428E-08 -9.93723555E-03 -1.89071114E-03
 -1.03478609E-02 -9.66629423E-03  4.25693170E-10 -2.11817461E-10 -1.14920018E-04
  3.74462821E-05  2.36245226E-03 -8.40104440E-04 -2.24509777E-03  8.26717859E-04
 -1.14919018E-04  3.74518479E-05  2.36245185E-03 -8.40106453E-04 -2.24509836E-03
  8.26712941E-04  5.62759755E-02 -7.38392887E-02  4.98555788E-02  2.15389743E-02
 -1.47754757E-07 -9.12078771E-01  1.39000484E-01  6.12820522E-02 -3.78588426E-07
  4.79035660E+01  8.47183004E+00  4.07358072E+00  3.75275375E-06  1.47119403E-03
  1.25344776E-02  1.22519805E-02 -6.42228407E-03 -6.26758267E-09 -2.75550750E-09
 -2.60474083E-02  3.41822949E-02 -2.41954219E-02 -2.29115546E-02  1.45586978E-07
  4.22153986E-01 -4.46232745E-02 -6.63201314E-02  3.16115865E-07 -2.21678219E+01
  3.59686037E+00 -4.71675622E+00 -3.52015512E-06 -4.73052302E-03 -1.75069717E-03
 -5.67070672E-03  1.30194300E-02 -2.42510973E-10 -6.27868740E-09 -3.02378357E-02
  3.96804244E-02  3.58477335E-02 -4.79307586E-06 -1.35597958E-07  4.90061939E-01
  8.74848114E-02 -1.79539924E-02 -2.81892226E-07 -2.57357131E+01  1.87975977E+00
 -6.05781553E+00  3.24801858E-06  7.30677832E-03 -1.48309316E-02 -6.58310549E-03
 -7.37564880E-04 -5.13618414E-09  3.16913593E-09  5.62759765E-02 -7.38392902E-02
 -4.98555818E-02 -2.15389767E-02  1.34942175E-07 -9.12078783E-01 -1.39000494E-01
 -6.12820603E-02  2.73163798E-07  4.79035689E+01 -8.47183039E+00 -4.07358106E+00
 -3.16632654E-06  1.47119438E-03  1.25344775E-02  1.22519807E-02 -6.42228398E-03
  5.16203991E-09  2.35467147E-09 -2.60474090E-02  3.41822963E-02  2.41954207E-02
  2.29115537E-02 -1.35612373E-07  4.22153994E-01  4.46232703E-02  6.63201321E-02
 -2.82343968E-07 -2.21678236E+01 -3.59686053E+00  4.71675666E+00  3.25267310E-06
 -4.73052355E-03 -1.75069689E-03 -5.67070670E-03  1.30194300E-02 -9.65910382E-10
 -5.94258367E-09 -3.02378348E-02  3.96804230E-02 -3.58477339E-02  4.79089938E-06
  1.45494547E-07  4.90061929E-01 -8.74848117E-02  1.79539830E-02  3.16927020E-07
 -2.57357109E+01 -1.87975962E+00  6.05781498E+00 -3.52599193E-06  7.30677867E-03
 -1.48309317E-02 -6.58310543E-03 -7.37564634E-04 -4.87894018E-09  3.93788847E-09
  2.65425081E-03 -9.88826275E-04 -1.23649492E-03  3.84641850E-04 -1.43635521E-03
  4.34981736E-04  2.65425311E-03 -9.88814954E-04 -1.23649434E-03  3.84649197E-04
 -1.43635455E-03  4.34982220E-04 -5.17750224E-02  1.00778642E-01 -5.95944740E-02
 -2.71422557E-02 -8.21019909E-08  4.38905568E-01 -4.75366083E-01 -2.16493279E-01
 -2.02874236E-07 -1.00736618E+02 -1.83734835E+01 -8.36644547E+00 -9.54024504E-07
 -4.59768893E-03 -1.18509267E-02 -9.87138325E-05  4.81354098E-03  5.70426904E-09
  2.59882439E-09  5.17746021E-02 -1.00777554E-01  6.29411313E-03  6.51757734E-02
  4.53340870E-08 -4.38900138E-01  5.01889860E-02  5.19909329E-01  1.06772768E-07
  1.00737108E+02  1.93935381E+00  2.00951653E+01  5.59886149E-07  1.36482640E-02
  2.80043277E-03  9.84073129E-05 -1.22101444E-03  2.36482657E-09 -6.99211103E-09
 -5.17777595E-02  1.00779852E-01  5.33123087E-02 -3.80537531E-02 -2.52448086E-08
  4.38980130E-01  4.25199197E-01 -3.03467594E-01 -6.54484579E-08 -1.00733821E+02
  1.64330860E+01 -1.17276271E+01 -2.37262866E-07 -6.42894058E-03 -1.00207596E-02
 -9.85053734E-05 -6.03248373E-03 -9.73814717E-10 -1.11018821E-09  5.17750210E-02
 -1.00778640E-01 -5.95944726E-02 -2.71422559E-02  2.88447506E-08 -4.38905545E-01
 -4.75366081E-01 -2.16493276E-01  4.83810890E-08  1.00736617E+02 -1.83734824E+01
 -8.36644737E+00  1.96949329E-07  4.59768905E-03  1.18509263E-02  9.87136494E-05
 -4.81354097E-03  2.84962045E-09  1.31638495E-09 -5.17746019E-02  1.00777553E-01
  6.29411238E-03  6.51757734E-02 -2.52509940E-08  4.38900134E-01  5.01889793E-02
  5.19909329E-01 -6.54663418E-08 -1.00737108E+02  1.93935609E+00  2.00951651E+01
 -2.37139972E-07 -1.36482640E-02 -2.80043274E-03 -9.84072882E-05  1.22101426E-03
 -1.47837720E-09 -4.77280222E-12  5.17777606E-02 -1.00779854E-01  5.33123102E-02
 -3.80537531E-02  4.53514470E-08 -4.38980150E-01  4.25199200E-01 -3.03467598E-01
  1.06791800E-07  1.00733822E+02  1.64330874E+01 -1.17276254E+01  5.59708920E-07
  6.42894038E-03  1.00207600E-02  9.85055227E-05  6.03248377E-03 -3.72205564E-09
  6.37305227E-09 -5.12741762E-02 -4.14982321E-01  5.12721549E-02  4.14955393E-01
 -5.12809090E-02 -4.15090794E-01  5.12741760E-02  4.14982315E-01 -5.12721549E-02
 -4.14955393E-01  5.12809093E-02  4.15090800E-01 -3.34839123E-02  1.78527863E-02
 -2.10016868E-01 -8.61102267E-02 -2.73853906E-07  8.73497915E-01 -5.62033323E-01
 -2.48344307E-01 -8.66549703E-07  2.83638558E+01 -1.81598617E-01 -2.51574714E+00
 -8.29925700E-07 -1.58407623E-02  5.78576061E-03 -3.13394308E-03 -1.69494891E-02
 -1.00123647E-08 -4.76174610E-09 -1.28185340E-02  6.83088084E-03 -6.79912573E-02
 -8.06849424E-02  1.61047797E-07  3.34442468E-01 -7.02274111E-02 -2.29544510E-01
  4.45679041E-07  1.08626262E+01  1.51736669E+01 -1.92918401E+00 -3.21570860E-08
  6.85778501E-03 -1.07070658E-02 -1.20023629E-03  1.00328634E-02  6.53991341E-09
 -2.28935372E-08  2.06610967E-02 -1.10126014E-02 -1.43699343E-01  3.95991208E-02
 -8.93627827E-08 -5.39028164E-01 -3.32368629E-01  1.86944686E-01 -2.63410863E-07
 -1.75059160E+01  6.98887388E+00  1.10749063E+01  5.92812481E-07 -1.50802314E-03
  7.71252695E-03  1.93399280E-03 -1.55224938E-02 -2.87343709E-09 -3.56693106E-09
  3.34839120E-02 -1.78527858E-02 -2.10016868E-01 -8.61102268E-02  1.06146142E-07
 -8.73497911E-01 -5.62033322E-01 -2.48344306E-01  1.95355563E-07 -2.83638560E+01
 -1.81598239E-01 -2.51574789E+00 -5.80022523E-07  1.58407624E-02 -5.78576071E-03
  3.13394306E-03  1.69494890E-02  8.84850566E-09  4.04186314E-09  1.28185340E-02
 -6.83088082E-03 -6.79912574E-02 -8.06849423E-02 -8.93084214E-08 -3.34442468E-01
 -7.02274127E-02 -2.29544509E-01 -2.63214015E-07 -1.08626262E+01  1.51736677E+01
 -1.92918409E+00  5.92832168E-07 -6.85778502E-03  1.07070658E-02  1.20023629E-03
 -1.00328634E-02 -4.55581881E-09  1.77038106E-10 -2.06610964E-02  1.10126009E-02
 -1.43699343E-01  3.95991208E-02  1.60978429E-07  5.39028159E-01 -3.32368628E-01
  1.86944685E-01  4.45439660E-07  1.75059162E+01  6.98887440E+00  1.10749069E+01
 -3.21180356E-08  1.50802309E-03 -7.71252685E-03 -1.93399277E-03  1.55224938E-02
 -1.30164425E-08  2.00031672E-08 -9.60549171E-02 -1.41770920E+00 -3.67761693E-02
 -5.42802696E-01  5.92742720E-02  8.74854164E-01  9.60549170E-02  1.41770920E+00
  3.67761693E-02  5.42802696E-01 -5.92742719E-02 -8.74854162E-01 -4.52502485E-03
  2.40756057E-03 -1.30918468E-03 -7.11215291E-02 -3.70229699E-08  1.18093729E-01
 -5.43475216E-02 -8.10574553E-02 -1.17162535E-07  3.84085683E+00 -6.93457706E+00
  1.48355891E+01 -1.12266753E-07 -1.05413359E-02  9.18209178E-03 -4.23571264E-04
  6.14737132E-03 -1.92780501E-09  6.14797732E-10 -3.12632842E-02  1.66703084E-02
  4.11068974E-03 -2.13153247E-01  2.15059210E-08  8.15550328E-01 -3.55998818E-02
 -5.72892445E-01  5.93433111E-08  2.64769056E+01 -6.34974690E+00 -5.20810335E-01
 -4.03584614E-09  1.11570632E-02 -2.05450518E-02 -2.92620980E-03 -8.49274053E-03
  9.05622496E-10 -3.30799699E-09 -2.67302551E-02  1.42475822E-02  1.24392946E-01
 -1.37435765E-01 -1.18659750E-08  6.97383153E-01  3.80895322E-01 -3.10686254E-01
 -3.48595657E-08  2.26532180E+01  6.65406928E+00  7.66584645E+00  8.00543363E-08
 -1.51107585E-02  7.08444484E-03 -2.50252607E-03  1.33105139E-02 -3.26839955E-10
 -4.31370496E-10  4.52502467E-03 -2.40756029E-03 -1.30918455E-03 -7.11215289E-02
  1.43261715E-08 -1.18093726E-01 -5.43475212E-02 -8.10574547E-02  2.64202242E-08
 -3.84085694E+00 -6.93457701E+00  1.48355891E+01 -7.83216888E-08  1.05413359E-02
 -9.18209180E-03  4.23571246E-04 -6.14737128E-03  1.21251748E-09  4.96587765E-10
  3.12632843E-02 -1.66703087E-02  4.11068966E-03 -2.13153247E-01 -1.22680108E-08
 -8.15550331E-01 -3.55998821E-02 -5.72892446E-01 -3.63427755E-08 -2.64769055E+01
 -6.34974685E+00 -5.20810362E-01  8.00766851E-08 -1.11570632E-02  2.05450518E-02
  2.92620982E-03  8.49274050E-03 -6.96683335E-10  1.29549044E-11  2.67302551E-02
 -1.42475822E-02  1.24392946E-01 -1.37435765E-01  2.20214989E-08 -6.97383153E-01
  3.80895323E-01 -3.10686254E-01  6.11352068E-08 -2.26532180E+01  6.65406930E+00
  7.66584648E+00 -4.52312272E-09  1.51107585E-02 -7.08444480E-03  2.50252607E-03
 -1.33105139E-02 -1.61231543E-09  2.54882236E-09 -1.29870078E-02 -1.91689700E-01
 -8.96822274E-02 -1.32363955E+00 -7.66871424E-02 -1.13187637E+00  1.29870077E-02
  1.91689700E-01  8.96822275E-02  1.32363955E+00  7.66871424E-02  1.13187637E+00
  1.79318882E-07  1.91182517E-07  6.02740473E-03 -1.32299627E-02  5.08644600E-11
 -3.15539439E-06 -1.73091960E-02  3.80247624E-02  6.31607631E-11  1.73890527E-03
  3.93032204E+01 -8.63007045E+01 -6.35907743E-10 -2.89140129E-03  2.89159584E-03
  1.05169944E-08  2.90553794E-03 -3.27527970E-10  7.10376488E-10 -1.64003294E-06
  2.42671174E-06  1.44751612E-02 -1.39775494E-03 -4.30782591E-10  3.34439702E-05
 -4.15634546E-02  4.01249949E-03 -2.23700637E-09 -2.45724028E-03  9.43901872E+01
 -9.11341001E+00  2.05857487E-08 -7.33794628E-04  7.33628853E-04  6.13118431E-08
 -4.34498100E-03 -1.24432906E-11 -5.13939290E-11  1.77628121E-06 -2.08899384E-06
  8.44871705E-03  1.18370144E-02  4.78916680E-10 -3.75457426E-05 -2.42562267E-02
 -3.39920012E-02  1.21645213E-09  7.12306214E-04  5.50870244E+01  7.71870471E+01
 -1.70424312E-08  3.62557595E-03 -3.62500374E-03 -2.98808222E-07  1.43899014E-03
 -2.37376704E-11 -2.18319679E-11  1.81338700E-07  1.87205443E-07 -6.02740775E-03
  1.32299614E-02 -2.81497861E-10 -3.17607358E-06  1.73091706E-02 -3.80247730E-02
  9.76583520E-11  1.73970165E-03 -3.93032207E+01  8.63007044E+01  8.95172412E-10
 -2.89140098E-03  2.89159625E-03  1.03309414E-08  2.90553788E-03 -5.76493537E-12
 -2.31412020E-11 -1.64148000E-06  2.43050686E-06 -1.44751609E-02  1.39775586E-03
 -2.44517913E-10  3.34466253E-05  4.15634605E-02 -4.01247851E-03 -1.18456292E-09
 -2.45869399E-03 -9.43901870E+01  9.11341026E+00  1.54013299E-08 -7.33795051E-04
  7.33628758E-04  6.14860181E-08 -4.34498099E-03  1.27057475E-11  2.58462213E-11
  1.77772132E-06 -2.09267585E-06 -8.44871635E-03 -1.18370145E-02  2.99192826E-10
 -3.75489737E-05  2.42562463E-02  3.39919930E-02  2.12022653E-09  7.13796976E-04
 -5.50870241E+01 -7.71870471E+01 -1.91978917E-08  3.62557617E-03 -3.62500342E-03
 -2.98980159E-07  1.43899036E-03  6.24429061E-11 -2.47987423E-11  6.90405023E-07
  7.27348677E-06 -1.15441647E-06 -1.67152490E-05  1.86271323E-06  2.42544912E-05
  6.92841210E-07  7.31476463E-06 -1.15620529E-06 -1.67386206E-05  1.86436751E-06
  2.42766073E-05  1.73246119E-02 -2.24263799E-02 -6.05613931E-02  1.41508444E-01
  3.59603398E-08 -3.54745398E-01 -2.26367375E-01  5.83094840E-01  1.44842981E-07
 -3.14938365E+00 -1.08685322E+00  1.29493350E+00  2.62632686E-07  1.26248889E-02
 -7.89472882E-03 -2.20854803E-03 -1.26944451E-02  4.20436205E-09 -2.42725650E-09
 -8.80715819E-02  1.14008328E-01  4.97971053E-02 -2.28703862E-02 -2.10341861E-08
  1.80335863E+00  1.91653456E-01 -2.00676527E-01 -6.49009307E-08  1.60093634E+01
  7.63790360E-01  2.23680378E+00 -9.02293900E-08 -2.07611925E-02 -3.28514262E-03
  1.12273918E-02 -3.95179383E-03 -7.95454000E-10  3.74337399E-09  7.07462130E-02
 -9.15804020E-02  4.75697257E-02  9.15140154E-02  6.82561015E-09 -1.44860002E+00
  1.22181766E-01  4.21943411E-01  3.08150080E-08 -1.28599758E+01  2.12990807E+00
 -1.95894435E-01 -1.73129661E-09  1.69759158E-02  2.34036773E-03 -9.01898224E-03
  1.06749133E-02  1.16765647E-10  9.18096989E-10  1.73246118E-02 -2.24263796E-02
  6.05613932E-02 -1.41508443E-01 -1.05075803E-08 -3.54745397E-01  2.26367376E-01
 -5.83094839E-01 -1.81031066E-08 -3.14938366E+00  1.08685322E+00 -1.29493348E+00
 -1.57275764E-08  1.26248889E-02 -7.89472884E-03 -2.20854802E-03 -1.26944451E-02
 -1.15059678E-09 -7.20775856E-10 -8.80715817E-02  1.14008328E-01 -4.97971054E-02
  2.28703861E-02  4.71331324E-09  1.80335862E+00 -1.91653456E-01  2.00676525E-01
  3.03337467E-08  1.60093634E+01 -7.63790377E-01 -2.23680379E+00  2.89485424E-08
 -2.07611924E-02 -3.28514260E-03  1.12273918E-02 -3.95179383E-03  4.80107086E-10
 -8.34835448E-10  7.07462129E-02 -9.15804018E-02 -4.75697257E-02 -9.15140154E-02
 -1.34302027E-08 -1.44860002E+00 -1.22181766E-01 -4.21943411E-01 -6.14095933E-08
 -1.28599758E+01 -2.12990808E+00  1.95894439E-01 -1.33273579E-07  1.69759158E-02
  2.34036771E-03 -9.01898222E-03  1.06749133E-02  2.24554234E-09 -3.57511782E-09
  1.60999962E-02  2.73111929E-01 -8.18484709E-02 -1.38844905E+00  6.57476596E-02
  1.11531999E+00  1.60999961E-02  2.73111927E-01 -8.18484707E-02 -1.38844905E+00
  6.57476595E-02  1.11531999E+00 -9.16918548E-02  1.18695114E-01 -2.90905764E-02
  1.86990197E-02 -1.90145494E-07  1.87750716E+00 -2.20736704E-01  2.91276715E-02
 -7.66526057E-07  1.66690203E+01  2.05168103E+00  1.27263359E+00 -1.39232035E-06
 -4.97165786E-03 -2.00629120E-02  1.16892545E-02  5.04231174E-03 -1.32670196E-08
 -6.86354433E-09  3.08420316E-02 -3.99224980E-02  1.47724882E-01 -7.93552791E-03
  9.05303433E-08 -6.31529888E-01  6.03122675E-01  5.57436662E-03  3.33907759E-07
 -5.60716233E+00  1.47793171E+00 -9.52015173E-01  5.96695762E-07  4.18572668E-03
  4.23584721E-03 -3.93223502E-03 -1.68935806E-02  5.37641140E-09 -2.06209945E-08
  6.08490422E-02 -7.87654760E-02 -7.90867932E-02 -8.94219454E-02 -3.03323657E-08
 -1.24596828E+00 -3.81883495E-01 -3.19394176E-01 -1.61794314E-07 -1.10618613E+01
  5.63940057E-01 -1.94527601E+00 -7.53531495E-08 -4.38442040E-03  2.09988772E-02
 -7.75737836E-03  1.64545570E-03  5.61378010E-10 -4.83795716E-09 -9.16918552E-02
  1.18695115E-01  2.90905769E-02 -1.86990196E-02  5.56030793E-08  1.87750716E+00
  2.20736709E-01 -2.91276694E-02  9.58194858E-08  1.66690203E+01 -2.05168101E+00
 -1.27263359E+00  8.36942337E-08 -4.97165792E-03 -2.00629121E-02  1.16892546E-02
  5.04231177E-03  6.47833857E-09  2.91165350E-09  3.08420319E-02 -3.99224989E-02
 -1.47724882E-01  7.93552777E-03 -3.07238883E-08 -6.31529887E-01 -6.03122676E-01
 -5.57437194E-03 -1.61867878E-07 -5.60716221E+00 -1.47793174E+00  9.52015155E-01
 -6.97833011E-08  4.18572677E-03  4.23584724E-03 -3.93223508E-03 -1.68935806E-02
 -3.33431874E-09  3.53946986E-09  6.08490418E-02 -7.87654751E-02  7.90867929E-02
  8.94219454E-02  9.19363576E-08 -1.24596828E+00  3.81883489E-01  3.19394178E-01
  3.34546723E-07 -1.10618614E+01 -5.63940095E-01  1.94527599E+00  5.88867346E-07
 -4.38442045E-03  2.09988771E-02 -7.75737830E-03  1.64545566E-03 -1.20385892E-08
  1.74956541E-08 -8.52155447E-02 -1.44558734E+00  2.86636331E-02  4.86253319E-01
  5.65515704E-02  9.59329956E-01 -8.52155452E-02 -1.44558735E+00  2.86636335E-02
  4.86253326E-01  5.65515700E-02  9.59329948E-01 -4.54813144E-02  1.31671017E-01
  1.27433598E-03  5.68410362E-04 -1.95375808E-07  1.37199653E-02 -8.37764856E-01
 -3.81593814E-01 -8.01545889E-07  9.42573155E+01  1.57399861E+01  7.16877426E+00
 -1.54458878E-06 -1.14175904E-02 -1.33512982E-02  1.60570337E-02  1.28420188E-03
 -2.90284656E-08 -1.32198799E-08  4.54876624E-02 -1.31675824E-01 -1.41199346E-04
 -1.38261383E-03  7.86190599E-08 -1.39147892E-02  8.84381537E-02  9.16316593E-01
  3.28968036E-07 -9.42546155E+01 -1.66179190E+00 -1.72154366E+01  7.10174830E-07
  1.38345165E-02  1.09360114E-02 -1.60573324E-02 -3.25676398E-04  6.95460295E-09
 -2.49224134E-08 -4.54842695E-02  1.31673849E-01 -1.14323045E-03  7.94819009E-04
 -1.11525027E-08  1.38066212E-02  7.49267051E-01 -5.34852535E-01 -1.49054005E-07
  9.42559583E+01 -1.40775736E+01  1.00477716E+01 -1.71584977E-07 -1.19065246E-02
 -1.28630800E-02  1.60569862E-02 -1.61055530E-03  1.61332003E-09 -6.27009184E-09
  4.54813143E-02 -1.31671017E-01  1.27433581E-03  5.68409649E-04  4.83997020E-08
 -1.37199606E-02 -8.37764855E-01 -3.81593819E-01  7.22375483E-08 -9.42573152E+01
  1.57399865E+01  7.16877323E+00  1.89161473E-07  1.14175905E-02  1.33512980E-02
 -1.60570336E-02 -1.28420197E-03  6.49708734E-09  2.94133296E-09 -4.54876625E-02
  1.31675824E-01 -1.41199822E-04 -1.38261424E-03 -1.11499909E-08  1.39147914E-02
  8.84381526E-02  9.16316591E-01 -1.49031092E-07  9.42546155E+01 -1.66179082E+00
 -1.72154367E+01 -1.71683285E-07 -1.38345165E-02 -1.09360114E-02  1.60573324E-02
  3.25676338E-04 -3.66930191E-09  5.33343065E-09  4.54842698E-02 -1.31673850E-01
 -1.14323083E-03  7.94820047E-04  7.85968926E-08 -1.38066280E-02  7.49267050E-01
 -5.34852530E-01  3.28958327E-07 -9.42559585E+01 -1.40775730E+01  1.00477725E+01
  7.10310896E-07  1.19065246E-02  1.28630801E-02 -1.60569863E-02  1.61055531E-03
 -1.42357831E-08  2.16074871E-08 -8.65057819E-02 -1.60037771E+00  8.64995895E-02
  1.60042945E+00 -8.65045039E-02 -1.60040747E+00  8.65057815E-02  1.60037771E+00
 -8.64995894E-02 -1.60042945E+00  8.65045041E-02  1.60040747E+00  6.41705155E-02
 -3.30776368E-02  4.41484722E-02 -2.29088452E-02 -3.78054499E-08 -2.23834706E+00
  4.70256604E-02 -2.39265481E-01  1.58153908E-07  1.73278872E+01  1.46186840E-03
  1.24760574E+00  6.81800864E-07 -1.25052955E-02  3.09951165E-02 -5.18009905E-03
 -2.41324692E-02 -1.33165596E-08 -4.81488784E-09  3.88374018E-02 -2.00121349E-02
 -2.56321170E-01  4.34008771E-02  3.00316036E-08 -1.35479269E+00 -1.56751092E+00
  1.16975499E-01 -4.05059293E-08  1.04948534E+01  7.51259611E+00 -4.08851892E-01
 -3.95179417E-07  2.68506190E-02 -1.56608972E-02 -3.13437992E-03  1.61674696E-02
  4.25410360E-09  3.06498358E-10 -2.53269405E-02  1.30482559E-02 -1.63515801E-01
 -2.49961659E-01 -1.98444318E-08  8.83516355E-01 -1.06888867E+00 -1.45928159E+00
  6.53482834E-09 -6.84559895E+00  5.19343660E+00  6.92283066E+00  1.93304958E-07
 -1.91783826E-02  1.18815185E-02  2.04370170E-03 -2.06442370E-02 -4.31635606E-09
  8.50866382E-10 -6.41705150E-02  3.30776363E-02  4.41484751E-02 -2.29088434E-02
  6.09798745E-09  2.23834705E+00  4.70256730E-02 -2.39265468E-01  4.57684193E-09
 -1.73278872E+01  1.46183571E-03  1.24760588E+00 -1.78704892E-07  1.25052954E-02
 -3.09951162E-02  5.18009902E-03  2.41324694E-02 -5.06247557E-10 -1.81581862E-10
 -3.88374017E-02  2.00121348E-02 -2.56321169E-01  4.34008777E-02 -1.93260860E-08
  1.35479269E+00 -1.56751091E+00  1.16975501E-01  5.77050951E-09 -1.04948534E+01
  7.51259593E+00 -4.08851873E-01  1.97428309E-07 -2.68506189E-02  1.56608971E-02
  3.13437991E-03 -1.61674691E-02 -2.05980898E-09 -3.76408771E-09  2.53269399E-02
 -1.30482552E-02 -1.63515798E-01 -2.49961661E-01  2.80848366E-08 -8.83516338E-01
 -1.06888865E+00 -1.45928161E+00 -3.84489001E-08  6.84559894E+00  5.19343654E+00
  6.92283052E+00 -4.00741043E-07  1.91783827E-02 -1.18815187E-02 -2.04370167E-03
  2.06442370E-02  3.05475530E-09  3.03034684E-09 -7.42561440E-02  5.64521302E-01
 -4.49506685E-02  3.41538498E-01  2.93165205E-02 -2.22713237E-01  7.42561436E-02
 -5.64521316E-01  4.49506684E-02 -3.41538501E-01 -2.93165201E-02  2.22713254E-01
 -7.79936120E-03  4.01687729E-03  1.30070280E-01 -2.94602621E-01  4.60255381E-09
  2.72090980E-01  8.15134500E-01 -1.77323422E+00 -1.91945028E-08 -2.10954449E+00
 -3.92691900E+00  8.46922959E+00 -8.28329054E-08 -1.54106570E-02  1.31634881E-02
  6.29254526E-04  1.99459508E-02 -2.31451930E-09  9.22450351E-09  5.16703490E-02
 -2.66276588E-02  1.96381842E-01  5.85966232E-03  4.48098260E-09 -1.80242919E+00
  1.17142257E+00 -1.58770426E-01 -3.68056338E-09  1.39591342E+01 -5.58394962E+00
  9.59624608E-01  7.12175201E-08  2.86280936E-02 -1.37407176E-02 -4.17013866E-03
 -2.05166435E-02 -6.72137035E-10 -7.17191653E-11  5.94727130E-02 -3.06528619E-02
 -9.69841046E-02 -8.69420422E-02  2.28267758E-10 -2.07452770E+00 -4.04949051E-01
 -6.57405060E-01  2.43782738E-09  1.60608165E+01  1.74924271E+00  3.27854708E+00
 -4.07406168E-08 -8.73964393E-03  2.58758529E-02 -4.80049701E-03  2.71289460E-02
  7.38775866E-12 -3.84393375E-10  7.79936129E-03 -4.01687737E-03  1.30070281E-01
 -2.94602621E-01 -7.56553126E-10 -2.72090983E-01  8.15134504E-01 -1.77323422E+00
 -5.43802957E-10  2.10954448E+00 -3.92691900E+00  8.46922961E+00  2.17352200E-08
  1.54106571E-02 -1.31634882E-02 -6.29254534E-04 -1.99459509E-02 -8.31525620E-11
  3.29338132E-10 -5.16703492E-02  2.66276590E-02  1.96381842E-01  5.85966115E-03
  4.54087939E-09  1.80242920E+00  1.17142257E+00 -1.58770432E-01 -3.93534678E-09
 -1.39591342E+01 -5.58394963E+00  9.59624599E-01 -6.78574970E-09 -2.86280936E-02
  1.37407176E-02  4.17013867E-03  2.05166434E-02  8.01153922E-10  6.63255123E-10
 -5.94727129E-02  3.06528617E-02 -9.69841052E-02 -8.69420420E-02 -1.15576818E-08
  2.07452769E+00 -4.04949055E-01 -6.57405061E-01  1.32589312E-08 -1.60608165E+01
  1.74924271E+00  3.27854708E+00  2.55178373E-08  8.73964404E-03 -2.58758530E-02
  4.80049700E-03 -2.71289460E-02 -2.41850924E-10 -2.75817447E-10  9.02867814E-03
 -6.85557562E-02 -5.98015741E-02  4.54469780E-01 -6.88234570E-02  5.23159353E-01
 -9.02867818E-03  6.85557540E-02  5.98015742E-02 -4.54469775E-01  6.88234569E-02
 -5.23159356E-01 -5.81078992E-03  6.78877312E-03  5.02124230E-02 -1.93719886E-02
  1.95707290E-08  1.62088712E-01  4.82412849E-01 -5.97239169E-01  7.05242345E-08
 -4.68024525E-01 -8.23436645E-01  2.29051559E+00  2.08825632E-07 -2.59613961E-02
  2.48127486E-02  3.05819952E-04  2.61078323E-02 -3.63567789E-11  6.60269745E-09
  4.62522365E-02 -5.40365133E-02 -4.40948780E-02 -2.96900695E-01 -7.84231308E-10
 -1.29029807E+00 -4.42081248E-01 -1.48839638E+00 -3.28393465E-08  3.72575978E+00
  8.11775641E-01 -1.67663169E+00 -9.80754506E-08  1.02246554E-02 -1.08753371E-03
 -2.43347770E-03  1.47013307E-02 -7.97507425E-10  2.23367005E-09 -4.04414050E-02
  4.72464047E-02 -2.26751154E-01  1.33463306E-01 -1.69537160E-09  1.12819022E+00
 -1.34399591E+00  4.10637626E-01  1.48309747E-08 -3.25773989E+00 -2.85750010E-01
  1.99397803E+00  3.43889292E-08 -2.24152647E-02  1.44258665E-02  2.12749367E-03
 -1.06379606E-02 -6.38007438E-10  4.65217076E-10 -5.81078938E-03  6.78877265E-03
 -5.02124228E-02  1.93719878E-02 -4.07729186E-09  1.62088696E-01 -4.82412848E-01
  5.97239164E-01 -4.87660201E-09 -4.68024629E-01  8.23436672E-01 -2.29051555E+00
 -4.34428555E-08 -2.59613961E-02  2.48127488E-02  3.05819881E-04  2.61078321E-02
 -8.06673136E-10 -7.61733488E-13  4.62522366E-02 -5.40365132E-02  4.40948804E-02
  2.96900695E-01  1.50005548E-09 -1.29029807E+00  4.42081263E-01  1.48839638E+00
  9.44151217E-09  3.72576005E+00 -8.11775722E-01  1.67663165E+00  5.58895564E-08
  1.02246555E-02 -1.08753380E-03 -2.43347768E-03  1.47013309E-02  7.26234419E-10
 -5.02793767E-10 -4.04414053E-02  4.72464047E-02  2.26751155E-01 -1.33463305E-01
 -1.18609236E-08  1.12819023E+00  1.34399592E+00 -4.10637619E-01 -2.15960141E-08
 -3.25774024E+00  2.85749941E-01 -1.99397805E+00 -1.26584773E-07 -2.24152648E-02
  1.44258665E-02  2.12749367E-03 -1.06379608E-02  1.75375670E-09 -2.26432202E-09
  4.88779219E-03  1.69923018E-01 -3.89039338E-02 -1.35214572E+00  3.40160294E-02
  1.18224878E+00  4.88779181E-03  1.69923025E-01 -3.89039341E-02 -1.35214572E+00
  3.40160300E-02  1.18224878E+00  5.00542464E-02 -5.84775706E-02 -2.93367000E-01
 -1.38511225E-01 -1.68571428E-07 -1.39638170E+00 -1.46511128E+00 -7.62105414E-01
 -6.07298109E-07  4.03151868E+00 -1.68335763E+00 -4.57556549E-01 -1.79795091E-06
 -2.46812227E-04  1.01350963E-02 -2.63350164E-03  5.50346180E-05 -2.14826291E-08
 -9.01523913E-09 -1.99940524E-02  2.33574154E-02 -2.29075275E-02  1.32388102E-01
  5.50735342E-08  5.57781878E-01 -6.20557807E-01  7.21746229E-01  2.33751182E-07
 -1.61051037E+00  2.29784646E+00  4.68981446E-01  9.68796280E-07  2.71298869E-03
 -6.66288356E-03  1.05172239E-03  3.59002791E-02  5.82043002E-09 -2.17484583E-08
 -3.00603686E-02  3.51168377E-02 -1.40526554E-01  1.38452449E-01  6.67937991E-10
  8.38606895E-01 -4.57219777E-01  1.06433648E+00 -1.04244337E-07 -2.42100576E+00
 -1.97998907E+00 -9.94441823E-01 -3.89856671E-07  2.36630442E-02 -2.96020692E-02
  1.58157616E-03  8.09873371E-03  2.28865209E-09 -5.80991602E-09  5.00542471E-02
 -5.84775711E-02  2.93366999E-01  1.38511225E-01  3.50923169E-08 -1.39638172E+00
  1.46511128E+00  7.62105418E-01  4.20409388E-08  4.03151878E+00  1.68335766E+00
  4.57556531E-01  3.73995427E-07 -2.46812378E-04  1.01350967E-02 -2.63350171E-03
  5.50343755E-05  5.72982406E-09  2.65360024E-09 -1.99940519E-02  2.33574152E-02
  2.29075301E-02 -1.32388103E-01  1.03662264E-09  5.57781861E-01  6.20557823E-01
 -7.21746229E-01 -1.04863704E-07 -1.61051012E+00 -2.29784654E+00 -4.68981461E-01
 -3.87350654E-07  2.71298901E-03 -6.66288377E-03  1.05172237E-03  3.59002793E-02
 -2.78821798E-09  5.57392559E-09 -3.00603688E-02  3.51168378E-02  1.40526556E-01
 -1.38452446E-01  5.37874934E-08  8.38606902E-01  4.57219790E-01 -1.06433646E+00
  2.35054879E-07 -2.42100592E+00  1.97998899E+00  9.94441748E-01  9.65469717E-07
  2.36630440E-02 -2.96020691E-02  1.58157616E-03  8.09873352E-03 -1.25169825E-08
  1.86446794E-08 -4.20984227E-02 -1.46320628E+00  1.68174963E-02  5.84463723E-01
  2.52823642E-02  8.78732659E-01 -4.20984234E-02 -1.46320627E+00  1.68174956E-02
  5.84463726E-01  2.52823645E-02  8.78732658E-01  7.60678402E-07 -2.18821779E-06
 -1.35417674E-01  2.97334755E-01 -5.85508482E-12 -1.02785973E-05 -1.32246320E+00
  2.90380479E+00 -6.77508245E-12  3.58225881E-04  7.72692524E+00 -1.69665317E+01
 -2.81711597E-11  1.45476170E-02 -1.45469201E-02 -5.23068532E-07 -1.46161342E-02
  4.53918652E-09 -9.96501565E-09 -6.74271304E-07 -1.58476737E-06 -3.25216535E-01
  3.13965858E-02 -1.47883659E-08  7.51317507E-05 -3.17596074E+00  3.06654262E-01
  1.93510019E-08 -3.95167205E-04  1.85568995E+01 -1.79165677E+00 -2.65320822E-08
  3.68863351E-03 -3.68800861E-03 -3.78892556E-07  2.18550190E-02 -5.17698670E-10
 -1.20298897E-10 -2.89246576E-07  1.78818833E-06 -1.89796434E-01 -2.65942519E-01
  3.00469479E-09 -5.25325604E-05 -1.85352944E+00 -2.59713973E+00 -6.89362767E-09
  4.74707646E-05  1.08300118E+01  1.51747858E+01  1.75173818E-08 -1.82355988E-02
  1.82348407E-02  3.82535020E-07 -7.23934165E-03  8.74600936E-10  5.59479805E-10
  7.60560705E-07 -2.18807335E-06  1.35417674E-01 -2.97334755E-01 -1.00080949E-10
 -1.02752496E-05  1.32246319E+00 -2.90380479E+00  1.37170791E-10  3.58287564E-04
 -7.72692525E+00  1.69665317E+01 -7.68046154E-11  1.45476170E-02 -1.45469201E-02
 -5.23033652E-07 -1.46161342E-02  2.30164387E-10 -5.05564667E-10 -6.74160335E-07
 -1.58486492E-06  3.25216535E-01 -3.13965855E-02 -3.01334514E-09  7.51283277E-05
  3.17596074E+00 -3.06654260E-01  6.85109115E-09 -3.95247282E-04 -1.85568995E+01
  1.79165678E+00 -1.74710354E-08  3.68863352E-03 -3.68800857E-03 -3.78924134E-07
  2.18550190E-02 -1.00169378E-09 -2.87290121E-10 -2.89359385E-07  1.78832412E-06
  1.89796435E-01  2.65942519E-01  1.47548435E-08 -5.25292055E-05  1.85352944E+00
  2.59713972E+00 -1.93033201E-08  4.75509401E-05 -1.08300118E+01 -1.51747858E+01
  2.65437557E-08 -1.82355988E-02  1.82348407E-02  3.82569795E-07 -7.23934163E-03
  4.33172891E-10  3.10605254E-10  5.83850293E-06 -2.49875177E-05  6.89256673E-06
 -1.62305507E-05  1.56043728E-06  5.73160919E-06  5.83833615E-06 -2.49864869E-05
  6.89277073E-06 -1.62315409E-05  1.56023997E-06  5.73259918E-06 -4.48569109E-06
  2.64959029E-06  1.39441254E-01 -3.06167047E-01  2.94903032E-11  1.74699294E-04
 -2.41672967E-01  5.31015777E-01 -4.08212610E-12 -9.16038214E-04  2.39898004E-01
 -5.27068991E-01  6.65978741E-11  3.96107211E-02 -3.96107388E-02  6.62499419E-07
 -3.98006283E-02  2.55594990E-09 -5.60372874E-09  4.16758527E-06 -1.69717866E-06
 -3.34866091E-01  3.23233845E-02 -1.75138712E-08 -1.59450686E-04  5.80691300E-01
 -5.62093868E-02  2.50856188E-08  5.99426169E-04 -5.76427982E-01  5.57764131E-02
 -2.60114263E-08 -1.00461628E-02  1.00460496E-02 -5.58948686E-07 -5.95111306E-02
 -5.00192198E-10 -3.52452716E-10 -3.92210769E-06  5.20803608E-06  1.95426367E-01
  2.73845807E-01  4.34620523E-09  1.75470276E-04 -3.39016152E-01 -4.74790438E-01
 -1.03959439E-08 -7.13527595E-04  3.36419346E-01  4.71183731E-01  1.67984119E-08
 -4.96562270E-02  4.96562203E-02  3.77955664E-07 -1.97095482E-02  8.14209406E-10
  4.78342625E-10  4.48569102E-06 -2.64959087E-06  1.39441254E-01 -3.06167047E-01
 -4.70646137E-12 -1.74699293E-04 -2.41672967E-01  5.31015778E-01  6.99306297E-12
  9.16038309E-04  2.39898007E-01 -5.27068996E-01 -1.81206674E-11 -3.96107211E-02
  3.96107388E-02 -6.62499448E-07  3.98006283E-02  2.03714486E-10 -4.47461843E-10
 -4.16758505E-06  1.69718056E-06 -3.34866092E-01  3.23233845E-02 -4.34486518E-09
  1.59450685E-04  5.80691299E-01 -5.62093868E-02  1.03980458E-08 -5.99426576E-04
 -5.76427976E-01  5.57764126E-02 -1.67716587E-08  1.00461628E-02 -1.00460496E-02
  5.58948422E-07  5.95111306E-02 -8.96014807E-10 -3.00664300E-10  3.92210755E-06
 -5.20803544E-06  1.95426367E-01  2.73845807E-01  1.75325697E-08 -1.75470279E-04
 -3.39016153E-01 -4.74790438E-01 -2.51151507E-08  7.13527908E-04  3.36419350E-01
  4.71183735E-01  2.59546952E-08  4.96562270E-02 -4.96562203E-02 -3.77955364E-07
  1.97095482E-02  5.96464480E-10  1.41544566E-10 -1.39271669E-06  6.68727854E-05
  3.03956194E-06 -6.92973611E-05 -3.57098283E-06  7.02687791E-05  1.39271605E-06
 -6.68727858E-05 -3.03956001E-06  6.92973684E-05  3.57098126E-06 -7.02687848E-05
  9.73958282E-02 -1.07467120E-01 -2.49964584E-01 -1.13852118E-01 -4.61174329E-07
 -3.46988234E+00 -2.74006656E+00 -1.24787553E+00 -4.01619855E-08  2.70921972E+01
  4.13178595E+00  1.88183007E+00 -2.51017510E-06  1.48124632E-02  5.48036696E-03
 -2.18246948E-02  6.18785813E-03 -5.81538481E-08 -2.64839595E-08 -9.73956066E-02
  1.07467236E-01  2.63860930E-02  2.73401903E-01 -2.62688953E-08  3.46981503E+00
  2.89352928E-01  2.99687353E+00  1.36247008E-07 -2.70913775E+01 -4.36223682E-01
 -4.51912396E+00  1.32473675E-06 -3.17324580E-03 -1.71203373E-02  2.18251628E-02
 -1.57213734E-03  1.35276948E-08 -4.40481223E-08  9.73959169E-02 -1.07466493E-01
  2.23584641E-01 -1.59545666E-01  8.67622141E-08 -3.46983824E+00  2.45067944E+00
 -1.74908863E+00 -1.45813073E-07  2.70917931E+01 -3.69537420E+00  2.63762674E+00
 -5.16439767E-07  1.24548566E-02  7.83885902E-03 -2.18250650E-02 -7.76025756E-03
  6.13044513E-09 -4.79648430E-09 -9.73958282E-02  1.07467120E-01 -2.49964584E-01
 -1.13852118E-01  6.28052178E-08  3.46988234E+00 -2.74006656E+00 -1.24787553E+00
 -2.20562739E-08 -2.70921972E+01  4.13178598E+00  1.88183001E+00  5.20423115E-07
 -1.48124632E-02 -5.48036696E-03  2.18246949E-02 -6.18785810E-03  2.32947611E-09
  1.05714237E-09  9.73956066E-02 -1.07467236E-01  2.63860924E-02  2.73401903E-01
  8.67404720E-08 -3.46981503E+00  2.89352925E-01  2.99687353E+00 -1.45772745E-07
  2.70913775E+01 -4.36223614E-01 -4.51912397E+00 -5.16473092E-07  3.17324581E-03
  1.71203373E-02 -2.18251628E-02  1.57213731E-03  4.06696174E-10  7.77043095E-09
 -9.73959169E-02  1.07466493E-01  2.23584641E-01 -1.59545666E-01 -2.62849083E-08
  3.46983824E+00  2.45067944E+00 -1.74908864E+00  1.36252603E-07 -2.70917931E+01
 -3.69537416E+00  2.63762680E+00  1.32475041E-06 -1.24548565E-02 -7.83885902E-03
  2.18250650E-02  7.76025758E-03 -2.43499552E-08  3.91201137E-08  1.00176776E-01
 -1.77540845E+00 -1.00181269E-01  1.77539395E+00  1.00180579E-01 -1.77541815E+00
 -1.00176776E-01  1.77540845E+00  1.00181269E-01 -1.77539395E+00 -1.00180579E-01
  1.77541815E+00  5.20348439E-03  1.26719615E-01  2.90926061E-01  1.32496859E-01
  3.25673029E-08 -1.62508742E-01 -2.60940611E-01 -1.18770259E-01 -9.58220618E-08
 -1.02120754E-01  1.99924803E-01  9.07326944E-02  3.03922335E-07 -3.96091465E-02
  4.31892719E-02  3.84676110E-03 -5.49355367E-02 -3.66335020E-08 -1.66838207E-08
  5.20204867E-03  1.26721618E-01  3.07136014E-02  3.18205491E-01  1.16365442E-07
 -1.62490343E-01 -2.75950846E-02 -2.85354089E-01 -7.67344147E-08 -1.02077030E-01
  2.13971041E-02  2.18533802E-01 -1.02960402E-07  6.36910565E-02 -6.01121258E-02
  3.84758144E-03 -1.39311844E-02  1.03766441E-08 -7.59214151E-09  5.20251693E-03
  1.26724452E-01 -2.60213297E-01  1.85706261E-01  2.74588366E-08 -1.62527148E-01
  2.33341532E-01 -1.66592396E-01 -2.57712560E-08 -1.02300754E-01 -1.78512936E-01
  1.27749869E-01  3.85622027E-08 -1.87121765E-02  2.22904629E-02  3.84775800E-03
  6.88671081E-02 -5.67394169E-09 -2.75781525E-09  5.20348439E-03  1.26719615E-01
 -2.90926061E-01 -1.32496859E-01  6.16979667E-08 -1.62508742E-01  2.60940611E-01
  1.18770259E-01 -5.94088087E-08 -1.02120750E-01 -1.99924804E-01 -9.07326946E-02
 -5.48005875E-09 -3.96091465E-02  4.31892719E-02  3.84676110E-03 -5.49355367E-02
  1.44802552E-09  6.59796095E-10  5.20204867E-03  1.26721618E-01 -3.07136014E-02
 -3.18205491E-01  2.74661856E-08 -1.62490343E-01  2.75950846E-02  2.85354089E-01
 -2.57816947E-08 -1.02077034E-01 -2.13971040E-02 -2.18533801E-01  3.85680158E-08
  6.36910565E-02 -6.01121258E-02  3.84758144E-03 -1.39311844E-02 -5.80534606E-09
 -2.46994149E-09  5.20251693E-03  1.26724452E-01  2.60213297E-01 -1.85706261E-01
  1.16368946E-07 -1.62527148E-01 -2.33341533E-01  1.66592396E-01 -7.67357071E-08
 -1.02300751E-01  1.78512936E-01 -1.27749869E-01 -1.02961922E-07 -1.87121765E-02
  2.22904629E-02  3.84775800E-03  6.88671081E-02  1.08465965E-09  1.28118808E-08
 -2.15930515E-01  3.22047307E-01 -2.15932892E-01  3.22059491E-01 -2.15932477E-01
  3.22052658E-01 -2.15930515E-01  3.22047307E-01 -2.15932892E-01  3.22059491E-01
 -2.15932477E-01  3.22052658E-01 -8.19965376E-10 -6.82479470E-08 -1.22772211E-07
 -5.59205591E-08  4.44434032E-01 -1.95588772E-07 -2.81300941E-07 -1.27969052E-07
 -4.20874075E-01  4.70388674E-06  5.30554483E-07  2.37039403E-07  1.33176771E-01
 -5.94007892E-09 -1.18541278E-08  2.75570306E-09  3.92187165E-09  5.04976737E-03
  2.29971827E-03 -1.19788680E-08 -7.85465207E-09  3.87921554E-08 -1.33352281E-08
  4.44434945E-01  4.19255919E-07  1.76250305E-08  4.05048691E-07 -4.20872990E-01
 -4.95567166E-06  1.26491322E-08 -8.62126212E-07  1.33179294E-01 -8.52799670E-09
  2.04862861E-09  4.68015417E-09  4.51871289E-09  5.32700164E-04  5.52241000E-03
  1.38614595E-08 -4.13846917E-08  6.35864446E-08 -6.95789224E-08  4.44430204E-01
 -3.60656367E-07  2.98551018E-07 -1.26343744E-07 -4.20865358E-01  5.62928905E-06
 -8.08394386E-07  6.03227571E-07  1.33172893E-01  9.92561650E-09 -7.14384486E-10
 -6.67888481E-09 -1.17417942E-08 -4.51569034E-03  3.22329238E-03 -1.42865577E-08
  4.81287254E-09  2.13146281E-09  9.71086537E-10  4.44434032E-01  3.39500806E-07
 -3.66890058E-07 -1.67225960E-07 -4.20874075E-01 -5.96292331E-06  1.02396388E-06
  4.71391156E-07  1.33176771E-01  3.74997739E-09 -1.18312489E-08  5.60902737E-09
  1.03309723E-08 -5.04976737E-03 -2.29971827E-03  1.38657910E-08 -4.14010165E-08
 -1.06461482E-08  9.36544609E-08  4.44434945E-01 -3.60594694E-07  1.00757642E-07
  3.08143129E-07 -4.20872990E-01  5.62887811E-06 -8.44753374E-08 -1.00502867E-06
  1.33179294E-01 -6.19266163E-09  1.54114028E-08 -6.68330751E-09  4.46771678E-09
 -5.32700164E-04 -5.52241000E-03 -1.19858690E-08 -7.85795012E-09  1.54601460E-08
  3.80647667E-08  4.44430204E-01  4.19202483E-07  3.17212462E-07 -2.52500501E-07
 -4.20865358E-01 -4.95653634E-06 -6.47086900E-07  5.68566497E-07  1.33172893E-01
  1.35141428E-09 -7.85002750E-09  4.68773589E-09 -5.42936511E-09  4.51569034E-03
 -3.22329238E-03 -2.91331640E-08 -3.38350678E-07  1.90203955E-08  2.07699188E-07
  5.65497094E-08 -3.08701275E-07  1.45023576E-08  2.09298037E-07  5.65636976E-08
 -3.08727016E-07  1.89913651E-08  2.07748165E-07  7.50372845E-08 -2.17012392E-07
  2.11343029E-07 -2.55524448E-08 -5.88846481E-01  1.56443010E-06 -6.49870195E-07
 -4.97705145E-08  7.15390170E-01 -8.07247514E-06  1.17912564E-07  7.10312648E-08
 -3.70393322E-01  6.79735340E-08  1.06680248E-07 -1.07146795E-07 -2.06565762E-08
 -4.34092790E-02 -8.88156866E-03 -1.16858667E-08 -4.91187261E-08 -8.40217498E-07
 -2.28780610E-09 -4.84160107E-01 -3.25785375E-07  1.69058259E-06  6.24446534E-08
  5.88199906E-01  1.79671149E-05 -5.42671718E-08  2.77499634E-06 -3.04534982E-01
 -5.53292769E-08  1.61760474E-08  1.40719334E-08 -3.56619268E-09  1.46122974E-02
 -3.70850872E-02 -7.37622503E-08  1.97769432E-07  1.44552701E-07  8.30975157E-07
  1.04678933E-01 -1.29495576E-06 -7.59845880E-07 -1.28533440E-06 -1.27169692E-01
 -3.50312830E-05  5.95444337E-06 -4.24950496E-06  6.58379416E-02 -7.27545435E-08
 -9.57093624E-08  8.47781465E-08 -2.77323963E-08  1.00260734E-02  2.72649603E-02
  1.01771466E-07 -3.46887321E-07  4.66025188E-07  3.25895617E-07  5.88846481E-01
  1.95897642E-06 -1.79150491E-07 -3.03095195E-07 -7.15390170E-01  4.18606029E-05
 -8.25938772E-06 -3.84409458E-06  3.70393322E-01  7.18397161E-08  1.54156692E-07
 -1.20438512E-07 -5.15820508E-08 -4.34092790E-02 -8.88156866E-03 -5.87913942E-08
  1.44363223E-07  8.39436446E-07 -3.61393328E-07  4.84160107E-01 -8.76389604E-07
 -1.72846179E-06  1.75814003E-07 -5.88199906E-01 -3.08632700E-05  6.86436858E-07
  6.24391271E-06  3.04534982E-01 -7.74276961E-08 -5.03663743E-08  6.42387147E-08
  8.77683914E-09  1.46122974E-02 -3.70850872E-02 -2.78948207E-08  1.93419331E-10
 -4.27786302E-07 -6.05512008E-07 -1.04678933E-01 -7.65178357E-07  9.35007461E-07
  1.13037642E-06  1.27169692E-01  1.39599934E-05  1.20904332E-06 -1.24236641E-06
 -6.58379416E-02 -3.78251559E-08 -4.62223643E-08  3.60797544E-08 -5.64116176E-08
  1.00260734E-02  2.72649603E-02  3.20183829E-07 -6.35493995E-07 -9.68605731E-08
  9.35790021E-08 -2.18731891E-07  8.73199367E-07  3.13464979E-07 -1.07701106E-06
 -1.66643457E-07  7.39711821E-07 -1.53339913E-07  2.31225413E-07 -2.79553588E-08
  8.08264635E-08  6.30403024E-08 -3.01151170E-07  2.19091392E-01 -5.82998701E-07
 -4.44884021E-08  6.46540783E-07 -2.66170022E-01  2.99647518E-06 -7.21828636E-08
  3.09789936E-08  1.37805703E-01 -3.19608892E-08 -3.31266128E-08  3.99161042E-08
  1.43777712E-08  3.58570173E-03  3.08960327E-02  2.93246641E-08 -5.77102488E-08
  1.54914500E-07 -1.17970482E-07 -4.00405887E-01  7.98333554E-07 -2.84713224E-07
  1.29746745E-07  4.86448553E-01 -5.12746098E-07  1.41980888E-07  5.82669392E-07
 -2.51854576E-01  7.55316766E-08  8.21836005E-09 -3.91526658E-08  4.26946088E-10
 -2.46166371E-02 -2.71258365E-02  4.40461237E-09  8.59625347E-09 -2.60044740E-07
 -3.70313482E-07 -6.19502752E-01 -1.62461579E-07  6.55900983E-07  6.84950150E-07
  7.52633129E-01  6.62212198E-06 -1.00384545E-06  5.39455409E-07 -3.89675788E-01
 -1.02598872E-09  1.11666740E-09  6.96036636E-11 -1.04258822E-08  3.97319163E-02
 -2.25403400E-02 -3.79020181E-08  1.29188987E-07 -3.05665072E-07  1.68705566E-07
 -2.19091392E-01 -7.29858947E-07  3.24410754E-07 -4.52565876E-07  2.66170022E-01
 -1.55858799E-05  3.17798684E-06  1.20628164E-06 -1.37805703E-01 -3.07749587E-08
 -5.34059546E-08  4.48609300E-08  2.32531671E-08  3.58570173E-03  3.08960327E-02
  4.49531396E-08 -1.36022422E-07 -1.31497999E-07  2.50222212E-07  4.00405887E-01
  9.71351770E-07  2.43634955E-07 -2.11667432E-07 -4.86448553E-01  1.79077725E-05
 -2.65147864E-07 -3.92396240E-06  2.51854576E-01  7.84124021E-08  3.18274496E-08
 -5.55655265E-08 -4.07945116E-09 -2.46166371E-02 -2.71258365E-02 -1.45658892E-08
  7.57761731E-08  3.52618064E-07  2.66967802E-07  6.19502752E-01 -3.91437734E-07
 -6.90007369E-07 -5.81260762E-07 -7.52633129E-01 -1.13610328E-05 -1.74690743E-06
  1.42974390E-06  3.89675788E-01 -1.69137955E-08 -2.09117506E-08  2.04486930E-08
 -2.13778656E-09  3.97319163E-02 -2.25403400E-02 -1.19271786E-07  2.36747987E-07
  1.23108447E-07 -2.46874806E-07  1.21236638E-09 -1.19544173E-07 -1.16750464E-07
  4.01040562E-07  1.42307630E-07 -4.80911934E-07 -2.99065287E-08  1.25744615E-07
 -8.75505233E-03  2.87529569E-02  2.69002149E-01 -4.72791562E-01 -2.14003637E-07
 -2.45280498E-01 -5.32216092E-01  9.99156011E-01  2.68513084E-07 -2.30794809E+00
 -5.64266601E-01 -1.85034938E-01 -7.62371372E-08 -1.57233020E-02 -8.35740324E-03
  1.21093631E-02  1.43886587E-02 -1.08912701E-08 -2.49992340E-08  4.40106096E-02
 -1.44541213E-01 -2.03887746E-01 -2.27060810E-01  1.35506608E-07  1.23302979E+00
  4.09998302E-01  3.15169476E-01 -1.32997113E-07  1.16017203E+01  3.06509915E-01
  2.95108408E+00  2.87853764E-10  9.56786185E-02  2.53723010E-02 -6.08722031E-02
 -3.60212491E-03  1.86900358E-08  1.03062201E-08 -3.52555080E-02  1.15785654E-01
 -3.69643637E-01 -1.79254668E-01  4.38710445E-07 -9.87746673E-01  6.67220801E-01
  4.47953680E-01 -5.63848071E-07 -9.29377220E+00  1.95957704E+00 -1.34557039E+00
  3.35429783E-07 -4.62426806E-02 -5.07280346E-02  4.87631732E-02 -3.34417864E-02
 -2.47116098E-08  1.90313391E-08 -8.75505233E-03  2.87529568E-02 -2.69002149E-01
  4.72791562E-01  2.09358013E-07 -2.45280498E-01  5.32216091E-01 -9.99156011E-01
 -2.67940599E-07 -2.30794809E+00  5.64266601E-01  1.85034940E-01  1.46692551E-07
 -1.57233020E-02 -8.35740324E-03  1.21093631E-02  1.43886587E-02 -6.60850466E-09
 -2.22690208E-08  4.40106096E-02 -1.44541213E-01  2.03887746E-01  2.27060810E-01
 -2.67243756E-07  1.23302979E+00 -4.09998302E-01 -3.15169476E-01  3.70332410E-07
  1.16017203E+01 -3.06509916E-01 -2.95108408E+00 -2.38552630E-07  9.56786185E-02
  2.53723010E-02 -6.08722031E-02 -3.60212490E-03  1.50396842E-08  1.34536877E-08
 -3.52555080E-02  1.15785654E-01  3.69643637E-01  1.79254668E-01 -3.36836796E-07
 -9.87746673E-01 -6.67220801E-01 -4.47953680E-01  3.65845228E-07 -9.29377220E+00
 -1.95957704E+00  1.34557039E+00 -1.66143742E-07 -4.62426806E-02 -5.07280346E-02
  4.87631732E-02 -3.34417864E-02 -2.18884867E-08  1.77326280E-08 -3.10346063E-02
  7.56087638E-02  1.56016860E-01 -3.80096905E-01 -1.24981905E-01  3.04489105E-01
 -3.10346063E-02  7.56087639E-02  1.56016860E-01 -3.80096905E-01 -1.24981905E-01
  3.04489105E-01  4.57651137E-02 -1.50296932E-01 -1.89470878E-01 -2.00177062E-01
  1.11403993E-06  1.28215678E+00  2.44590305E-01  3.48887220E-01 -1.39806914E-06
  1.20643885E+01  2.80241813E+00  1.29027598E+00  3.95543824E-07  3.73977408E-02
  8.84800771E-02 -6.32989550E-02 -3.02043078E-02  9.75786559E-08  4.06258878E-08
 -1.52999909E-02  5.02535975E-02 -5.10381933E-01  1.35056051E-01  5.68530520E-07
 -4.28670585E-01  1.06982167E+00 -2.26624765E-01 -6.52796723E-07 -4.03344671E+00
 -3.69409047E-02 -1.03268780E+00  4.47599384E-07 -3.10033629E-02 -1.10797830E-02
  2.11618881E-02  1.46396738E-02 -4.42274465E-08  5.01108510E-08 -3.04645960E-02
  1.00055347E-01  1.04072315E-01  4.38476742E-01 -3.78891986E-07 -8.53508003E-01
 -3.06701515E-01 -8.50493531E-01  4.14287531E-07 -8.03093861E+00  1.64230734E+00
 -1.23412661E+00 -1.97109218E-07 -2.60137169E-02 -5.77788337E-02  4.21359908E-02
 -2.33627379E-02  7.97338412E-09 -5.44898265E-08  4.57651137E-02 -1.50296932E-01
  1.89470878E-01  2.00177062E-01 -1.08979284E-06  1.28215678E+00 -2.44590306E-01
 -3.48887221E-01  1.39498431E-06  1.20643885E+01 -2.80241812E+00 -1.29027598E+00
 -7.63902490E-07  3.73977408E-02  8.84800771E-02 -6.32989550E-02 -3.02043078E-02
  7.35655464E-08  2.98398689E-08 -1.52999909E-02  5.02535974E-02  5.10381933E-01
 -1.35056051E-01 -5.13084620E-07 -4.28670585E-01 -1.06982167E+00  2.26624766E-01
  5.91906786E-07 -4.03344665E+00  3.69409017E-02  1.03268779E+00 -3.06328702E-07
 -3.10033628E-02 -1.10797830E-02  2.11618881E-02  1.46396738E-02 -3.26623713E-08
  5.02574690E-08 -3.04645960E-02  1.00055347E-01 -1.04072315E-01 -4.38476742E-01
  4.78867750E-07 -8.53508002E-01  3.06701516E-01  8.50493529E-01 -5.58170528E-07
 -8.03093867E+00 -1.64230735E+00  1.23412662E+00  4.16174022E-07 -2.60137169E-02
 -5.77788336E-02  4.21359908E-02 -2.33627379E-02  8.04454776E-10 -6.42838337E-08
  1.62239103E-01 -3.95250358E-01 -5.42373670E-02  1.32142111E-01 -1.07993342E-01
  2.63114187E-01  1.62239103E-01 -3.95250357E-01 -5.42373670E-02  1.32142110E-01
 -1.07993342E-01  2.63114188E-01 -1.24051952E-08 -8.96449950E-08  5.20916690E-07
  2.39232915E-07 -6.28133751E-01 -1.46666897E-06 -1.51450310E-06 -6.92188577E-07
  1.19605720E+00 -2.61024132E-05 -4.72425549E-06 -2.17759858E-06 -1.09241800E+00
 -2.25264509E-08 -8.39428282E-08  2.75313128E-08  4.18075990E-08 -1.74194619E-02
 -4.87597167E-03 -2.12689806E-09 -2.39576585E-07  1.95088779E-07 -2.97990497E-07
  2.16812040E-01  8.78293331E-07 -6.42679855E-07  1.01703778E-06 -4.12839942E-01
  2.65819671E-05  1.25885722E-06  4.54322994E-06  3.77064422E-01 -2.32893101E-08
  2.55364828E-08 -1.03576917E-08 -4.65353908E-08  1.53913208E-02  4.71177317E-03
 -1.10752290E-08  1.42656772E-08  9.47186391E-08  2.49109104E-07  4.11325941E-01
 -1.80711369E-07 -2.50392823E-07 -5.97848951E-07 -7.83221454E-01 -2.31879773E-05
  4.11231556E-06 -1.19226385E-06  7.15354971E-01 -1.23415835E-08 -1.01776641E-08
  9.26644276E-09  1.41673251E-08 -1.65469459E-02 -3.03786181E-03  3.21489879E-08
 -7.29905715E-08  1.48317871E-07  5.05048974E-08 -6.28133751E-01  7.22650732E-07
 -1.05874287E-07  3.72975173E-09  1.19605720E+00  1.87021921E-05 -3.66817053E-06
 -1.75698628E-06 -1.09241800E+00  3.14616765E-08  3.90870914E-08 -3.79007718E-08
 -6.39307456E-09  1.74194619E-02  4.87597167E-03 -1.33150512E-08  1.54896734E-08
  2.46239934E-07 -9.94635904E-08  2.16812040E-01 -2.50014091E-07 -6.24475189E-07
  2.18371276E-07 -4.12839942E-01 -2.34191285E-05  1.91834742E-06  3.98218979E-06
  3.77064422E-01 -4.52876890E-09 -2.52742968E-08  1.27769789E-08  8.81347850E-10
 -1.53913208E-02 -4.71177317E-03 -1.72623430E-09 -2.47838708E-07 -1.16685740E-07
  3.28649295E-07  4.11325941E-01  9.02694081E-07  3.84446875E-07 -1.12418219E-06
 -7.83221454E-01  2.70860312E-05  4.32076890E-06 -2.08521509E-06  7.15354971E-01
 -3.47245482E-08  3.75241810E-08 -1.11359909E-08 -3.38891922E-08  1.65469459E-02
  3.03786181E-03 -1.51273711E-07  1.73041154E-07 -8.09210233E-08  1.64871111E-07
  2.38695336E-09  1.84324404E-07  1.34129316E-07 -3.70729567E-07 -7.85336978E-09
  2.03381581E-07 -7.97381981E-08  1.59850137E-07  2.21277138E-09  1.59667698E-08
 -9.75057414E-08 -3.32207567E-08  1.12304178E-01  2.62093482E-07  2.75985705E-07
  1.12281208E-07 -2.13842468E-01  4.66954047E-06  9.22356574E-07  2.19272056E-07
  1.95312636E-01  1.39284146E-09  1.76169007E-08 -4.91220987E-09 -4.83896370E-09
 -3.54073823E-03  1.54862891E-02 -7.75063415E-10  6.67573593E-08  3.37708707E-08
  6.99319943E-08 -6.00129974E-01 -2.27483023E-07 -2.12358957E-08 -2.13247189E-07
  1.14273418E+00 -6.20796225E-06 -1.87096548E-07 -1.06332016E-06 -1.04372006E+00
  2.40473161E-09 -4.38679042E-09  4.09423297E-09  6.76361479E-09  3.70494816E-03
 -1.75141018E-02  8.46640864E-09 -6.02408311E-09  6.42443534E-09 -5.02426949E-08
  4.87830388E-01  2.32842632E-07  2.98488650E-08  1.54767717E-07 -9.28897002E-01
  4.81611056E-06 -1.14150511E-06  1.82899530E-07  8.48409514E-01  1.15613875E-08
  1.35665932E-08 -1.18190138E-08  3.77935118E-09 -5.38038110E-03  1.63581605E-02
 -5.73733466E-09  1.30628953E-08  1.08114105E-08 -9.09513829E-08  1.12304178E-01
 -1.28841860E-07 -9.46845459E-08  2.48680009E-07 -2.13842468E-01 -3.34407497E-06
  8.22225968E-07 -5.20215574E-08  1.95312636E-01 -2.28239600E-09 -1.02926150E-08
  6.76000123E-09 -2.20784867E-09  3.54073823E-03 -1.54862891E-02 -4.10147148E-09
  7.37685208E-10 -5.47950551E-08 -3.63593825E-09 -6.00129974E-01 -1.55793366E-07
  8.45422915E-08  3.83790659E-09  1.14273418E+00  3.51474038E-06 -5.20711918E-08
 -4.25375106E-07 -1.04372006E+00 -1.53066700E-08 -4.50355500E-10  7.87327057E-09
  3.52188153E-10 -3.70494816E-03  1.75141018E-02  1.45179603E-09  2.03304624E-08
 -3.66932882E-08 -9.95062521E-08  4.87830388E-01 -9.11181043E-08  4.41074204E-08
  2.82615744E-07 -9.28897002E-01 -3.38770674E-06 -6.07549758E-07  1.80854084E-07
  8.48409514E-01  8.16805171E-09 -7.13204872E-09 -2.34039000E-10  7.37033478E-09
  5.38038110E-03 -1.63581605E-02  2.69991285E-08 -3.09231345E-08  1.10722766E-08
 -1.48468410E-08  2.92317130E-08 -8.81968480E-08 -2.39273885E-08  6.61913566E-08
 -2.82309211E-08  1.88103015E-08  1.75781703E-08 -4.30461290E-08 -3.98640446E-02
 -1.94202600E-01  2.87623807E-02 -9.46005640E-02 -3.52658791E-08 -1.05648673E+00
 -1.13798177E-01  3.07397794E-01  1.91595259E-07  6.08279504E+00 -1.55506411E-01
 -8.22394761E-01 -3.02978265E-07 -6.75371967E-02 -8.46984002E-02  6.54498668E-02
  2.31796725E-02 -5.78421106E-08 -2.67840107E-08 -1.41605692E-02 -6.89939615E-02
  5.53873481E-01 -5.81302536E-02  1.31970035E-07 -3.75363939E-01 -1.84805093E+00
  1.86892596E-01 -4.30221581E-07  2.16154665E+00  3.85172140E+00 -5.43931392E-01
  7.03712699E-07 -4.15728665E-02 -1.25087294E-02  2.32511625E-02 -4.15406979E-02
  1.36758244E-08 -1.73927139E-08  2.57000218E-02  1.25212775E-01  2.59725186E-01
  3.78397065E-01 -4.30507668E-07  6.81211330E-01 -8.76635211E-01 -1.25470358E+00
  1.01394732E-06 -3.92256515E+00  1.60715035E+00  2.78703778E+00 -1.31216773E-06
  7.44038807E-02  2.37467581E-02 -4.21972607E-02  2.64085643E-02 -5.64450932E-10
 -3.13347842E-09  3.98640446E-02  1.94202600E-01  2.87623806E-02 -9.46005640E-02
  5.19771527E-07  1.05648673E+00 -1.13798177E-01  3.07397794E-01 -1.23793570E-06
 -6.08279504E+00 -1.55506414E-01 -8.22394752E-01  1.55061349E-06  6.75371967E-02
  8.46984002E-02 -6.54498668E-02 -2.31796725E-02 -7.95158545E-09 -3.57652173E-09
  1.41605692E-02  6.89939615E-02  5.53873481E-01 -5.81302536E-02 -4.21425623E-07
  3.75363939E-01 -1.84805093E+00  1.86892596E-01  9.94005701E-07 -2.16154665E+00
  3.85172139E+00 -5.43931391E-01 -1.29323071E-06  4.15728665E-02  1.25087294E-02
 -2.32511625E-02  4.15406979E-02 -2.54049230E-09  1.45790712E-09 -2.57000218E-02
 -1.25212775E-01  2.59725186E-01  3.78397065E-01  1.15510096E-07 -6.81211329E-01
 -8.76635211E-01 -1.25470358E+00 -4.01066313E-07  3.92256516E+00  1.60715034E+00
  2.78703777E+00  6.80099647E-07 -7.44038807E-02 -2.37467581E-02  4.21972607E-02
 -2.64085643E-02 -4.64945017E-09  2.21727767E-08 -2.74935764E-01  4.21505251E-01
 -9.76703187E-02  1.49711996E-01  1.77260801E-01 -2.71735685E-01  2.74935764E-01
 -4.21505251E-01  9.76703187E-02 -1.49711996E-01 -1.77260801E-01  2.71735685E-01
 -6.66281054E-03 -3.24555424E-02 -2.45045448E-01  5.32816218E-01 -5.82608352E-09
 -1.76555999E-01  8.14352372E-01 -1.77848670E+00  3.19063456E-08  1.01656022E+00
 -1.76951964E+00  3.69091190E+00 -5.04671892E-08  1.98192948E-02 -4.52622916E-02
  1.09388570E-02 -2.73819077E-02 -1.06836200E-08 -2.23998335E-09 -3.78530004E-02
 -1.84411371E-01 -2.08573590E-01  7.69960237E-03 -2.78738790E-08 -1.00329135E+00
  6.93863710E-01 -4.42967943E-02  1.64775137E-08  5.77671232E+00 -1.49108511E+00
 -3.16116419E-01  4.62625814E-08 -8.89195422E-02 -5.56416326E-02  6.21501965E-02
  2.05095317E-02  2.27623547E-09 -4.94350920E-09 -3.11921713E-02 -1.51954551E-01
  2.27955896E-01  3.01847032E-01 -4.45874280E-08 -8.26663797E-01 -7.47808192E-01
 -1.01569315E+00  1.09275287E-07  4.75951590E+00  1.83996629E+00  1.92845931E+00
 -1.62256163E-07 -2.98162703E-02 -8.93025922E-02  5.12120561E-02 -8.04401064E-03
 -1.02747092E-10  2.58771784E-10  6.66281053E-03  3.24555424E-02 -2.45045448E-01
  5.32816218E-01  8.69000607E-08  1.76555999E-01  8.14352372E-01 -1.77848670E+00
 -2.06963928E-07 -1.01656022E+00 -1.76951964E+00  3.69091190E+00  2.59199425E-07
 -1.98192948E-02  4.52622916E-02 -1.09388570E-02  2.73819077E-02 -1.23928335E-09
 -7.99881607E-10  3.78530004E-02  1.84411371E-01 -2.08573590E-01  7.69960241E-03
 -9.78483558E-08  1.00329135E+00  6.93863710E-01 -4.42967944E-02  2.26411652E-07
 -5.77671232E+00 -1.49108511E+00 -3.16116420E-01 -2.73219059E-07  8.89195422E-02
  5.56416326E-02 -6.21501965E-02 -2.05095317E-02 -1.00900305E-09  7.65747871E-10
  3.11921713E-02  1.51954551E-01  2.27955896E-01  3.01847032E-01  6.92201796E-08
  8.26663797E-01 -7.47808193E-01 -1.01569315E+00 -1.55359726E-07 -4.75951590E+00
  1.83996628E+00  1.92845931E+00  1.84853495E-07  2.98162703E-02  8.93025922E-02
 -5.12120561E-02  8.04401064E-03  7.63778651E-10  2.37391693E-09 -4.59520360E-02
  7.04591399E-02 -2.61072545E-01  4.00229154E-01 -2.15125034E-01  3.29820243E-01
  4.59520360E-02 -7.04591398E-02  2.61072545E-01 -4.00229155E-01  2.15125034E-01
 -3.29820243E-01  2.30759875E-08 -3.11748622E-07  3.21208296E-07  1.46305327E-07
 -4.47109520E-01 -1.52389126E-07 -2.03880456E-06 -9.28536526E-07  1.30956552E+00
 -2.87617534E-05 -3.49926522E-06 -1.60260664E-06 -2.02052497E+00 -1.00985129E-08
 -9.92223037E-09 -1.82804453E-08 -1.21305574E-10 -4.42867743E-03 -2.01686023E-03
 -1.44823752E-08 -5.00089884E-07 -4.24465395E-07 -3.17706034E-07  4.47115484E-01
  2.60515030E-06  1.55538685E-06  1.57498614E-06 -1.30957060E+00  1.87499674E-05
 -2.96625385E-06  4.45206751E-06  2.02052606E+00  9.44916737E-10 -1.12246233E-08
 -5.61917255E-09 -3.83805828E-09  4.67938829E-04  4.84422859E-03 -3.62777523E-08
 -5.04921029E-07 -1.12060333E-07 -1.93539187E-07 -4.47109166E-01 -1.15839175E-06
  1.38771060E-06  4.58525582E-07  1.30956346E+00 -1.68559472E-05  1.74868685E-06
 -4.54440487E-06 -2.02052090E+00 -1.31924247E-07 -7.46220587E-08  7.81497464E-08
 -1.21307037E-08  3.96131471E-03 -2.82683750E-03 -3.33683569E-08 -6.92706974E-07
  2.97617400E-07  1.35503072E-07  4.47109520E-01  8.82961295E-07 -9.07525073E-07
 -4.13229873E-07 -1.30956552E+00  2.35974483E-05 -3.00700981E-06 -1.35974452E-06
  2.02052497E+00 -7.51144515E-08 -8.24984665E-08  5.71281723E-08  4.89176980E-09
 -4.42867743E-03 -2.01686023E-03 -3.62765002E-08 -5.04918348E-07 -2.19497411E-07
  4.25046810E-08 -4.47115484E-01 -1.15838014E-06  1.25672930E-06  7.45854913E-07
  1.30957060E+00 -1.68563512E-05 -2.29763466E-06  4.30387295E-06 -2.02052606E+00
 -1.09721194E-07 -9.68180860E-08  7.81483331E-08 -3.44277449E-08  4.67938829E-04
  4.84422859E-03 -1.44819253E-08 -5.00082173E-07 -5.18250348E-07 -1.11608601E-07
  4.47109166E-01  2.60510774E-06  2.20904135E-06  1.39381658E-07 -1.30956346E+00
  1.87482277E-05  1.40149367E-06 -5.17375418E-06  2.02052090E+00 -9.27476878E-09
 -1.00119168E-09 -5.61951925E-09  6.42168130E-09  3.96131471E-03 -2.82683750E-03
 -2.01384741E-07 -3.82335611E-07 -1.84855301E-07  5.87091713E-07 -3.26771603E-07
  1.57240714E-07 -3.59190915E-07  6.19162462E-07 -3.26758096E-07  1.57206423E-07
 -1.84840173E-07  5.87051446E-07 -2.30116592E-02 -5.59426932E-01 -1.11475869E-01
 -5.07658969E-02  4.77855406E-07  7.31589329E-01  4.44416396E-02  2.02546175E-02
 -1.54889029E-06 -2.36946239E-01 -8.53852689E-02 -3.89981404E-02  2.20403653E-06
 -7.21682769E-02 -5.14469426E-02  4.46018508E-02 -1.37498180E-02 -8.28963352E-08
 -3.77534623E-08 -2.30112909E-02 -5.59420334E-01 -1.17783849E-02 -1.21918349E-01
 -4.31496221E-07  7.31550030E-01  4.68115077E-03  4.85846299E-02  1.37468629E-06
 -2.37093215E-01 -8.88735408E-03 -9.35000954E-02 -2.03340245E-06 -4.63171450E-02
 -7.72985235E-02  4.46019066E-02 -3.48709195E-03  2.17801677E-08 -3.55828209E-08
 -2.30121913E-02 -5.59426122E-01  9.97067349E-02 -7.11584880E-02  3.19477704E-07
  7.31586940E-01 -3.97950801E-02  2.83690882E-02 -1.10855182E-06 -2.37289265E-01
  7.65305179E-02 -5.44636061E-02  1.79544344E-06 -6.69389153E-02 -5.66769209E-02
  4.46019521E-02  1.72354562E-02 -1.04278078E-08 -5.85308575E-09 -2.30116592E-02
 -5.59426932E-01  1.11475869E-01  5.07658969E-02 -3.42088926E-07  7.31589329E-01
 -4.44416397E-02 -2.02546175E-02  1.07923251E-06 -2.36946243E-01  8.53852696E-02
  3.89981404E-02 -1.72613395E-06 -7.21682769E-02 -5.14469426E-02  4.46018508E-02
 -1.37498180E-02  7.82253783E-09  3.56188987E-09 -2.30112909E-02 -5.59420334E-01
  1.17783849E-02  1.21918349E-01  3.19489711E-07  7.31550030E-01 -4.68115077E-03
 -4.85846298E-02 -1.10858354E-06 -2.37093212E-01  8.88735438E-03  9.35000948E-02
  1.79551625E-06 -4.63171450E-02 -7.72985235E-02  4.46019066E-02 -3.48709195E-03
 -1.12601776E-08 -4.02335290E-09 -2.30121913E-02 -5.59426122E-01 -9.97067349E-02
  7.11584880E-02 -4.31526416E-07  7.31586940E-01  3.97950802E-02 -2.83690883E-02
  1.37474655E-06 -2.37289267E-01 -7.65305183E-02  5.44636065E-02 -2.03349906E-06
 -6.69389153E-02 -5.66769209E-02  4.46019521E-02  1.72354562E-02 -1.25467085E-08
  3.97886618E-08 -3.05157779E-01  2.31375061E-01 -3.05152698E-01  2.31358377E-01
 -3.05157918E-01  2.31403909E-01 -3.05157779E-01  2.31375061E-01 -3.05152698E-01
  2.31358377E-01 -3.05157918E-01  2.31403909E-01  1.89269811E-02 -1.71150769E-02
  4.53621026E-01  2.06587526E-01  7.56114209E-07 -3.26915172E+00 -3.77033145E+00
 -1.71708546E+00 -2.33227952E-06 -1.13887115E+01 -2.58308655E+00 -1.17626544E+00
 -7.56445950E-07 -3.79856571E-02 -4.90476473E-02  1.35728985E-02  7.33663815E-03
 -1.05027366E-07 -4.78292367E-08 -1.89266957E-02  1.71175801E-02 -4.79057832E-02
 -4.96133418E-01 -1.72219577E-07  3.26914766E+00  3.98161699E-01  4.12370183E+00
  9.52173479E-07  1.13890059E+01  2.72775522E-01  2.82514593E+00  2.50438454E-07
  5.17843085E-02  3.52496779E-02 -1.35734720E-02 -1.86154784E-03  2.02689659E-09
 -1.01898954E-07  1.89273050E-02 -1.71147401E-02 -4.05720608E-01  2.89559751E-01
 -2.93190283E-08 -3.26914846E+00  3.37219903E+00 -2.40668419E+00 -2.69666079E-07
 -1.13886889E+01  2.31033662E+00 -1.64872084E+00 -6.32657962E-09 -4.07772388E-02
 -4.62553948E-02  1.35724597E-02 -9.19904220E-03  3.09985993E-08 -4.76109526E-08
 -1.89269811E-02  1.71150769E-02  4.53621026E-01  2.06587526E-01 -1.49577591E-07
  3.26915172E+00 -3.77033145E+00 -1.71708546E+00  4.11114905E-07  1.13887115E+01
 -2.58308656E+00 -1.17626543E+00 -3.04617682E-08  3.79856571E-02  4.90476473E-02
 -1.35728985E-02 -7.33663816E-03  4.69215903E-08  2.13795184E-08  1.89266957E-02
 -1.71175801E-02 -4.79057831E-02 -4.96133418E-01 -2.92989331E-08 -3.26914766E+00
  3.98161698E-01  4.12370183E+00 -2.69691629E-07 -1.13890059E+01  2.72775514E-01
  2.82514593E+00 -6.29844953E-09 -5.17843085E-02 -3.52496779E-02  1.35734720E-02
  1.86154785E-03 -1.55628482E-08  5.46313568E-08 -1.89273050E-02  1.71147401E-02
 -4.05720608E-01  2.89559751E-01 -1.72212345E-07  3.26914846E+00  3.37219903E+00
 -2.40668419E+00  9.52165753E-07  1.13886889E+01  2.31033661E+00 -1.64872085E+00
  2.50424998E-07  4.07772388E-02  4.62553948E-02 -1.35724597E-02  9.19904221E-03
 -7.55391392E-08  6.84184754E-08  1.32898135E-01 -2.13717176E+00 -1.32894846E-01
  2.13713697E+00  1.32900062E-01 -2.13718415E+00 -1.32898135E-01  2.13717176E+00
  1.32894846E-01 -2.13713697E+00 -1.32900062E-01  2.13718415E+00  5.23064308E-03
 -2.08429496E-02  5.38526234E-02  1.03023344E-01  9.71279793E-08 -7.88770656E-02
 -4.75071396E-01 -9.59026369E-02 -2.94032563E-07  1.25657751E-01  2.50182444E-01
 -1.06737163E+00 -2.57210677E-07 -3.74822886E-02  3.86113471E-02 -6.61697300E-03
  5.11155815E-02 -5.66331744E-09 -1.64664743E-09 -3.17062322E-02  1.26305698E-01
 -2.74663846E-02 -5.55853037E-01 -1.11401285E-08  4.78300618E-01  3.14897395E-01
  2.84461565E+00  8.98428922E-08 -7.61096951E-01 -2.65575415E-01  1.33318284E+00
  1.45336427E-07  5.06993914E-02 -5.75435063E-02  4.01101048E-02  1.26317542E-02
 -2.64105793E-09 -1.42006809E-08  2.64755093E-02 -1.05486473E-01 -3.51512829E-01
  3.06580130E-01 -1.10593657E-08 -3.99362972E-01  1.98553523E+00 -1.33150498E+00
 -5.03513024E-09  6.35436204E-01  4.88179981E-01 -1.18681608E+00 -7.55317262E-08
 -1.79689568E-02  2.36814834E-02 -3.34929790E-02 -6.02965977E-02  7.01336023E-09
 -7.37782357E-09  5.23064309E-03 -2.08429496E-02 -5.38526234E-02 -1.03023344E-01
 -1.21052701E-08 -7.88770656E-02  4.75071396E-01  9.59026368E-02  2.74171291E-08
  1.25657760E-01 -2.50182446E-01  1.06737163E+00  6.42613718E-08 -3.74822886E-02
  3.86113471E-02 -6.61697300E-03  5.11155815E-02  7.45545333E-09  3.50529407E-09
 -3.17062322E-02  1.26305698E-01  2.74663846E-02  5.55853037E-01 -9.78543979E-09
  4.78300618E-01 -3.14897395E-01 -2.84461565E+00 -7.37744641E-09 -7.61096960E-01
  2.65575415E-01 -1.33318284E+00 -7.57600427E-08  5.06993914E-02 -5.75435063E-02
  4.01101048E-02  1.26317542E-02 -7.69532768E-10  9.74708962E-09  2.64755092E-02
 -1.05486473E-01  3.51512829E-01 -3.06580130E-01 -1.18097738E-08 -3.99362971E-01
 -1.98553523E+00  1.33150498E+00  9.18160967E-08  6.35436213E-01 -4.88179980E-01
  1.18681608E+00  1.46598306E-07 -1.79689568E-02  2.36814834E-02 -3.34929790E-02
 -6.02965977E-02 -1.20536353E-08  6.61695836E-09  6.10288613E-02 -3.89622161E-01
 -3.69949631E-01  2.36173967E+00  3.08917721E-01 -1.97215437E+00  6.10288613E-02
 -3.89622161E-01 -3.69949631E-01  2.36173967E+00  3.08917721E-01 -1.97215437E+00
 -3.35910299E-02  1.33826330E-01 -5.40620260E-01 -2.33984023E-01 -6.23739243E-07
  5.06720841E-01  2.75214369E+00  1.27212661E+00  1.88821291E-06 -8.06388103E-01
  1.32424677E+00  4.19146951E-01  1.65194196E-06 -4.58998252E-02  3.86503312E-02
  4.24948961E-02 -4.02760506E-02  3.40541448E-08  1.56549761E-08  1.22658437E-02
 -4.88676483E-02  8.77829392E-02  2.07590422E-01  7.37305462E-08 -1.85037891E-01
 -3.38618115E-03 -1.11192326E+00 -5.83395387E-07  2.94354191E-01 -1.05843560E+00
 -4.03655578E-01 -9.37621519E-07 -7.62212992E-03  1.02692190E-02 -1.55168120E-02
  6.61530853E-02  1.78854182E-08  8.86840452E-08  2.13252387E-02 -8.49542362E-02
 -3.37056484E-01  1.71376973E-01  6.68990642E-08 -3.21698645E-01  1.51650126E+00
 -1.18845892E+00  3.99136099E-08  5.12032592E-01  1.20470809E+00  1.81141292E-01
  4.85956420E-07  5.65121876E-02 -5.19085398E-02 -2.69776215E-02 -2.03896311E-02
 -4.44969676E-08  4.60735412E-08 -3.35910299E-02  1.33826330E-01  5.40620260E-01
  2.33984023E-01  7.77112667E-08  5.06720841E-01 -2.75214369E+00 -1.27212661E+00
 -1.75975246E-07 -8.06388102E-01 -1.32424677E+00 -4.19146951E-01 -4.12821009E-07
 -4.58998252E-02  3.86503312E-02  4.24948961E-02 -4.02760506E-02 -4.81445472E-08
 -2.19123317E-08  1.22658437E-02 -4.88676483E-02 -8.77829392E-02 -2.07590422E-01
  6.70899740E-08 -1.85037891E-01  3.38618127E-03  1.11192326E+00  3.95543365E-08
  2.94354190E-01  1.05843560E+00  4.03655578E-01  4.85911022E-07 -7.62212992E-03
  1.02692190E-02 -1.55168120E-02  6.61530853E-02  5.57441263E-09 -6.38717346E-08
  2.13252387E-02 -8.49542362E-02  3.37056484E-01 -1.71376973E-01  7.36195494E-08
 -3.21698645E-01 -1.51650125E+00  1.18845892E+00 -5.83076987E-07  5.12032593E-01
 -1.20470809E+00 -1.81141292E-01 -9.37422465E-07  5.65121876E-02 -5.19085398E-02
 -2.69776215E-02 -2.03896311E-02  7.87032627E-08 -4.48336294E-08 -3.91944788E-01
  2.50218251E+00  1.43117449E-01 -9.13673042E-01  2.48824071E-01 -1.58849311E+00
 -3.91944788E-01  2.50218251E+00  1.43117449E-01 -9.13673042E-01  2.48824070E-01
 -1.58849311E+00  2.48041119E-02 -7.96448393E-02  4.06146158E-01  2.41722151E-01
  3.49848760E-07 -6.67825967E-02 -1.06150670E+00 -8.73940623E-01 -9.83974586E-07
  1.15457016E+01 -1.37443240E+00  1.77201562E+00 -1.40797725E-06  1.36288686E-01
 -5.27035610E-02 -7.21905946E-02  1.03380387E-01  4.46326682E-08  2.16444942E-08
  1.95040119E-02 -6.26267568E-02  1.44480692E-01  3.57179610E-01 -1.65423952E-08
 -5.24893006E-02 -8.50213124E-01 -9.67198233E-01  2.12925659E-07  9.07879424E+00
  4.56503035E+00 -8.48617359E-01  8.65923794E-07 -7.22109696E-02  1.37935706E-01
 -5.67645351E-02 -7.55513938E-03 -2.81795541E-08 -3.94295069E-08 -5.30069988E-03
  1.70247591E-02  1.75327252E-01  7.28374158E-02 -4.60779794E-08  1.42631373E-02
 -8.75113572E-01 -7.37561875E-01  5.67597761E-08 -2.46737098E+00  3.86490219E+00
  5.60533833E+00 -4.88089247E-07  1.89848716E-02 -3.68475295E-02  1.54278146E-02
  4.48909573E-02  3.69397377E-08 -2.58501033E-08 -2.48041119E-02  7.96448395E-02
  4.06146158E-01  2.41722151E-01 -2.12068776E-08  6.67825960E-02 -1.06150670E+00
 -8.73940616E-01  1.75838938E-08 -1.15457016E+01 -1.37443239E+00  1.77201560E+00
  4.27608270E-07 -1.36288686E-01  5.27035609E-02  7.21905946E-02 -1.03380387E-01
  2.98653709E-08  1.38373142E-08 -1.95040119E-02  6.26267567E-02  1.44480693E-01
  3.57179610E-01 -4.65682231E-08  5.24893007E-02 -8.50213130E-01 -9.67198232E-01
  5.88304808E-08 -9.07879424E+00  4.56503037E+00 -8.48617361E-01 -4.88722617E-07
  7.22109696E-02 -1.37935706E-01  5.67645351E-02  7.55513947E-03  5.19411001E-09
  4.48463258E-08  5.30069987E-03 -1.70247592E-02  1.75327253E-01  7.28374165E-02
 -1.46911857E-08 -1.42631367E-02 -8.75113576E-01 -7.37561881E-01  2.08549511E-07
  2.46737098E+00  3.86490220E+00  5.60533834E+00  8.67101124E-07 -1.89848717E-02
  3.68475295E-02 -1.54278147E-02 -4.48909573E-02 -4.83033926E-08  4.18691555E-09
  4.20246380E-01 -1.74910343E+00  3.30443933E-01 -1.37534877E+00 -8.98121799E-02
  3.73798270E-01 -4.20246380E-01  1.74910343E+00 -3.30443933E-01  1.37534877E+00
  8.98121799E-02 -3.73798270E-01 -8.20031621E-03  2.63284244E-02 -2.06106914E-01
  7.78215855E-02 -1.15667698E-07  2.21002036E-02  8.45207163E-01 -7.96349147E-01
  3.25329107E-07 -3.81715478E+00 -2.58050730E+00  6.07812173E+00  4.65442649E-07
 -1.33791801E-02 -1.42538851E-02  2.38661811E-02 -6.60052441E-02 -1.64229518E-08
 -3.48962659E-09  1.73813226E-02 -5.58122201E-02 -9.06498718E-02  3.39500875E-01
  2.37167177E-09 -4.67832671E-02  7.51948214E-01 -1.00773191E+00 -6.30802946E-08
  8.09053920E+00 -5.20121711E+00  1.38639650E-01 -2.88207413E-07 -5.41366162E-02
  1.12707957E-01 -5.05867820E-02  5.37918546E-02  9.93556622E-09  1.26292443E-08
  2.55809095E-02 -8.21330058E-02 -3.74989549E-01  3.08641595E-01  1.60496629E-08
 -6.88494674E-02  9.81569163E-01 -9.82751062E-01 -2.22157933E-08  1.19077553E+01
  1.25284505E+00  8.38814105E-01  1.62382425E-07  9.41923094E-02 -7.98771675E-03
 -7.44517959E-02 -1.42882799E-01 -1.27158821E-08  7.99622422E-09  8.20031621E-03
 -2.63284243E-02 -2.06106914E-01  7.78215858E-02  7.02403679E-09 -2.21002037E-02
  8.45207164E-01 -7.96349149E-01 -5.84790964E-09  3.81715478E+00 -2.58050730E+00
  6.07812174E+00 -1.41316455E-07  1.33791801E-02  1.42538852E-02 -2.38661811E-02
  6.60052441E-02 -1.01726469E-08 -3.93504298E-09 -1.73813226E-02  5.58122200E-02
 -9.06498722E-02  3.39500875E-01  1.45589402E-08  4.67832675E-02  7.51948217E-01
 -1.00773191E+00 -1.59439222E-08 -8.09053920E+00 -5.20121712E+00  1.38639651E-01
  1.60463769E-07  5.41366162E-02 -1.12707957E-01  5.05867820E-02 -5.37918547E-02
 -9.72256553E-10 -1.48087367E-08 -2.55809095E-02  8.21330058E-02 -3.74989549E-01
  3.08641595E-01  7.96198168E-09  6.88494673E-02  9.81569165E-01 -9.82751059E-01
 -7.62997573E-08 -1.19077553E+01  1.25284505E+00  8.38814099E-01 -2.84660617E-07
 -9.41923094E-02  7.98771672E-03  7.44517959E-02  1.42882799E-01  1.58708931E-08
 -2.11977743E-09 -1.38932474E-01  5.78261675E-01  2.94479457E-01 -1.22568883E+00
  4.33402632E-01 -1.80388320E+00  1.38932474E-01 -5.78261675E-01 -2.94479457E-01
  1.22568883E+00 -4.33402632E-01  1.80388320E+00 -3.40213449E-07 -8.27175357E-06
  2.12023180E-01 -4.65549825E-01 -1.07884336E-12  7.41915465E-06 -1.91847201E+00
  4.21250864E+00  1.25498527E-11  1.74040328E-04  8.04771628E+00 -1.76709864E+01
 -5.45429244E-11 -4.70844587E-02  4.70827154E-02  4.76040198E-07  4.73090375E-02
  1.61460471E-09 -3.55551698E-09  2.73939223E-07  1.23508047E-06  5.09187733E-01
 -4.91646251E-02  4.59954361E-09  4.16632900E-05 -4.60736291E+00  4.44855510E-01
 -9.70484704E-09 -3.02712892E-04  1.93273741E+01 -1.86602543E+00  1.60699416E-09
 -1.19390599E-02  1.19408544E-02 -4.29873709E-07 -7.07359360E-02 -1.40709158E-10
  7.88124638E-10 -4.87684295E-07 -7.21231347E-06  2.97163419E-01  4.16390500E-01
 -2.24423957E-09 -1.67742526E-05 -2.68889794E+00 -3.76767540E+00  5.70982812E-09
  1.29102088E-04  1.12796744E+01  1.58048721E+01 -1.04718648E-09  5.90222999E-02
 -5.90249533E-02  5.76916959E-07  2.34270313E-02  3.83400804E-10  1.72365245E-10
 -3.40248426E-07 -8.27153927E-06 -2.12023179E-01  4.65549825E-01  6.22234951E-11
  7.41901534E-06  1.91847201E+00 -4.21250864E+00 -1.26363156E-10  1.74056965E-04
 -8.04771629E+00  1.76709864E+01  1.44164342E-10 -4.70844589E-02  4.70827155E-02
  4.76160375E-07  4.73090372E-02  1.65153776E-10 -3.77108867E-10  2.73926076E-07
  1.23542135E-06 -5.09187732E-01  4.91646253E-02  2.22953561E-09  4.16623887E-05
  4.60736290E+00 -4.44855510E-01 -5.60210781E-09 -3.02764534E-04 -1.93273741E+01
  1.86602543E+00  8.53605530E-10 -1.19390598E-02  1.19408543E-02 -4.29828102E-07
 -7.07359360E-02 -3.83327483E-10 -1.72852723E-10 -4.87657414E-07 -7.21246794E-06
 -2.97163419E-01 -4.16390500E-01 -4.59093677E-09 -1.67741650E-05  2.68889794E+00
  3.76767540E+00  9.65702923E-09  1.29158944E-04 -1.12796744E+01 -1.58048721E+01
 -1.48825306E-09  5.90222999E-02 -5.90249532E-02  5.76846811E-07  2.34270311E-02
 -5.01844299E-10  6.29608747E-10 -1.14591276E-06 -1.18988242E-05  2.71045097E-06
  2.23973416E-06  7.17797971E-07 -1.49022357E-05 -1.14675766E-06 -1.18956928E-05
  2.71033524E-06  2.24117833E-06  7.18066447E-07 -1.49040458E-05 -1.28411910E-02
 -5.11134161E-01  2.88270049E-01  1.31285147E-01  1.81949342E-07  1.25551930E+00
 -5.17216074E-01 -2.35583791E-01 -5.63565420E-07  6.71238648E-02 -2.14724078E-01
 -9.74626908E-02 -1.02762083E-06  3.89388315E-02 -7.53403511E-02 -2.04642032E-02
  7.58219119E-02  3.02920776E-08  1.37967415E-08 -1.28411968E-02 -5.11137661E-01
  3.04386151E-02  3.15301914E-01 -3.33411490E-09  1.25553195E+00 -5.45830324E-02
 -5.65747351E-01  1.07692274E-07  6.71139288E-02 -2.29574148E-02 -2.34724501E-01
  6.32181246E-07 -1.03637852E-01  6.72358036E-02 -2.04648230E-02  1.92299294E-02
 -2.08020333E-08 -3.20856067E-08 -1.28412268E-02 -5.11127450E-01 -2.57833629E-01
  1.84010036E-01 -2.52670480E-08  1.25549339E+00  4.62647499E-01 -3.30139060E-01
  4.28601643E-08  6.70235582E-02  1.91812168E-01 -1.37226425E-01 -3.50336413E-07
  1.00948747E-02 -4.64975127E-02 -2.04636260E-02 -9.50511315E-02  2.98888862E-08
 -1.92480977E-08 -1.28411910E-02 -5.11134161E-01 -2.88270049E-01 -1.31285147E-01
 -8.60929852E-09  1.25551930E+00  5.17216074E-01  2.35583791E-01  1.10931176E-09
  6.71238613E-02  2.14724079E-01  9.74626904E-02  3.07007347E-07  3.89388315E-02
 -7.53403511E-02 -2.04642032E-02  7.58219119E-02  2.33174564E-08  1.06177925E-08
 -1.28411968E-02 -5.11137661E-01 -3.04386151E-02 -3.15301914E-01 -2.52691719E-08
  1.25553195E+00  5.45830324E-02  5.65747351E-01  4.28650498E-08  6.71139328E-02
  2.29574152E-02  2.34724500E-01 -3.50334124E-07 -1.03637852E-01  6.72358036E-02
 -2.04648230E-02  1.92299294E-02  5.09916172E-09  3.51849252E-08 -1.28412268E-02
 -5.11127450E-01  2.57833629E-01 -1.84010036E-01 -3.33508912E-09  1.25549339E+00
 -4.62647500E-01  3.30139060E-01  1.07690481E-07  6.70235562E-02 -1.91812168E-01
  1.37226425E-01  6.32177669E-07  1.00948747E-02 -4.64975127E-02 -2.04636260E-02
 -9.50511315E-02 -3.78604495E-08  5.36960597E-09  2.80045953E-01 -1.16518390E+00
  2.80052178E-01 -1.16521646E+00  2.80045185E-01 -1.16518729E+00  2.80045953E-01
 -1.16518390E+00  2.80052178E-01 -1.16521646E+00  2.80045185E-01 -1.16518729E+00
  3.59038880E-02  1.18045666E+00 -8.68132179E-02 -5.81701527E-02 -9.16261555E-08
 -3.69904869E+00  1.48906589E-01  2.09924872E-01  4.15616959E-07  8.04986157E+00
  1.10150862E+00  2.60971237E-01  5.04994020E-07  1.12580162E-01  8.53306268E-02
 -6.05318679E-02  2.44876652E-02  7.98505642E-08  3.64358736E-08  1.59234240E-02
  5.23507984E-01  2.28066499E-01 -6.79723753E-02  6.56424175E-09 -1.64050374E+00
 -1.76407007E+00  2.69490549E-01 -1.43827356E-07  3.57033288E+00  3.05089874E+00
  2.00307771E-01 -2.80028501E-07  2.34310566E-02  6.43396473E-02 -2.68457703E-02
 -5.43960705E-02 -9.80409495E-09  5.81594470E-08 -1.99810752E-02 -6.56945972E-01
  7.91150627E-02  2.09623181E-01  1.40915831E-08  2.05850620E+00 -8.59168161E-01
 -1.41697225E+00  1.90925106E-08 -4.47991389E+00  2.12880042E+00  1.91880062E+00
  1.34964282E-07 -1.55990154E-02 -9.45427839E-02  3.36879360E-02  3.26123502E-02
 -1.46961951E-08  2.25057483E-08 -3.59038880E-02 -1.18045666E+00 -8.68132179E-02
 -5.81701526E-02  1.74814105E-08  3.69904869E+00  1.48906589E-01  2.09924872E-01
 -5.47571679E-08 -8.04986157E+00  1.10150862E+00  2.60971247E-01 -1.13526168E-07
 -1.12580162E-01 -8.53306268E-02  6.05318679E-02 -2.44876652E-02 -2.22244669E-08
 -1.01116953E-08 -1.59234240E-02 -5.23507984E-01  2.28066499E-01 -6.79723753E-02
  1.42047604E-08  1.64050374E+00 -1.76407007E+00  2.69490549E-01  1.89322981E-08
 -3.57033288E+00  3.05089873E+00  2.00307772E-01  1.34696061E-07 -2.34310566E-02
 -6.43396473E-02  2.68457703E-02  5.43960705E-02  7.37431119E-09 -2.58218827E-08
  1.99810752E-02  6.56945971E-01  7.91150627E-02  2.09623180E-01  6.42170470E-09
 -2.05850620E+00 -8.59168161E-01 -1.41697225E+00 -1.43662259E-07  4.47991389E+00
  2.12880042E+00  1.91880061E+00 -2.79589352E-07  1.55990153E-02  9.45427838E-02
 -3.36879360E-02 -3.26123502E-02  3.73251726E-08 -4.56115704E-08 -7.20029664E-03
  6.00287702E-01 -3.17761239E-03  2.66217241E-01  4.01808195E-03 -3.34052314E-01
  7.20029672E-03 -6.00287702E-01  3.17761240E-03 -2.66217241E-01 -4.01808203E-03
  3.34052313E-01  2.34323661E-03  7.70355319E-02 -1.13841780E-01  2.33715751E-01
 -5.99288109E-09 -2.41432008E-01  8.35012729E-01 -1.79840112E+00  2.71649696E-08
  5.25250476E-01 -1.32574942E+00  3.08588180E+00  3.29231674E-08  4.96276079E-02
 -3.67120931E-02 -3.95006002E-03 -4.08834088E-02  5.62843368E-09  1.47938924E-09
  3.22655110E-02  1.06082251E+00 -1.23623558E-01 -8.11553910E-02 -7.41380774E-10
 -3.32413846E+00  8.94442023E-01  1.14523398E-01 -7.99842001E-09  7.23427873E+00
 -1.38631005E+00  1.13660158E+00 -1.53499758E-08  7.16632868E-02  1.06192218E-01
 -5.43982904E-02  3.30037834E-02 -1.42669698E-09  3.32696899E-09  2.99222515E-02
  9.83794473E-01  1.53954609E-01  6.78065715E-02  1.72291912E-09 -3.08273661E+00
 -7.91923531E-01 -7.90463381E-01  1.00827368E-10  6.70863403E+00  3.32156112E-01
  2.05874372E+00  6.98621488E-09  1.18598063E-01  4.63419966E-02 -5.04475121E-02
 -1.10379103E-02 -5.37813595E-10  1.53929207E-09 -2.34323660E-03 -7.70355317E-02
 -1.13841780E-01  2.33715751E-01  1.14503561E-09  2.41432007E-01  8.35012729E-01
 -1.79840112E+00 -3.58607509E-09 -5.25250475E-01 -1.32574943E+00  3.08588180E+00
 -7.39289995E-09 -4.96276079E-02  3.67120931E-02  3.95006001E-03  4.08834088E-02
 -1.43931692E-09 -7.00629313E-10 -3.22655110E-02 -1.06082251E+00 -1.23623558E-01
 -8.11553910E-02  1.23220160E-10  3.32413846E+00  8.94442024E-01  1.14523398E-01
  2.39266421E-09 -7.23427873E+00 -1.38631006E+00  1.13660158E+00  1.05865678E-08
 -7.16632868E-02 -1.06192218E-01  5.43982904E-02 -3.30037834E-02  1.53342930E-10
 -1.96272755E-09 -2.99222515E-02 -9.83794473E-01  1.53954609E-01  6.78065715E-02
  1.58939099E-09  3.08273661E+00 -7.91923530E-01 -7.90463381E-01 -1.07922809E-08
 -6.70863403E+00  3.32156107E-01  2.05874371E+00 -2.11308075E-08 -1.18598063E-01
 -4.63419966E-02  5.04475121E-02  1.10379103E-02  3.31243323E-09 -2.69827366E-09
 -4.63326137E-04  3.91926963E-02 -6.47400359E-03  5.39433903E-01 -6.01130467E-03
  5.00260519E-01  4.63326193E-04 -3.91926962E-02  6.47400357E-03 -5.39433903E-01
  6.01130463E-03 -5.00260519E-01  7.24975302E-03 -1.33447905E-01 -3.78267420E-01
 -1.96313584E-01 -3.11834126E-07 -2.08806725E+00  8.43472058E-01  1.44171963E+00
  1.26070637E-06  3.90757735E+00  5.72385355E-01 -8.58153622E-01  1.52733609E-07
  5.30820451E-02 -9.07447847E-02  2.93503499E-02  6.66768526E-02  5.12729427E-07
  2.23767672E-07  4.00626059E-04 -7.40797588E-03  4.53709273E-02 -2.80674792E-02
  5.34852492E-08 -1.15600285E-01 -2.08779289E+00  2.77569942E-01 -6.29335887E-07
  2.16690199E-01  2.21713589E+00 -2.04800812E-01  7.16021317E-08  8.59971466E-04
 -2.95000040E-03  1.62867340E-03  4.16217959E-02 -1.18458119E-07  2.69818794E-07
 -6.84868107E-03  1.26034530E-01 -3.12156892E-01  2.54681649E-01  1.95169388E-08
  1.97240138E+00  3.86060927E-01 -1.67891821E+00  2.23509039E-07 -3.69208201E+00
  8.29125629E-01  8.92776848E-01 -1.33847252E-07 -2.84341902E-02  6.40045018E-02
 -2.77216354E-02  8.63467587E-02 -1.05405608E-08  9.83415737E-08 -7.24975300E-03
  1.33447906E-01 -3.78267420E-01 -1.96313584E-01  6.97355457E-08  2.08806725E+00
  8.43472058E-01  1.44171963E+00 -3.12831560E-07 -3.90757734E+00  5.72385353E-01
 -8.58153620E-01  1.36267586E-07 -5.30820450E-02  9.07447847E-02 -2.93503499E-02
 -6.66768526E-02 -8.34961460E-08 -4.04953385E-08 -4.00626053E-04  7.40797603E-03
  4.53709272E-02 -2.80674792E-02  2.04064724E-08  1.15600285E-01 -2.08779289E+00
  2.77569942E-01  2.18941749E-07 -2.16690197E-01  2.21713589E+00 -2.04800812E-01
 -1.32114183E-07 -8.59971471E-04  2.95000043E-03 -1.62867341E-03 -4.16217959E-02
  6.19928803E-08 -7.29811238E-08  6.84868105E-03 -1.26034531E-01 -3.12156892E-01
  2.54681649E-01  5.25644479E-08 -1.97240138E+00  3.86060927E-01 -1.67891821E+00
 -6.22709837E-07  3.69208201E+00  8.29125626E-01  8.92776847E-01  6.96039685E-08
  2.84341902E-02 -6.40045018E-02  2.77216354E-02 -8.63467587E-02  1.28740815E-07
 -2.59745773E-07  4.17892988E-01  6.90593741E-01  2.31508760E-02  3.82580775E-02
 -3.94752662E-01 -6.52329539E-01 -4.17892988E-01 -6.90593741E-01 -2.31508760E-02
 -3.82580775E-02  3.94752661E-01  6.52329539E-01  3.72032073E-03 -6.85459287E-02
 -2.16512442E-01 -5.17693619E-02 -1.60089569E-07 -1.07184333E+00  1.41482694E+00
 -1.41568943E+00  6.47213210E-07  2.00584361E+00 -7.44787057E-01  1.84000216E+00
  7.83887815E-08 -3.09855279E-03 -1.62433603E-02  1.50711174E-02  6.47232156E-02
  2.54189214E-07  1.34727562E-07  8.13907075E-03 -1.49837972E-01 -4.82809150E-02
 -4.75398595E-01  2.63291532E-08 -2.34423015E+00  2.50765654E-01  1.51562495E+00
 -3.14944397E-07  4.38771986E+00 -9.16492610E-02  1.95333541E-01  3.43064688E-08
 -1.21506448E-01  7.92214224E-02  3.29519539E-02  2.05156527E-02 -5.21759353E-08
  1.35824831E-07  4.41841968E-03 -8.12966501E-02  2.34474972E-01 -1.17884942E-01
  1.11016730E-08 -1.27242467E+00 -1.70575561E+00 -9.58170373E-01  1.09149992E-07
  2.38135398E+00  1.00618838E+00  1.58323459E+00 -6.65935510E-08 -2.19349445E-02
 -1.01089939E-03  1.78815838E-02 -7.16873483E-02 -1.01076192E-08  4.59754345E-08
 -3.72032070E-03  6.85459292E-02 -2.16512442E-01 -5.17693618E-02  3.58005687E-08
  1.07184332E+00  1.41482694E+00 -1.41568943E+00 -1.60602343E-07 -2.00584360E+00
 -7.44787060E-01  1.84000216E+00  6.99651156E-08  3.09855285E-03  1.62433603E-02
 -1.50711174E-02 -6.47232155E-02 -4.51647049E-08 -1.57512244E-08 -8.13907076E-03
  1.49837971E-01 -4.82809151E-02 -4.75398595E-01  9.39758109E-09  2.34423015E+00
  2.50765655E-01  1.51562495E+00  1.17989676E-07 -4.38771986E+00 -9.16492671E-02
  1.95333542E-01 -6.99579021E-08  1.21506448E-01 -7.92214225E-02 -3.29519539E-02
 -2.05156527E-02  3.83139720E-08 -3.68900800E-08 -4.41841969E-03  8.12966497E-02
  2.34474972E-01 -1.17884942E-01  2.81115784E-08  1.27242467E+00 -1.70575561E+00
 -9.58170373E-01 -3.27821963E-07 -2.38135398E+00  1.00618838E+00  1.58323459E+00
  3.82105630E-08  2.19349444E-02  1.01089940E-03 -1.78815838E-02  7.16873483E-02
  6.24566832E-08 -1.41638619E-07  2.14539283E-01  3.54520741E-01  4.69189449E-01
  7.75323741E-01  2.54641159E-01  4.20790435E-01 -2.14539283E-01 -3.54520741E-01
 -4.69189449E-01 -7.75323741E-01 -2.54641159E-01 -4.20790435E-01 -7.13386285E-03
 -1.60992822E-01 -2.08722776E-02  7.04696322E-02  1.45713559E-08  5.98097307E-01
  4.09151483E-01 -8.49322080E-01 -7.05378305E-08 -2.54446263E+00 -1.23872498E+00
  1.63523394E+00 -2.18719753E-09  3.34035315E-02 -5.62884165E-02  5.51044120E-03
 -6.13565365E-02 -4.71104619E-08 -2.02628190E-08  4.90634483E-02  1.10728184E+00
  2.09487119E-02 -7.25757981E-02 -2.26755438E-09 -4.11356212E+00 -3.72127499E-01
 -1.04658449E-01  3.94166802E-08  1.74997415E+01  1.05878053E+00  3.00422226E+00
 -6.40899381E-09  1.80789426E-03  1.55587213E-01 -3.78978896E-02 -1.36049097E-02
  1.09022721E-08 -2.34209027E-08 -4.19296316E-02 -9.46287449E-01 -2.27436894E-02
  7.14505435E-02 -1.94675360E-09  3.51546060E+00 -4.35448242E-01 -4.04268968E-01
 -1.42152919E-08 -1.49552770E+01  2.86886240E+00 -5.29078521E-01  8.77357085E-09
 -4.74650789E-02 -8.70448102E-02  3.23869644E-02  8.42540499E-02  4.56926973E-10
 -8.09003053E-09 -7.13386285E-03 -1.60992822E-01  2.08722777E-02 -7.04696321E-02
 -4.56859667E-09  5.98097306E-01 -4.09151483E-01  8.49322080E-01  2.19401363E-08
 -2.54446263E+00  1.23872498E+00 -1.63523394E+00 -1.20992873E-08  3.34035316E-02
 -5.62884165E-02  5.51044119E-03 -6.13565365E-02  6.85180089E-09  3.12122027E-09
  4.90634483E-02  1.10728184E+00 -2.09487120E-02  7.25757982E-02 -1.60937396E-09
 -4.11356212E+00  3.72127500E-01  1.04658449E-01 -1.45178179E-08  1.74997416E+01
 -1.05878054E+00 -3.00422226E+00  1.44046540E-08  1.80789427E-03  1.55587213E-01
 -3.78978896E-02 -1.36049097E-02 -5.59431666E-09  5.72140348E-09 -4.19296316E-02
 -9.46287449E-01  2.27436895E-02 -7.14505436E-02 -1.25676212E-09  3.51546060E+00
  4.35448243E-01  4.04268969E-01  3.82584077E-08 -1.49552770E+01 -2.86886240E+00
  5.29078520E-01 -1.30658974E-08 -4.74650789E-02 -8.70448102E-02  3.23869644E-02
  8.42540500E-02 -1.02625923E-08  2.27847206E-08 -4.18620057E-02 -2.48889314E-02
  2.87894401E-01  1.71232492E-01 -2.46026905E-01 -1.46345206E-01 -4.18620055E-02
 -2.48889313E-02  2.87894401E-01  1.71232492E-01 -2.46026906E-01 -1.46345206E-01
  5.25349572E-02  1.18563315E+00 -7.25288886E-02 -2.21711664E-02 -1.07360982E-07
 -4.40467475E+00 -8.33537111E-02 -1.78575400E-01  5.19558868E-07  1.87379991E+01
  2.90053905E+00  1.61939925E+00  1.59770327E-08  1.42766348E-01  2.57641084E-02
 -4.05779674E-02  6.12161895E-02  3.43551942E-07  1.56623656E-07 -2.00896385E-02
 -4.53393229E-01  7.04211182E-02  2.20900483E-02  1.28988252E-08  1.68435908E+00
 -8.70642610E-01  1.41633237E-01 -2.85908410E-07 -7.16542007E+00  1.73903657E+00
 -1.43987679E+00  7.21467635E-08 -1.50763279E-02 -4.93713083E-02  1.55171276E-02
 -7.93539680E-02 -7.86058635E-08  1.69760281E-07 -3.24456904E-02 -7.32245426E-01
 -7.15413560E-02 -2.03009162E-02  1.30741305E-08  2.72032838E+00  3.61616969E-01
  6.66032442E-01  1.05794417E-07 -1.15725808E+01  7.36554774E-01 -2.48789822E+00
 -8.56635626E-08 -1.19644859E-01  1.55599554E-02  2.50610740E-02  3.22848386E-02
 -4.04629498E-09  5.91443615E-08  5.25349572E-02  1.18563315E+00  7.25288887E-02
  2.21711664E-02  3.36449467E-08 -4.40467476E+00  8.33537097E-02  1.78575401E-01
 -1.61560870E-07  1.87379991E+01 -2.90053904E+00 -1.61939925E+00  8.90631326E-08
  1.42766349E-01  2.57641084E-02 -4.05779674E-02  6.12161895E-02 -5.05382681E-08
 -2.30137722E-08 -2.00896385E-02 -4.53393229E-01 -7.04211183E-02 -2.20900480E-02
  1.31220393E-08  1.68435908E+00  8.70642611E-01 -1.41633237E-01  1.05750319E-07
 -7.16542005E+00 -1.73903658E+00  1.43987679E+00 -8.49159995E-08 -1.50763279E-02
 -4.93713082E-02  1.55171276E-02 -7.93539679E-02  4.19917475E-08 -4.18710717E-08
 -3.24456904E-02 -7.32245426E-01  7.15413560E-02  2.03009160E-02  1.30376335E-08
  2.72032838E+00 -3.61616968E-01 -6.66032441E-01 -2.86070922E-07 -1.15725808E+01
 -7.36554782E-01  2.48789821E+00  7.12719971E-08 -1.19644859E-01  1.55599555E-02
  2.50610740E-02  3.22848385E-02  7.64921923E-08 -1.70848103E-07  3.08253885E-01
  1.83352890E-01 -1.17874486E-01 -7.01238860E-02 -1.90381259E-01 -1.13233411E-01
  3.08253886E-01  1.83352891E-01 -1.17874486E-01 -7.01238860E-02 -1.90381258E-01
 -1.13233411E-01 -9.83660034E-13 -4.02884883E-11  1.29909273E-10 -3.08327621E-10
 -1.88336298E-07  2.17584458E-11 -5.21281315E-08  1.14109643E-07  3.94384463E-07
 -3.63117485E-09  1.13500170E-07 -2.50659471E-07 -2.36547310E-07 -5.54139900E-09
  5.53047800E-09  3.79562355E-12  5.55501226E-09 -1.40546606E-01  3.08606312E-01
 -8.85585378E-10  3.17965194E-09 -3.80440741E-09  1.01979492E-08  1.68790017E-06
  9.51241360E-08 -6.32440262E-08  7.60493771E-09 -1.17190385E-06 -1.15314596E-07
  2.09561411E-07 -3.93411069E-09  3.92980096E-07  2.25060440E-09 -1.15528526E-09
 -7.26542553E-11  7.27595234E-10  3.37535032E-01 -3.25874544E-02  3.72408642E-11
  1.08371782E-08 -7.40941109E-09  6.81486156E-09  1.85915496E-06  2.27128040E-08
  4.71568876E-08 -3.64677193E-08 -2.00102916E-06 -2.20004522E-07  7.90410771E-08
  7.84253459E-08  1.19798235E-06 -7.83296683E-11  8.55354903E-10 -3.59016572E-10
  2.92490546E-09 -1.96991623E-01 -2.76017916E-01  1.86665367E-12  6.66187158E-11
  1.50945568E-09 -3.35557556E-09  1.88336295E-07 -1.17357914E-10 -1.00131406E-08
  2.19885405E-08 -3.94384434E-07  3.55601277E-09 -2.50078530E-08  5.34579869E-08
  2.36547272E-07 -9.85445265E-10  9.94688214E-10 -5.69385834E-12  9.99578805E-10
 -1.40546606E-01  3.08606312E-01 -4.05320632E-11 -1.09472875E-08 -2.66304986E-10
  1.00794241E-08 -1.68790018E-06 -2.25209052E-08 -3.44082433E-09 -5.93974513E-08
  1.17190384E-06  2.13796488E-07 -1.11216117E-07 -6.91535834E-09 -3.92980092E-07
 -2.96400598E-09  2.16819933E-09  3.66695902E-10  1.24819976E-10  3.37535032E-01
 -3.25874544E-02  8.87896409E-10 -3.09349015E-09 -5.19682842E-09  9.54431713E-09
 -1.85915495E-06 -9.52217934E-08  3.60017677E-08  5.25640653E-08  2.00102913E-06
  1.21596907E-07 -1.33804307E-07 -1.61626681E-07 -1.19798231E-06 -9.23293363E-10
 -1.50420585E-10  6.32322514E-11 -2.06190899E-09 -1.96991623E-01 -2.76017916E-01
 -6.82587624E-11  6.97176586E-12 -6.14023250E-09 -5.77463995E-09 -1.67571707E-08
 -1.88034236E-08  3.45106812E-11 -3.56134919E-11  1.66666792E-08  1.88248794E-08
  6.26417781E-09  5.78423726E-09  2.10647388E-02  6.23676846E-01  4.74640472E-02
  2.16196422E-02 -2.19295420E-07 -1.44752182E+00  5.87166374E-01  2.67391750E-01
  5.05024439E-07  4.96408286E+01  8.52199009E+00  3.88113849E+00 -2.23774223E-07
  8.60028081E-02  2.06288741E-02 -4.34574391E-02  4.33733597E-02  1.03791007E-06
  4.72730821E-07 -2.10643341E-02 -6.23678716E-01 -5.01019409E-03 -5.19192522E-02
 -3.06600547E-08  1.44745275E+00 -6.20378846E-02 -6.42177281E-01 -3.59069552E-07
 -4.96403146E+01 -8.99850883E-01 -9.32078172E+00  2.76173750E-07 -4.44517204E-03
 -1.02186879E-01  4.34578888E-02 -1.10001444E-02 -2.27079362E-07  6.08699883E-07
  2.10642529E-02  6.23673578E-01 -4.24572761E-02  3.03017675E-02  1.74436451E-08
 -1.44745687E+00 -5.25165204E-01  3.74753764E-01  1.20718563E-07  4.96404778E+01
 -7.62203153E+00  5.43983305E+00 -2.08371596E-07  6.95017498E-02  3.71287209E-02
 -4.34571287E-02 -5.43707174E-02 -1.13433247E-07  2.59518255E-07 -2.10647387E-02
 -6.23676845E-01  4.74640473E-02  2.16196422E-02  2.40268593E-08  1.44752182E+00
  5.87166374E-01  2.67391752E-01 -2.97540112E-07 -4.96408285E+01  8.52199010E+00
  3.88113845E+00  2.42298534E-07 -8.60028080E-02 -2.06288741E-02  4.34574390E-02
 -4.33733597E-02 -2.76809105E-07 -1.26049379E-07  2.10643341E-02  6.23678716E-01
 -5.01019395E-03 -5.19192522E-02  1.74504881E-08 -1.44745275E+00 -6.20378855E-02
 -6.42177281E-01  1.20722742E-07  4.96403146E+01 -8.99850849E-01 -9.32078173E+00
 -2.08383660E-07  4.44517203E-03  1.02186879E-01 -4.34578888E-02  1.10001443E-02
  1.21376332E-07 -2.55940261E-07 -2.10642529E-02 -6.23673579E-01 -4.24572761E-02
  3.03017676E-02 -3.06653997E-08  1.44745687E+00 -5.25165204E-01  3.74753762E-01
 -3.59073377E-07 -4.96404778E+01 -7.62203151E+00  5.43983308E+00  2.76191295E-07
 -6.95017499E-02 -3.71287209E-02  4.34571287E-02  5.43707174E-02  3.10081920E-07
 -5.70956363E-07  4.81594924E-01 -8.40908863E-02 -4.81584968E-01  8.40962864E-02
  4.81589811E-01 -8.41037168E-02 -4.81594924E-01  8.40908860E-02  4.81584968E-01
 -8.40962866E-02 -4.81589811E-01  8.41037171E-02 -3.33441992E-07 -7.26136883E-06
 -1.10659881E-06 -5.03880225E-07 -3.55727289E-02  3.29525392E-05  2.45666026E-05
  1.11879193E-05 -3.99785937E-02 -4.39102020E-05 -7.65789166E-06 -3.48742133E-06
  1.87552964E-02 -2.79359443E-07 -3.10330734E-07  2.83618726E-07  2.05670587E-08
  3.38095837E-01  1.53979530E-01  1.87295587E-07  4.23870705E-06  1.72784412E-06
  9.60728388E-07 -3.55703884E-02 -1.76449633E-05  2.36288047E-07 -1.59557813E-05
 -3.99839221E-02  4.99661922E-05  1.14909892E-06  9.05829982E-06  1.87586938E-02
  4.09953499E-07 -2.07545708E-07 -3.37645179E-08  4.45443713E-07  3.57072767E-02
  3.69788553E-01  5.30862399E-08  9.54766020E-07 -1.45384166E-06 -9.03389637E-07
 -3.55731958E-02 -4.57166116E-06  9.67003681E-06 -5.56866324E-06 -3.99825169E-02
 -6.39126141E-05  1.01057916E-05 -7.42293592E-06  1.87587222E-02  3.90412876E-07
 -4.02158656E-07  6.84030344E-08  4.05170361E-07 -3.02397633E-01  2.15814898E-01
 -1.59390681E-07 -3.75555160E-06  1.94565909E-06  8.85986176E-07 -3.55727289E-02
  1.26770976E-05 -2.42688618E-05 -1.10521691E-05 -3.99785937E-02  7.18414093E-05
 -1.35278954E-05 -6.16153376E-06  1.87552964E-02  2.40983069E-07 -4.55406004E-07
  1.01393399E-07  4.62054573E-07 -3.38095837E-01 -1.53979530E-01  5.30838259E-08
  9.54632323E-07 -1.63594564E-06 -5.03593525E-07 -3.55703884E-02 -4.57139958E-06
  2.14687910E-06  1.09490504E-05 -3.99839221E-02 -6.39108431E-05  1.03519562E-06
  1.24958969E-05  1.87586938E-02  2.86876172E-07 -2.98626027E-07  6.83998671E-08
  5.09191269E-07 -3.57072767E-02 -3.69788553E-01  1.87298852E-07  4.23883188E-06
  1.85901533E-06  6.72641466E-07 -3.55731958E-02 -1.76453970E-05 -1.18824905E-05
  1.06531845E-05 -3.99825169E-02  4.99659957E-05  7.58773057E-06 -5.07892565E-06
  1.87587222E-02  4.40597013E-07 -2.38189388E-07 -3.37556806E-08  4.14659304E-07
  3.02397633E-01 -2.15814898E-01  4.03167859E-06  5.58940102E-06 -2.00256682E-06
 -4.20025583E-06 -2.57893382E-06 -3.12770760E-06  5.35043657E-06  8.13659625E-06
 -2.57866684E-06 -3.12725541E-06 -2.00280471E-06 -4.20072650E-06 -2.25483434E-02
 -4.86266112E-01 -2.51556838E-01  9.35321790E-02 -7.08057904E-07  2.07344920E+00
  2.54817686E+00  1.16194190E+00  1.20212148E-06  1.89867052E+00  4.53810206E-01
  2.30598168E-01  7.82413417E-07 -2.54575557E-02 -2.94083720E-04  1.04933778E-02
  7.21800364E-02  7.83700606E-07  3.72193726E-07 -8.38070687E-03 -1.80732650E-01
  2.49649871E-01 -9.51158163E-02  1.94170325E-07  7.70617969E-01  1.01932367E-01
  1.03591780E+00 -9.55025827E-08  7.05677071E-01  4.75537059E-02  1.85315554E-01
 -3.90104862E-07 -5.82527629E-03 -3.74472254E-03  3.90034247E-03  8.10968555E-02
 -1.86333163E-06 -1.40508147E-06  3.09291956E-02  6.67001143E-01 -2.51972361E-01
  9.59747415E-02  5.40744798E-07 -2.84405826E+00  3.12659945E+00 -2.23197079E+00
  6.11466051E-07 -2.60434956E+00  5.63245949E-01 -4.11659473E-01 -3.97645991E-07
  1.75416689E-02  1.77863678E-02 -1.43967707E-02  6.50944000E-02  3.26905815E-06
 -9.84862769E-07 -2.25483434E-02 -4.86266112E-01  2.51556838E-01 -9.35321790E-02
  3.40521413E-07  2.07344920E+00 -2.54817686E+00 -1.16194190E+00 -6.60735286E-07
  1.89867050E+00 -4.53810203E-01 -2.30598167E-01  3.28056135E-07 -2.54575557E-02
 -2.94083724E-04  1.04933778E-02  7.21800364E-02  2.42216622E-06  1.08822196E-06
 -8.38070687E-03 -1.80732650E-01 -2.49649871E-01  9.51158163E-02  5.43210037E-07
  7.70617969E-01 -1.01932367E-01 -1.03591780E+00  6.20232389E-07  7.05677088E-01
 -4.75537059E-02 -1.85315557E-01 -4.04985612E-07 -5.82527629E-03 -3.74472252E-03
  3.90034245E-03  8.10968555E-02  1.38651813E-06  3.12256314E-06  3.09291956E-02
  6.67001143E-01  2.51972361E-01 -9.59747415E-02  1.90003854E-07 -2.84405826E+00
 -3.12659945E+00  2.23197079E+00 -1.05663564E-07 -2.60434958E+00 -5.63245952E-01
  4.11659475E-01 -3.81863548E-07  1.75416689E-02  1.77863678E-02 -1.43967706E-02
  6.50944000E-02 -2.27527326E-06 -4.96192646E-07  4.71771201E-01  8.28658946E-01
  1.75345833E-01  3.08002618E-01 -6.47129071E-01 -1.13666418E+00  4.71771201E-01
  8.28658946E-01  1.75345833E-01  3.08002618E-01 -6.47129071E-01 -1.13666418E+00
  2.26956007E-02  4.89436698E-01  9.62168245E-02  2.50558017E-01  7.12748824E-07
 -2.08692166E+00 -2.56595022E+00 -1.16708656E+00 -1.20994152E-06 -1.91109490E+00
 -4.74824690E-01 -1.92498390E-01 -7.87605796E-07 -5.06057143E-02  7.65305119E-02
 -1.05674069E-02  3.94878837E-03 -8.00681830E-07 -3.49334037E-07 -3.08757221E-02
 -6.65845215E-01 -9.46384349E-02 -2.52469809E-01 -1.91247830E-07  2.83915580E+00
  3.68082501E-01  3.81712897E+00  1.06311747E-07  2.59976291E+00  5.89036299E-02
  6.93928122E-01  3.84420700E-07 -7.34753692E-02  3.82136626E-02  1.43675552E-02
 -9.37948965E-03  1.88028487E-06  1.39970282E-06  8.18095773E-03  1.76411453E-01
  9.37723852E-02  2.50145528E-01 -5.46797608E-07 -7.52212297E-01  8.28057291E-01
 -5.88647545E-01 -6.24267714E-07 -6.88666072E-01  1.67343992E-01 -8.30795913E-02
  4.07630062E-07 -6.50287555E-02  7.43763292E-02 -3.81370161E-03 -1.04403427E-02
 -3.28720882E-06  1.01032519E-06  2.26956007E-02  4.89436698E-01 -9.62168245E-02
 -2.50558017E-01 -3.42736145E-07 -2.08692166E+00  2.56595022E+00  1.16708656E+00
  6.65128090E-07 -1.91109489E+00  4.74824690E-01  1.92498389E-01 -3.30248514E-07
 -5.06057143E-02  7.65305119E-02 -1.05674069E-02  3.94878837E-03 -2.42661020E-06
 -1.12009367E-06 -3.08757221E-02 -6.65845215E-01  9.46384349E-02  2.52469809E-01
 -5.44260312E-07  2.83915580E+00 -3.68082501E-01 -3.81712897E+00 -6.15513656E-07
  2.59976291E+00 -5.89036296E-02 -6.93928121E-01  4.00289654E-07 -7.34753692E-02
  3.82136626E-02  1.43675553E-02 -9.37948965E-03 -1.41225313E-06 -3.13284729E-06
  8.18095773E-03  1.76411453E-01 -9.37723852E-02 -2.50145528E-01 -1.95421035E-07
 -7.52212297E-01 -8.28057291E-01  5.88647545E-01  9.61608658E-08 -6.88666068E-01
 -1.67343992E-01  8.30795909E-02  3.92638255E-07 -6.50287555E-02  7.43763292E-02
 -3.81370162E-03 -1.04403427E-02  2.29795981E-06  4.86665174E-07 -4.74861343E-01
 -8.34088398E-01  6.45994036E-01  1.13467847E+00 -1.71142019E-01 -3.00612270E-01
 -4.74861343E-01 -8.34088398E-01  6.45994036E-01  1.13467847E+00 -1.71142019E-01
 -3.00612270E-01 -4.50046212E-08 -1.14060950E-06 -7.48087447E-07 -3.52504562E-07
  3.91530268E-02  3.50735101E-06  8.62351721E-06  4.01876728E-06  7.07437444E-02
  2.07855477E-05  4.33865709E-06  1.76740695E-06 -6.59400508E-02  2.25520981E-07
 -1.77997299E-07 -6.51747511E-08  2.83605577E-07 -2.76220910E-01  3.10448348E-01
  1.33626122E-08  3.59853919E-07  5.92857847E-07  2.49584920E-07  4.21360311E-02
 -8.11862506E-07 -8.50243674E-07 -3.90162095E-06  7.61305935E-02 -1.58848768E-05
  1.05191114E-07 -3.37333901E-06 -7.09613334E-02  9.12649975E-08 -2.82614164E-08
 -4.16117247E-08  1.67955634E-07  3.72935617E-01 -1.68676390E-01  6.10553140E-08
  1.34556538E-06 -7.12696083E-07 -2.60086480E-07 -8.12867541E-02 -6.24905401E-06
  5.18179789E-06 -4.02939024E-06 -1.46874246E-01  7.09389296E-06 -7.78269751E-07
  7.06638734E-07  1.36901200E-01  1.45510631E-07 -7.28402877E-08 -6.06551232E-08
  1.31302849E-07 -2.01789292E-01  1.55798648E-01 -1.06890165E-07 -2.12853257E-06
  5.74838167E-07  2.70094347E-07  3.91530268E-02  1.06650055E-05 -1.03473207E-05
 -4.71415600E-06  7.07437444E-02 -3.52875666E-06 -2.44033924E-08  6.51097950E-08
 -6.59400508E-02  2.58824740E-08 -1.17208892E-07  3.24546495E-08  8.99755595E-08
  2.76220910E-01 -3.10448348E-01  6.28064309E-08  1.38267262E-06 -6.58610632E-07
 -3.79182157E-07  4.21360311E-02 -6.45362139E-06  4.09187201E-07  6.76152381E-06
  7.61305935E-02  7.17980217E-06 -1.67793414E-07 -1.01412431E-06 -7.09613334E-02
  1.36187813E-07 -6.15415396E-08 -6.21711045E-08  1.36976177E-07 -3.72935617E-01
  1.68676390E-01  1.26097764E-08  3.04764955E-07  5.66125058E-07  3.20115435E-07
 -8.12867541E-02 -7.18209761E-07 -3.25000324E-06  1.83514980E-06 -1.46874246E-01
 -1.56156062E-05 -2.63153502E-06  2.04426641E-06  1.36901200E-01  1.66013112E-07
 -1.05985699E-07 -4.23754526E-08  8.72794408E-08  2.01789292E-01 -1.55798648E-01
  1.86803852E-06  3.27097453E-06 -9.38627236E-07 -1.35945066E-06 -8.71451302E-07
 -1.92820024E-06  1.64932094E-06  3.23055889E-06 -9.01408722E-07 -1.99145320E-06
 -8.90996232E-07 -1.27757468E-06  8.18958486E-08  2.07565267E-06  1.37196060E-06
  6.18377036E-07 -7.12586207E-02 -6.38221288E-06 -1.57752060E-05 -7.13380376E-06
 -1.28753583E-01 -3.78334404E-05 -7.71049299E-06 -3.62664021E-06  1.20010642E-01
 -4.26588898E-07  3.40091277E-07  1.18616011E-07 -4.99902335E-07  1.12831228E-01
  2.91080384E-01 -2.34317538E-08 -5.89729541E-07 -1.10290063E-06 -4.15590703E-07
  6.95345012E-02  1.36687775E-06  1.42752518E-06  6.81065924E-06  1.25643191E-01
  2.85966455E-05  1.53547627E-07  6.08561653E-06 -1.17110398E-01 -1.59967718E-07
  4.88225713E-08  7.66436741E-08 -3.05202239E-07 -2.54610663E-01 -1.94360218E-01
 -1.13180690E-07 -2.49259035E-06  1.30372340E-06  4.58972897E-07  1.71985623E-03
  1.16144306E-05 -9.65174330E-06  7.45161498E-06  3.11297424E-03 -1.30191436E-05
  1.53260051E-06 -1.08788351E-06 -2.90087577E-03 -2.59654326E-07  1.25079524E-07
  1.12171256E-07 -2.39755906E-07  2.67483326E-01  3.65504394E-01  1.94532072E-07
  3.87374156E-06 -1.05352395E-06 -4.75288284E-07 -7.12586208E-02 -1.94095707E-05
  1.88327148E-05  8.57557430E-06 -1.28753583E-01  6.42787268E-06 -2.49648221E-08
  3.07955328E-08  1.20010642E-01 -4.20759950E-08  2.08281148E-07 -5.90634920E-08
 -1.68788090E-07 -1.12831228E-01 -2.91080384E-01 -1.12243095E-07 -2.47265939E-06
  1.20501139E-06  6.75589577E-07  6.95345012E-02  1.15041469E-05 -6.88833656E-07
 -1.20607196E-05  1.25643191E-01 -1.29713753E-05  8.05067622E-08  1.89043921E-06
 -1.17110398E-01 -2.45115424E-07  1.11586444E-07  1.11367455E-07 -2.56393572E-07
  2.54610663E-01  1.94360218E-01 -2.38209346E-08 -6.19549368E-07 -1.04365776E-06
 -5.39115923E-07  1.71985624E-03  1.41617145E-06  6.21127146E-06 -3.43922667E-06
  3.11297425E-03  2.87448349E-05  4.60545393E-06 -4.01668281E-06 -2.90087577E-03
 -3.03662591E-07  1.90910977E-07  7.62021010E-08 -1.63889242E-07 -2.67483326E-01
 -3.65504394E-01 -3.39958736E-06 -5.95265351E-06  1.65191200E-06  2.37723473E-06
  1.62124732E-06  3.58383222E-06 -3.00153978E-06 -5.87927305E-06  1.60511010E-06
  3.54965261E-06  1.67777184E-06  2.42162525E-06  3.86044316E-08  1.21850452E-06
  1.36135755E-06  6.18875483E-07 -1.05354863E-01 -1.33341004E-06 -1.30326371E-05
 -5.91851908E-06  3.64562733E-02 -3.94920098E-05 -8.18894318E-06 -3.77021244E-06
  1.76160388E-02 -5.35094049E-07  3.46050122E-07  2.12696200E-07 -5.81867077E-07
  3.81368468E-01  2.39735366E-01  8.71218479E-09 -6.85160108E-09 -9.58607860E-07
 -3.28857931E-07  3.01429194E-03 -2.17324156E-06  1.48756406E-06  4.40403474E-06
 -1.04143631E-03  3.05871642E-05  2.23463564E-07  6.44551248E-06 -5.06088094E-04
 -1.14470910E-07 -2.77831942E-08  1.06412535E-07 -2.77425873E-07 -1.16033469E-01
 -1.63246650E-03 -1.23972087E-07 -2.68351494E-06  1.23869284E-06  3.90965608E-07
  1.08369451E-01  1.33732093E-05 -1.00780537E-05  7.95288776E-06 -3.75010973E-02
 -1.55463934E-05  1.88760172E-06 -1.36677506E-06 -1.81173277E-02 -2.22523205E-07
  8.40860189E-08  1.48882666E-07 -2.13852960E-07  3.41695639E-01 -3.11715467E-01
  2.00766745E-07  3.82810836E-06 -8.97744010E-07 -4.08434647E-07  1.05354863E-01
 -2.08386476E-05  1.83127496E-05  8.33865977E-06 -3.64562733E-02  9.28827999E-06
 -5.50037485E-07 -2.33615056E-07 -1.76160388E-02 -2.90893283E-08  1.57424573E-07
 -3.86739087E-08 -1.24403072E-07  3.81368468E-01  2.39735366E-01 -1.23788560E-07
 -2.68036984E-06  1.10816810E-06  6.76879823E-07 -3.01429194E-03  1.33539216E-05
 -6.08038100E-07 -1.28084137E-05  1.04143632E-03 -1.55214560E-05  1.67666797E-07
  2.32557473E-06  5.06088090E-04 -2.31538466E-07  9.34359378E-08  1.48613466E-07
 -2.05774822E-07 -1.16033469E-01 -1.63246650E-03  8.88259745E-09 -1.10592261E-08
 -8.78821373E-07 -5.02653233E-07 -1.08369451E-01 -2.17606075E-06  4.32434058E-06
 -1.76809705E-06  3.75010973E-02  3.06304212E-05  4.97652528E-06 -4.11221113E-06
  1.81173277E-02 -3.02886928E-07  1.61134568E-07  1.06149222E-07 -8.83983761E-08
  3.41695639E-01 -3.11715467E-01 -3.02702642E-06 -5.59227826E-06  1.46555980E-06
  1.88118859E-06  1.54115621E-06  3.69963508E-06 -2.69304443E-06 -5.55057009E-06
  1.53927755E-06  3.69478867E-06  1.46914574E-06  1.88884829E-06  2.35585440E-08
  7.43668657E-07  8.29980763E-07  3.79851698E-07 -6.43083128E-02 -8.13310563E-07
 -7.94040343E-06 -3.64334451E-06  2.22552764E-02 -2.41056222E-05 -5.03270561E-06
 -2.22611337E-06  1.07496965E-02 -3.23983768E-07  2.08591341E-07  1.29830410E-07
 -3.57807877E-07  2.88808972E-01  2.33174707E-02  5.50031122E-09 -9.08545838E-09
 -5.82267530E-07 -2.05442349E-07 -1.23393130E-01 -1.32896106E-06  9.27572310E-07
  2.71012253E-06  4.26987079E-02  1.87209596E-05  7.16096457E-08  3.94356069E-06
  2.06321805E-02 -7.00812188E-08 -1.61955798E-08  6.46689690E-08 -1.69440864E-07
  4.74440480E-02  5.20723365E-01 -7.54523650E-08 -1.63420836E-06  7.55324769E-07
  2.39448233E-07 -5.90851280E-02  8.14017507E-06 -6.13198293E-06  4.84975633E-06
  2.04467490E-02 -9.46227557E-06  1.12740135E-06 -8.70575523E-07  9.87730517E-03
 -1.36469673E-07  5.23759879E-08  9.05485506E-08 -1.30978942E-07 -2.62638059E-01
  6.29916627E-02  1.22546131E-07  2.33662631E-06 -5.47589452E-07 -2.50100215E-07
  6.43083128E-02 -1.27198293E-05  1.11768678E-05  5.09193736E-06 -2.22552764E-02
  5.66983662E-06 -3.22237886E-07 -1.72477589E-07 -1.07496965E-02 -1.84085789E-08
  9.67353287E-08 -2.36044248E-08 -7.52774682E-08  2.88808972E-01  2.33174707E-02
 -7.57810458E-08 -1.63987394E-06  6.76268325E-07  4.14247943E-07  1.23393130E-01
  8.17427807E-06 -3.80523717E-07 -7.83604471E-06 -4.26987079E-02 -9.50201258E-06
  1.46081468E-07  1.41450199E-06 -2.06321805E-02 -1.41256117E-07  5.65625680E-08
  9.10373405E-08 -1.24561007E-07  4.74440480E-02  5.20723365E-01  5.24789410E-09
 -1.71790854E-09 -5.34708984E-07 -3.12044699E-07  5.90851280E-02 -1.32676620E-06
  2.60951764E-06 -1.07915757E-06 -2.04467490E-02  1.86461559E-05  3.07323516E-06
 -2.45507568E-06 -9.87730517E-03 -1.85128323E-07  9.80480277E-08  6.50803632E-08
 -5.33756428E-08 -2.62638059E-01  6.29916626E-02 -1.84759793E-06 -3.41332605E-06
  8.98725882E-07  1.15709347E-06  9.38407329E-07  2.25247259E-06 -1.64377116E-06
 -3.38796825E-06  9.41838587E-07  2.26101812E-06  8.92507887E-07  1.14391458E-06
  1.62917067E-02  2.50064796E-01  7.23814581E-02  3.29675151E-02  3.77919351E-08
 -3.82032196E-01  7.28606011E-02  3.31638163E-02  4.01747956E-07  9.81116669E-03
  1.81482441E-02  8.28519858E-03 -4.33669141E-08 -1.79021373E-01 -1.43594828E-01
  4.24333782E-01 -2.35025864E-02 -2.21629053E-07 -1.00933798E-07  1.62906477E-02
  2.50056500E-01  7.64371890E-03  7.91641155E-02  3.40055493E-08 -3.81977929E-01
  7.71881124E-03  7.97732061E-02 -2.03418462E-07  9.88715175E-03  1.89585792E-03
  1.98888809E-02  3.90136590E-08 -1.34826162E-01 -1.87793913E-01  4.24338278E-01
 -5.96334580E-03  1.37471669E-07 -2.04841076E-07  1.62913789E-02  2.50069714E-01
 -6.47411997E-02  4.62071849E-02 -2.32539457E-08 -3.82039216E-01 -6.51437335E-02
  4.65135686E-02  5.66067997E-08  9.85314394E-03 -1.62613829E-02  1.15724912E-02
 -1.02136992E-08 -1.70082947E-01 -1.52533192E-01  4.24333723E-01  2.94618114E-02
 -7.24840356E-08 -3.66813102E-08  1.62917067E-02  2.50064796E-01 -7.23814581E-02
 -3.29675151E-02 -6.76691052E-09 -3.82032196E-01 -7.28606010E-02 -3.31638163E-02
  2.09155501E-08  9.81116830E-03 -1.81482444E-02 -8.28519861E-03 -1.90464915E-08
 -1.79021373E-01 -1.43594828E-01  4.24333782E-01 -2.35025864E-02 -7.46041696E-08
 -3.39771358E-08  1.62906477E-02  2.50056500E-01 -7.64371890E-03 -7.91641155E-02
 -2.32536665E-08 -3.81977929E-01 -7.71881124E-03 -7.97732062E-02  5.66072970E-08
  9.88715014E-03 -1.89585799E-03 -1.98888806E-02 -1.02154764E-08 -1.34826162E-01
 -1.87793913E-01  4.24338278E-01 -5.96334580E-03 -7.52536415E-08 -3.05994344E-08
  1.62913789E-02  2.50069714E-01  6.47411997E-02 -4.62071849E-02  3.40053572E-08
 -3.82039216E-01  6.51437335E-02 -4.65135685E-02 -2.03418339E-07  9.85314523E-03
  1.62613832E-02 -1.15724914E-02  3.90155908E-08 -1.70082947E-01 -1.52533192E-01
  4.24333723E-01  2.94618114E-02 -6.42827087E-08  2.38169022E-07  1.65897345E-01
  1.38942567E-01  1.65913203E-01  1.38975690E-01  1.65897108E-01  1.38937677E-01
  1.65897345E-01  1.38942567E-01  1.65913203E-01  1.38975690E-01  1.65897108E-01
  1.38937677E-01  1.76582482E-07  3.81153818E-06  1.03442270E-01 -2.27131434E-01
  2.32888623E-12 -2.89588582E-05 -1.36955618E-01  3.00704116E-01  9.19652213E-12
  1.08055139E-04  7.97188446E-02 -1.74985847E-01 -1.64620559E-11 -2.40218717E-01
  2.40215528E-01  2.29834549E-06  2.41365302E-01 -2.65842420E-09  5.82898834E-09
  1.81651236E-08 -8.44082065E-06 -2.48428912E-01  2.39847026E-02  9.02136394E-11
  2.60761743E-05  3.28885474E-01 -3.17303797E-02  2.42342717E-09 -1.85765650E-04
 -1.91396501E-01  1.84530378E-02 -1.15359302E-09  6.09273596E-02 -6.09254473E-02
 -1.20346217E-06  3.60900542E-01 -8.62135351E-09  1.09528779E-08  2.89234273E-07
 -4.13369625E-06  1.44987710E-01  2.03154196E-01  1.05225859E-09 -7.58703612E-06
 -1.91935293E-01 -2.68960018E-01 -1.67220144E-10  1.31950999E-04  1.11661333E-01
  1.56497186E-01  3.82211961E-10  3.01136487E-01 -3.01129950E-01 -5.81665897E-06
  1.19531281E-01  3.70913742E-09 -8.85796191E-10 -1.76582469E-07 -3.81153706E-06
  1.03442270E-01 -2.27131434E-01 -2.48414054E-13  2.89588546E-05 -1.36955618E-01
  3.00704116E-01  1.24318939E-12 -1.08055095E-04  7.97188446E-02 -1.74985847E-01
  3.29106627E-12  2.40218717E-01 -2.40215528E-01 -2.29834617E-06 -2.41365302E-01
 -2.05676262E-09  4.50768466E-09 -1.81651612E-08  8.44081954E-06 -2.48428912E-01
  2.39847026E-02 -1.05401778E-09 -2.60761709E-05  3.28885474E-01 -3.17303797E-02
  1.71235986E-10  1.85765579E-04 -1.91396501E-01  1.84530378E-02 -3.92483164E-10
 -6.09273596E-02  6.09254473E-02  1.20346248E-06 -3.60900542E-01 -1.77420511E-09
 -3.38104479E-09 -2.89234294E-07  4.13369618E-06  1.44987710E-01  2.03154196E-01
 -8.87844510E-11  7.58703713E-06 -1.91935293E-01 -2.68960018E-01 -2.43626686E-09
 -1.31950973E-04  1.11661333E-01  1.56497186E-01  1.17497712E-09 -3.01136487E-01
  3.01129950E-01  5.81665887E-06 -1.19531281E-01 -2.60754512E-09  1.37093858E-08
  8.55155346E-06 -7.91872933E-06  4.66766255E-06  9.10620764E-06 -8.67235787E-07
 -6.93723787E-06 -8.55155380E-06  7.91872904E-06 -4.66766302E-06 -9.10620758E-06
  8.67235963E-07  6.93723787E-06  5.54255255E-03 -3.07328212E-01  9.63332165E-04
  4.40830299E-04  7.53362737E-08  1.79232443E-01  1.52807025E-01  6.95518653E-02
  5.08829081E-07  2.37799016E-02 -9.41017972E-02 -4.27609047E-02 -4.47327675E-07
 -2.20868347E-01  1.97264242E-01 -3.14026635E-03 -2.77430593E-01 -9.90661949E-08
 -4.51190742E-08  5.54310476E-03 -3.07341260E-01  1.00713589E-04  1.04671693E-03
  3.53699751E-08  1.79233379E-01  1.61644463E-02  1.67110790E-01 -3.13124087E-07
  2.35634214E-02 -1.00295912E-02 -1.02923964E-01  2.99173853E-07  3.00804351E-01
 -3.24404339E-01 -3.14381619E-03 -7.03540287E-02  2.01843896E-07 -3.14630449E-07
  5.54289932E-03 -3.07329892E-01 -8.59307894E-04  6.16550986E-04 -3.06590032E-08
  1.79225027E-01 -1.36625803E-01  9.75345496E-02  8.00766247E-08  2.37364373E-02
  8.40858527E-02 -6.01305237E-02 -1.30518382E-07 -1.15329345E-01  9.17315561E-02
 -3.14552159E-03  3.47786918E-01 -1.02020458E-07 -9.10157603E-08  5.54255255E-03
 -3.07328212E-01 -9.63332164E-04 -4.40830298E-04 -1.58515434E-09  1.79232443E-01
 -1.52807025E-01 -6.95518654E-02  4.47939139E-08  2.37799008E-02  9.41017973E-02
  4.27609048E-02  6.46354846E-08 -2.20868347E-01  1.97264242E-01 -3.14026635E-03
 -2.77430593E-01 -1.40098049E-07 -6.38050044E-08  5.54310476E-03 -3.07341260E-01
 -1.00713589E-04 -1.04671693E-03 -3.06584843E-08  1.79233379E-01 -1.61644463E-02
 -1.67110790E-01  8.00760262E-08  2.35634223E-02  1.00295912E-02  1.02923964E-01
 -1.30516231E-07  3.00804351E-01 -3.24404339E-01 -3.14381620E-03 -7.03540287E-02
 -1.35629195E-07 -1.72132789E-08  5.54289932E-03 -3.07329892E-01  8.59307894E-04
 -6.16550985E-04  3.53693647E-08  1.79225027E-01  1.36625804E-01 -9.75345496E-02
 -3.13120854E-07  2.37364365E-02 -8.40858528E-02  6.01305238E-02  2.99170286E-07
 -1.15329345E-01  9.17315561E-02 -3.14552159E-03  3.47786918E-01 -1.04846767E-07
  3.58797813E-07  3.63700279E-01 -1.67910734E-01  3.63694338E-01 -1.67906020E-01
  3.63693343E-01 -1.67918622E-01  3.63700279E-01 -1.67910734E-01  3.63694338E-01
 -1.67906020E-01  3.63693343E-01 -1.67918622E-01  7.45825969E-02  1.19487689E+00
  8.88646971E-02  4.04595482E-02  2.85177066E-08 -1.09291284E+01 -6.53801970E+00
 -2.97751261E+00 -2.29674941E-06 -7.93409195E+00 -1.57481998E+00 -7.17180701E-01
 -8.42445060E-07 -2.63383948E-02 -5.77012213E-03 -1.05150946E-01 -1.36496493E-02
  5.24984040E-07  2.39105021E-07 -7.45824609E-02 -1.19487288E+00 -9.38837225E-03
 -9.71910208E-02 -1.30041510E-07  1.09291375E+01  6.90421131E-01  7.15077918E+00
  1.00827233E-06  7.93417235E+00  1.66327791E-01  1.72241187E+00  4.25848270E-07
  6.62878347E-04  3.14455227E-02  1.05154472E-01  3.46232923E-03 -5.12724361E-07
  8.07335446E-07  7.45825012E-02  1.19486855E+00 -7.94767712E-02  5.67117943E-02
  5.52562202E-08 -1.09290991E+01  5.84761098E+00 -4.17330662E+00 -2.26231947E-07
 -7.93414265E+00  1.40853210E+00 -1.00520425E+00 -2.47534275E-07 -2.11435212E-02
 -1.09572950E-02 -1.05159301E-01  1.71097580E-02  1.50953436E-07  2.24174922E-07
 -7.45825969E-02 -1.19487689E+00  8.88646971E-02  4.04595482E-02 -9.45939430E-09
  1.09291284E+01 -6.53801970E+00 -2.97751261E+00 -6.47429805E-08  7.93409195E+00
 -1.57481999E+00 -7.17180693E-01  3.51642347E-07  2.63383948E-02  5.77012213E-03
  1.05150946E-01  1.36496493E-02  2.74670712E-07  1.25088508E-07  7.45824609E-02
  1.19487288E+00 -9.38837226E-03 -9.71910208E-02  5.52668091E-08 -1.09291375E+01
  6.90421132E-01  7.15077918E+00 -2.26226997E-07 -7.93417235E+00  1.66327782E-01
  1.72241187E+00 -2.47527548E-07 -6.62878341E-04 -3.14455227E-02 -1.05154472E-01
 -3.46232921E-03  2.68175493E-07 -3.32660756E-08 -7.45825012E-02 -1.19486855E+00
 -7.94767712E-02  5.67117943E-02 -1.30040188E-07  1.09290991E+01  5.84761098E+00
 -4.17330662E+00  1.00824969E-06  7.93414266E+00  1.40853209E+00 -1.00520425E+00
  4.25841808E-07  2.11435212E-02  1.09572950E-02  1.05159301E-01 -1.71097580E-02
  2.72425164E-07 -9.16737277E-07 -4.59259505E-01 -1.72174733E+00  4.59236039E-01
  1.72172455E+00 -4.59261339E-01 -1.72174270E+00  4.59259505E-01  1.72174733E+00
 -4.59236039E-01 -1.72172455E+00  4.59261339E-01  1.72174270E+00  8.01896425E-03
  1.68231612E-01  1.66562278E-01 -4.63561664E-02  1.06558372E-07 -7.95201445E-01
  5.18012356E-02  3.64207842E-01  1.01567517E-06  1.72799750E+00  2.26577667E-01
 -3.46248633E-01 -6.79677503E-07 -3.74225616E-01  1.28217916E-01  1.82883424E-01
 -3.50594764E-01  1.29237662E-07  5.89573248E-08  4.95403251E-04  1.03891298E-02
  2.45608124E-01 -1.55007762E-02  4.58445361E-08 -4.91498491E-02 -6.81195748E-01
  7.80408060E-02 -5.97450058E-07  1.06708191E-01  9.00749419E-01 -8.30900772E-02
  4.66269821E-07  2.04300188E-02 -3.56250841E-02  1.12937356E-02  1.91659421E-02
  3.84845442E-07 -6.17804487E-07 -7.52402654E-03 -1.57846059E-01  1.79359539E-01
  3.75234599E-02 -4.38460653E-08  7.46119248E-01 -6.69153130E-02 -4.13626829E-01
  9.53425000E-08 -1.62110232E+00  3.35730033E-01  3.69195597E-01 -1.70524447E-07
  2.24346920E-01  6.46685687E-03 -1.71588433E-01 -4.08078775E-01 -1.36040327E-07
 -2.50081799E-07 -8.01896425E-03 -1.68231612E-01  1.66562278E-01 -4.63561664E-02
  8.88906386E-09  7.95201445E-01  5.18012356E-02  3.64207842E-01  1.50439211E-07
 -1.72799750E+00  2.26577667E-01 -3.46248632E-01  3.66411740E-08  3.74225616E-01
 -1.28217916E-01 -1.82883424E-01  3.50594764E-01 -3.43192310E-07 -1.56166029E-07
 -4.95403251E-04 -1.03891298E-02  2.45608124E-01 -1.55007762E-02 -4.38170518E-08
  4.91498492E-02 -6.81195748E-01  7.80408060E-02  9.51403186E-08 -1.06708191E-01
  9.00749419E-01 -8.30900771E-02 -1.70725513E-07 -2.04300188E-02  3.56250841E-02
 -1.12937356E-02 -1.91659421E-02 -2.77972155E-07  6.14157533E-08  7.52402654E-03
  1.57846059E-01  1.79359539E-01  3.75234599E-02  4.55613075E-08 -7.46119248E-01
 -6.69153130E-02 -4.13626829E-01 -5.97345749E-07  1.62110232E+00  3.35730033E-01
  3.69195596E-01  4.66652288E-07 -2.24346920E-01 -6.46685687E-03  1.71588433E-01
  4.08078775E-01 -2.13051095E-07  6.96396726E-07  5.44881958E-01 -1.32807931E-01
  3.36550020E-02 -8.20942269E-03 -5.11221885E-01  1.24616662E-01 -5.44881958E-01
  1.32807931E-01 -3.36550020E-02  8.20942269E-03  5.11221885E-01 -1.24616662E-01
  4.05925296E-03  8.51556879E-02 -3.01383686E-02  2.27799719E-01  5.39219899E-08
 -4.02604171E-01  3.44993069E-01 -5.16068782E-01  5.13898263E-07  8.74181387E-01
 -3.06208026E-01  7.48803552E-01 -3.43941431E-07 -2.07702214E-01  8.32143739E-02
  9.25413408E-02 -1.58989668E-01  6.55126672E-08  2.96170836E-08  8.97199835E-03
  1.88229714E-01  7.19590903E-04  1.48739920E-01  2.28437083E-08 -8.89668306E-01
  5.90030175E-02  2.17139719E-01 -3.02185014E-07  1.93381900E+00 -4.29740242E-02
  7.46575990E-02  2.36414427E-07  2.94844273E-01 -5.70131930E-01  2.04649494E-01
 -9.87482350E-02  1.95520522E-07 -3.12710577E-07  4.91703126E-03  1.03142073E-01
  5.37497108E-02  2.14990258E-01 -2.21520542E-08 -4.87715535E-01 -4.32615750E-01
 -3.97386547E-01  4.80038526E-08  1.05911654E+00  4.09326097E-01  6.39624605E-01
 -8.65328535E-08 -1.71078189E-01  2.02819863E-02  1.12096407E-01  2.56904151E-01
 -6.89894172E-08 -1.26446328E-07 -4.05925296E-03 -8.51556879E-02 -3.01383686E-02
  2.27799719E-01  4.49880112E-09  4.02604171E-01  3.44993069E-01 -5.16068782E-01
  7.61249122E-08 -8.74181387E-01 -3.06208026E-01  7.48803553E-01  1.85376674E-08
  2.07702214E-01 -8.32143739E-02 -9.25413408E-02  1.58989667E-01 -1.73537829E-07
 -7.92802641E-08 -8.97199835E-03 -1.88229714E-01  7.19590904E-04  1.48739920E-01
 -2.22046076E-08  8.89668306E-01  5.90030175E-02  2.17139719E-01  4.83716192E-08
 -1.93381900E+00 -4.29740252E-02  7.46575990E-02 -8.61332879E-08 -2.94844273E-01
  5.70131930E-01 -2.04649494E-01  9.87482351E-02 -1.40627292E-07  3.12573622E-08
 -4.91703126E-03 -1.03142073E-01  5.37497108E-02  2.14990258E-01  2.34022945E-08
  4.87715535E-01 -4.32615750E-01 -3.97386547E-01 -3.02357178E-07 -1.05911654E+00
  4.09326096E-01  6.39624604E-01  2.35659630E-07  1.71078189E-01 -2.02819863E-02
 -1.12096407E-01 -2.56904151E-01 -1.08243212E-07  3.51705942E-07  2.75711455E-01
 -6.72475427E-02  6.09753199E-01 -1.48585956E-01  3.34008645E-01 -8.14452208E-02
 -2.75711455E-01  6.72475427E-02 -6.09753199E-01  1.48585956E-01 -3.34008645E-01
  8.14452208E-02  1.52779394E-04 -4.56005029E-01 -2.60911455E-01 -2.54837410E-02
 -6.40371199E-08  3.65806568E-01  3.06936236E-01 -1.11744695E-01 -4.90431235E-07
 -4.71269994E+00 -9.48926424E-01 -5.56974160E-01  5.09037989E-07  3.06404358E-01
 -2.31366323E-01 -1.41452590E-01 -1.09413619E-01 -4.74140185E-07 -2.49823997E-07
  1.44127563E-05 -4.41800583E-02  1.46215596E-01 -3.82561449E-02  5.31867835E-10
  3.54449676E-02 -3.98091312E-01  6.11245671E-02  2.87066499E-07 -4.56498680E-01
 -2.08569709E-01 -8.63723039E-02 -3.08837179E-07 -9.54223456E-02  1.02692554E-01
 -1.37056291E-02 -5.25404948E-01 -2.81132756E-07  3.92589961E-07 -1.68306139E-04
  5.00176909E-01 -2.58760188E-01  1.05718505E-01  1.95882123E-08 -4.01240608E-01
  3.08648670E-01 -7.52482302E-03  9.71735284E-08  5.16919902E+00 -9.27187521E-01
  7.67324940E-01  3.27459220E-08 -2.68229348E-01  1.85923414E-01  1.55150506E-01
  5.05394586E-02 -1.14372605E-08  3.33209853E-07  1.52779394E-04 -4.56005029E-01
  2.60911455E-01  2.54837410E-02 -1.87911466E-08  3.65806568E-01 -3.06936236E-01
  1.11744695E-01 -2.83571700E-07 -4.71269993E+00  9.48926423E-01  5.56974160E-01
  7.69121781E-08  3.06404358E-01 -2.31366323E-01 -1.41452590E-01 -1.09413619E-01
  4.39974183E-07  2.03101441E-07  1.44127590E-05 -4.41800583E-02 -1.46215596E-01
  3.82561449E-02  2.11511638E-08  3.54449674E-02  3.98091312E-01 -6.11245669E-02
  7.20697681E-08 -4.56498689E-01  2.08569710E-01  8.63723053E-02  4.78942158E-08
 -9.54223456E-02  1.02692554E-01 -1.37056291E-02 -5.25404948E-01  2.70610350E-07
 -1.89146216E-07 -1.68306140E-04  5.00176909E-01  2.58760188E-01 -1.05718505E-01
  4.74482003E-09 -4.01240607E-01 -3.08648670E-01  7.52482289E-03  3.21009434E-07
  5.16919903E+00  9.27187523E-01 -7.67324941E-01 -3.27037050E-07 -2.68229348E-01
  1.85923414E-01  1.55150506E-01  5.05394586E-02  1.51563499E-07 -5.11713409E-07
 -1.70066612E-01  1.91106602E-01 -1.64728590E-02  1.85138533E-02  1.86543452E-01
 -2.09627079E-01 -1.70066612E-01  1.91106602E-01 -1.64728590E-02  1.85138533E-02
  1.86543452E-01 -2.09627079E-01  1.04828830E-04 -3.14291132E-01 -1.04474929E-01
 -1.83014414E-01 -4.41349285E-08  2.52136061E-01  8.51105632E-03  3.68844131E-01
 -3.37985219E-07 -3.24802936E+00 -7.54725030E-01 -1.62732209E-01  3.50809515E-07
 -2.16727478E-01  2.68445947E-01 -9.74942856E-02  3.54545347E-01 -3.54140327E-07
 -1.12080531E-07 -1.85546919E-04  5.52046038E-01  4.07398033E-02  2.97707648E-01
  4.87633044E-09 -4.42855095E-01 -5.91308747E-02 -2.77721578E-01  2.34178448E-07
  5.70523728E+00  1.11417553E-01  1.32033998E+00 -2.32319975E-07  7.22604438E-02
 -1.63100443E-01  1.71239638E-01 -7.03138787E-02 -1.99515121E-07  3.32295290E-07
  7.93781929E-05 -2.37771329E-01  2.67221588E-02 -1.85167512E-01  1.51728047E-08
  1.90733337E-01  1.12741044E-01  3.67142332E-01  4.00867134E-08 -2.45720723E+00
  5.69414283E-01 -1.84479976E-01  3.87837354E-08 -3.61540422E-01  4.00665034E-01
 -7.37562046E-02 -2.18134690E-01  4.17921232E-08  2.24380186E-07  1.04828831E-04
 -3.14291132E-01  1.04474928E-01  1.83014414E-01 -1.29492312E-08  2.52136061E-01
 -8.51105623E-03 -3.68844131E-01 -1.95427009E-07 -3.24802935E+00  7.54725030E-01
  1.62732209E-01  5.30049892E-08 -2.16727478E-01  2.68445947E-01 -9.74942856E-02
  3.54545347E-01  3.05422739E-07  1.35125154E-07 -1.85546919E-04  5.52046038E-01
 -4.07398033E-02 -2.97707648E-01  1.29035834E-08 -4.42855095E-01  5.91308747E-02
  2.77721577E-01  7.65468813E-08  5.70523728E+00 -1.11417553E-01 -1.32033998E+00
  1.67922432E-08  7.22604438E-02 -1.63100443E-01  1.71239638E-01 -7.03138787E-02
  1.57849914E-07 -1.71270941E-07  7.93781942E-05 -2.37771329E-01 -2.67221587E-02
  1.85167512E-01 -1.24044826E-09  1.90733337E-01 -1.12741044E-01 -3.67142332E-01
  1.84892863E-07 -2.45720723E+00 -5.69414282E-01  1.84479976E-01 -2.05904302E-07
 -3.61540422E-01  4.00665034E-01 -7.37562046E-02 -2.18134690E-01  6.16716111E-08
 -3.07790063E-07 -1.17204230E-01  1.31712877E-01  2.05886069E-01 -2.31368095E-01
 -8.86698969E-02  9.96482975E-02 -1.17204230E-01  1.31712877E-01  2.05886069E-01
 -2.31368095E-01 -8.86698969E-02  9.96482974E-02 -2.20407132E-08 -2.32549371E-07
  7.82067211E-08  8.13894868E-09 -8.49613790E-03  2.29309549E-06  1.96540379E-06
  8.34631543E-07 -1.22342001E-01  6.85424716E-06  1.23134961E-06  6.52385774E-07
  7.05043444E-02 -8.88765016E-08  1.52212577E-07 -1.23427914E-08 -2.03755715E-07
 -3.01347300E-01  2.09225417E-01  1.82058010E-08  1.07678596E-07  1.34102723E-07
 -3.42125962E-08  2.60435303E-02 -2.37973677E-06 -1.81252452E-07 -1.58770931E-06
  3.75001240E-01 -5.30283485E-06  1.21108837E-08 -1.21706460E-06 -2.16109297E-01
  1.10143140E-07 -1.60640050E-07 -1.62991097E-08  1.47438707E-07  1.20405887E-01
  5.65865460E-01 -1.17474155E-09 -1.42975176E-07  9.91498984E-08  1.25779445E-07
 -1.75462808E-02  2.03644093E-06 -1.16683693E-06  4.04487352E-07 -2.52659941E-01
  3.18634393E-06 -4.14367001E-07  4.41448406E-07  1.45605179E-01  1.53459421E-07
 -2.40267795E-07  1.46563769E-07 -4.02341345E-08  4.60376745E-01 -2.16165882E-02
  1.91831434E-08  4.83978816E-07 -1.02113603E-07 -1.02416534E-07 -8.49613790E-03
 -2.04534469E-06  1.41307035E-06  6.09425318E-07 -1.22342001E-01 -1.33131597E-06
  1.93673149E-08  2.66111866E-07  7.05043444E-02  8.01718305E-08 -1.59758212E-07
  1.20877758E-07  8.86375419E-08  3.01347300E-01 -2.09225417E-01 -1.13709160E-08
 -3.90795518E-07  2.05225670E-07  8.03385735E-08  2.60435303E-02  2.36813731E-06
 -3.87032106E-07 -1.35050800E-06  3.75001240E-01  1.79523257E-06 -1.64119624E-07
 -3.45661512E-07 -2.16109297E-01 -1.35901087E-08  5.78421652E-08 -1.34889290E-08
  1.85601576E-07 -1.20405887E-01 -5.65865460E-01  8.52123339E-09  9.10195197E-09
  2.17361603E-08  9.09963805E-08 -1.75462808E-02 -2.19354655E-06 -1.20543432E-06
  8.49438301E-07 -2.52659941E-01 -5.14348913E-06 -7.81580599E-07  7.92994442E-07
  1.45605179E-01  1.59849507E-07 -1.12439057E-07 -1.25286709E-07  2.74813033E-07
 -4.60376745E-01  2.16165882E-02  5.72678309E-07  3.46931951E-07 -2.30753886E-08
 -4.35604585E-07  1.84244621E-08  2.71703563E-07 -1.55685027E-07 -3.81962912E-07
 -1.60206207E-08  3.59760707E-07  7.59205374E-09 -4.11615699E-07  6.52877342E-08
  6.88918934E-07 -1.97374220E-07 -9.92320113E-08  2.51692346E-02 -6.79208434E-06
 -5.74617503E-06 -2.63733436E-06  3.62381219E-01 -2.03039972E-05 -3.76211811E-06
 -1.68126809E-06 -2.08836365E-01  3.25173598E-07 -5.12862315E-07  3.66584744E-08
  5.41234748E-07  4.61397646E-01  3.27098850E-01 -3.79373217E-08 -1.56144427E-07
 -3.12756191E-07  1.16420352E-07 -5.22563123E-03  6.74107017E-06  4.86054884E-07
  4.50325315E-06 -7.52402349E-02  1.54470296E-05 -1.57002484E-07  3.42914633E-06
  4.33599233E-02 -5.41585611E-07  5.29520486E-07  2.28188368E-07 -5.12936024E-07
  3.13697119E-01 -1.46154964E-01  2.03046762E-08  8.32365178E-07 -4.52379099E-07
 -3.33475294E-07 -1.99429730E-02 -6.57891514E-06  3.63087876E-06 -1.51176246E-06
 -2.87140975E-01 -7.14602922E-06  1.15166765E-06 -7.50248367E-07  1.65476390E-01
 -5.08627961E-07  5.49491984E-07 -1.69996969E-07  7.78601903E-08  2.30553117E-01
 -4.34627796E-01 -5.68264457E-08 -1.43354491E-06  3.72070693E-07  1.50501515E-07
  2.51692346E-02  6.05820862E-06 -4.14287701E-06 -1.89828287E-06  3.62381219E-01
  3.94571994E-06 -3.77699302E-07 -8.63183394E-08 -2.08836365E-01 -1.37597034E-07
  3.73383554E-07 -3.58119901E-07 -3.62884030E-07 -4.61397646E-01 -3.27098850E-01
  1.68489995E-08  7.48415632E-07 -5.33184150E-07 -9.25228433E-08 -5.22563123E-03
 -6.46655035E-06  1.26799508E-06  3.66201723E-06 -7.52402349E-02 -7.61679404E-06
  1.16347878E-07  1.44799178E-06  4.33599233E-02  1.91331857E-07 -1.06058838E-07
 -2.24218845E-07 -6.05781827E-07 -3.13697119E-01  1.46154964E-01 -4.12205152E-08
 -1.89601700E-07 -1.31222012E-07 -3.23387797E-07 -1.99429730E-02  6.80413605E-06
  3.75393087E-06 -2.60855288E-06 -2.87140975E-01  1.55017310E-05  2.52860261E-06
 -2.37282708E-06  1.65476390E-01 -3.45811848E-07  3.66950886E-07  1.91211909E-07
 -6.49606108E-07 -2.30553117E-01  4.34627796E-01 -1.69620039E-06 -1.02759876E-06
  1.77432670E-08  1.25057507E-06  2.24251362E-09 -9.50013290E-07  4.61102729E-07
  1.13130550E-06 -9.39804111E-09 -9.20176624E-07  2.81182571E-08  1.25874053E-06
 -1.38473597E-02 -2.26466751E-01  5.90041024E-02 -2.87124816E-01 -1.67260511E-09
  3.82443668E-01  3.52867204E-01 -2.65195135E-01  1.48274865E-07 -9.55769951E-01
 -5.92856269E-01  1.11076825E+00  1.02913888E-08  8.75410786E-03  1.49655772E-01
 -1.82382111E-01 -3.69548798E-02  1.49662589E-07  3.35794895E-08  2.73079777E-02
  4.46623613E-01  2.40888805E-01  1.06135110E-01 -4.21836613E-09 -7.54287643E-01
  2.69915743E-01 -4.44550611E-01 -1.05055206E-07  1.88480341E+00 -9.89855754E-01
  2.52405652E-01  1.14929474E-08 -2.97370656E-01 -1.50360414E-02  3.59676090E-01
  1.41032379E-03  3.46253252E-08 -1.48521946E-07  4.11560984E-02  6.73101817E-01
 -1.90623396E-01  6.70296688E-02  1.72242111E-09 -1.13684275E+00  4.66767473E-01
 -4.26764565E-01 -1.14547475E-08  2.84024558E+00 -4.79335790E-02  3.37746845E-01
  3.10899342E-08 -1.73379153E-01 -2.97439207E-01  5.42057997E-01 -2.30797390E-01
 -4.25539969E-08 -9.51461701E-08  1.38473597E-02  2.26466751E-01  5.90041024E-02
 -2.87124816E-01  8.77575423E-09 -3.82443668E-01  3.52867204E-01 -2.65195135E-01
  1.16639878E-07  9.55769950E-01 -5.92856269E-01  1.11076825E+00 -8.99934682E-08
 -8.75410786E-03 -1.49655771E-01  1.82382111E-01  3.69548798E-02 -1.86540566E-07
 -1.82211268E-08 -2.73079777E-02 -4.46623613E-01  2.40888805E-01  1.06135110E-01
 -8.98850140E-09  7.54287643E-01  2.69915743E-01 -4.44550611E-01 -1.10041076E-07
 -1.88480341E+00 -9.89855755E-01  2.52405652E-01  8.77860775E-08  2.97370656E-01
  1.50360414E-02 -3.59676090E-01 -1.41032380E-03 -4.76051843E-08  1.77188600E-07
 -4.11560984E-02 -6.73101817E-01 -1.90623396E-01  6.70296688E-02  9.17109875E-10
  1.13684275E+00  4.66767473E-01 -4.26764565E-01 -1.60173278E-08 -2.84024558E+00
 -4.79335792E-02  3.37746845E-01 -4.21690592E-08  1.73379153E-01  2.97439207E-01
 -5.42057997E-01  2.30797390E-01  6.18952609E-08  1.02812628E-07 -6.32160484E-03
  7.38439966E-02  1.24958527E-02 -1.45638819E-01  1.88124232E-02 -2.19497996E-01
  6.32160484E-03 -7.38439966E-02 -1.24958527E-02  1.45638819E-01 -1.88124232E-02
  2.19497996E-01  3.95277120E-02  6.46462758E-01  2.11145811E-01 -1.38413222E-02
  4.76295595E-09 -1.09172883E+00 -4.92430589E-01 -3.73447675E-01 -4.23410137E-07
  2.72802309E+00  2.31759440E-02  4.94268391E-01 -2.93089080E-08 -1.02701746E-01
 -3.49489105E-01  5.20616196E-01  1.83543646E-01 -3.85692057E-07 -1.87776229E-07
  3.17571012E-02  5.19385108E-01 -1.82112059E-01  1.68051159E-01  3.82041114E-09
 -8.77250541E-01 -3.13093738E-01 -4.56535075E-01  1.57270666E-07  2.19153407E+00
  8.81534881E-01  9.72278621E-02  5.31619388E-08 -3.35823257E-01 -2.74631730E-02
  4.18254635E-01  6.08158709E-02 -2.32878359E-07  2.19422469E-07 -7.77266157E-03
 -1.27114229E-01 -1.43002746E-01 -2.63468049E-01  1.22533302E-08  2.14766449E-01
 -3.30973590E-01 -2.59560338E-01  1.90799226E-07 -5.36246571E-01  7.96162167E-01
  1.03913130E+00 -1.79682369E-07 -2.67262279E-05  8.89318782E-02 -1.02357164E-01
  3.05767391E-02 -1.10891781E-07  3.63284272E-07 -3.95277120E-02 -6.46462758E-01
  2.11145811E-01 -1.38413222E-02 -2.50643172E-08  1.09172883E+00 -4.92430589E-01
 -3.73447675E-01 -3.33157270E-07 -2.72802309E+00  2.31759437E-02  4.94268393E-01
  2.57020755E-07  1.02701746E-01  3.49489105E-01 -5.20616196E-01 -1.83543646E-01
  4.52087653E-07  2.29288364E-07 -3.17571012E-02 -5.19385108E-01 -1.82112059E-01
  1.68051159E-01  8.49766440E-09  8.77250541E-01 -3.13093738E-01 -4.56535075E-01
  1.56238593E-07 -2.19153407E+00  8.81534880E-01  9.72278622E-02 -1.59809597E-07
  3.35823257E-01  2.74631730E-02 -4.18254635E-01 -6.08158710E-02  2.19516187E-07
 -2.70655825E-07  7.77266157E-03  1.27114229E-01 -1.43002746E-01 -2.63468049E-01
  5.62150652E-09 -2.14766449E-01 -3.30973590E-01 -2.59560338E-01  1.88482126E-07
  5.36246572E-01  7.96162167E-01  1.03913130E+00  3.43552118E-08  2.67262113E-05
 -8.89318782E-02  1.02357164E-01 -3.05767391E-02  6.56584772E-08 -3.27013883E-07
  1.80712719E-02 -2.10795607E-01  1.45086894E-02 -1.69385969E-01 -3.54777220E-03
  4.14632555E-02 -1.80712719E-02  2.10795607E-01 -1.45086894E-02  1.69385969E-01
  3.54777221E-03 -4.14632555E-02  4.38021301E-09  7.81597724E-08  1.97978494E-08
  1.36614080E-08  8.45600027E-02 -8.86088165E-07 -9.42306364E-07 -4.12907280E-07
  1.09718889E-01 -1.91017225E-06 -4.00920798E-07 -2.33127507E-07 -3.92021887E-02
  2.26568097E-08  4.69462398E-09 -4.41512464E-08  1.28932336E-08  1.26483556E-01
  1.68087979E-01 -6.46707715E-09 -1.11465603E-07 -2.50927378E-08 -2.17492552E-08
  5.31130678E-02  1.08199547E-06  1.43473443E-07  7.88225808E-07  6.89949498E-02
  1.46513642E-06  4.33983155E-08  3.53009191E-07 -2.47083945E-02 -3.67141199E-08
  5.17414382E-08  9.96569867E-09 -2.56719461E-08  5.47079000E-01  6.38688783E-02
  3.26522024E-09  1.05985866E-07 -1.87399915E-08 -3.84644601E-09 -3.14483247E-02
 -9.43581656E-07  5.16659759E-07 -2.51036900E-07 -4.08714167E-02 -1.18797696E-06
  1.54975040E-07 -1.67471668E-07  1.46509489E-02 -1.19211514E-08  1.65370984E-08
 -2.69829452E-08  7.12358264E-10  4.27174941E-01  4.80125971E-01 -2.35859811E-09
 -6.83422964E-08  6.47786844E-09  4.53386627E-09 -8.45600027E-02  6.96472916E-07
 -4.75756106E-07 -2.13301524E-07 -1.09718889E-01  1.22217785E-06 -1.89256478E-07
 -7.69272472E-08  3.92021887E-02 -2.99766029E-08  6.48149525E-09  3.37830115E-08
 -2.95294843E-08  1.26483556E-01  1.68087979E-01  3.51822019E-09  1.02620716E-07
 -1.59594970E-08 -8.26293493E-09 -5.31130678E-02 -9.50295233E-07  1.52772111E-07
  5.53329831E-07 -6.89949498E-02 -1.19715785E-06 -4.88484567E-08  2.41300490E-07
  2.47083945E-02 -7.85586287E-10  3.44824284E-09 -2.59252463E-08 -1.58127026E-08
  5.47079000E-01  6.38688783E-02 -5.81311255E-09 -1.02636242E-07 -2.98446559E-08
 -3.62239505E-09  3.14483247E-02  1.05005264E-06  6.95605641E-07 -3.86213329E-07
  4.08714167E-02  1.59756187E-06  2.69486062E-07 -2.59632342E-07 -1.46509489E-02
 -5.30275914E-09  1.30751818E-08  1.73400123E-08 -5.00494776E-08  4.27174941E-01
  4.80125971E-01 -1.82359043E-07 -3.26942666E-07  2.28591392E-08  2.45740097E-07
 -2.73502567E-08 -1.31782196E-07  6.72498041E-08  1.13706548E-07 -3.03315742E-08
 -1.29329688E-07  2.80464926E-08  2.41185555E-07 -6.50681596E-10 -1.16136171E-08
 -1.50261213E-08  2.45697731E-08 -1.25095227E-02  1.31629292E-07  9.75614276E-08
  1.54116152E-07 -1.62781008E-02  2.86166364E-07  1.90961391E-07 -2.52826881E-07
  5.85098970E-03 -6.22910035E-09  2.18969933E-09  6.54354749E-09  9.82786478E-10
 -3.06656439E-01  6.07271191E-01 -1.29739063E-09 -1.39850177E-08 -5.83863172E-09
 -2.36028184E-09  6.69792415E-02 -5.02954148E-08 -9.65800096E-08 -8.26069866E-08
  8.69858792E-02 -6.79246110E-07  2.06775467E-07 -1.24439732E-07 -3.11371562E-02
  9.10823427E-09  1.37028693E-08 -2.69318252E-08 -2.46809685E-08 -4.10905349E-01
  1.86799629E-01 -1.35846825E-09 -4.10237748E-09 -4.23269923E-09  1.01373606E-08
  7.94847739E-02  1.63245351E-07 -8.03081388E-08  2.67618368E-08  1.03139289E-01
  2.10788812E-07 -7.72027704E-09  1.19086731E-07 -3.68543563E-02  1.86032496E-09
  4.22405145E-09  3.42193157E-10  1.82705005E-08  5.47503002E-03  3.06671168E-01
  3.50063141E-10  1.01393929E-08 -5.08892932E-09  8.38711897E-09  1.25095227E-02
 -1.03382760E-07  6.18355641E-08  5.09760084E-08  1.62781008E-02 -1.83570797E-07
  5.41734237E-09  6.22694861E-08 -5.85098970E-03  2.02859188E-08 -1.67913579E-08
 -5.01476502E-09 -1.15145648E-08 -3.06656439E-01  6.07271191E-01  3.50832152E-10
 -2.68676369E-08 -2.33628663E-10  1.28042986E-08 -6.69792415E-02  1.17883926E-07
 -1.24061128E-08 -8.63443957E-08 -8.69858792E-02  1.48217622E-07 -7.41203237E-08
  1.35929357E-08  3.11371562E-02 -1.94744523E-08  1.23214968E-08  7.49627397E-09
  3.60359087E-09 -4.10905349E-01  1.86799629E-01  3.12314210E-09  4.57459748E-08
  1.49125576E-08  4.08310049E-09 -7.94847739E-02 -2.66238449E-07 -7.97624481E-08
  1.36747643E-07 -1.03139289E-01  2.19203796E-07 -1.26494964E-07 -1.69076373E-07
  3.68543563E-02  1.14763797E-08 -3.77000395E-08  2.29115282E-08  2.15357836E-08
  5.47503002E-03  3.06671168E-01  2.70874627E-08  4.84298699E-08 -2.13079313E-08
 -2.06890590E-08  1.43624025E-08  1.10844913E-08 -9.99252182E-09 -1.68649212E-08
 -5.79347376E-09  2.76642713E-08  1.37703769E-08 -5.15579326E-08 -2.03473728E-08
 -2.76118700E-07  1.35152264E-07  6.15484752E-08 -1.59281223E-02  3.32005794E-06
  2.70728679E-06  1.23288032E-06 -4.33380724E-01  1.11975085E-05  1.78725111E-06
  8.15075180E-07  4.63310964E-01  3.19272931E-08  6.22159151E-08  4.56809506E-08
 -2.01111239E-08 -4.47923404E-01 -2.04077711E-01  3.47322575E-08  3.24930507E-07
  9.44591437E-08  3.10242194E-08  1.59060631E-02 -3.63382859E-06 -4.17540412E-07
 -2.39001936E-06  4.33352199E-01 -7.34315524E-06  6.31935104E-07 -1.77835660E-06
 -4.63300273E-01  1.72271926E-07 -3.75493686E-07  1.31153946E-07  1.93325771E-07
  4.72772300E-02  4.89897898E-01 -1.13550120E-08 -3.91349955E-07  1.00414213E-07
  2.74025280E-08 -1.59226475E-02  2.85407926E-06 -1.65848491E-06  4.98858598E-07
 -4.33373866E-01  5.38197088E-06 -4.59208139E-07  1.28748608E-06  4.63307698E-01
  1.29155078E-07 -1.08013457E-07  3.71418100E-08  4.05838624E-08  4.00586378E-01
 -2.86012434E-01 -3.68088679E-09  8.71088541E-08 -7.87906881E-09 -3.59448827E-09
  1.59281223E-02 -1.52488446E-06  1.21721262E-06  5.54364887E-07  4.33380724E-01
 -7.13555952E-06  8.91171538E-07  4.04439378E-07 -4.63310964E-01  2.20044467E-07
 -1.30941073E-08 -1.98069148E-07  1.54689121E-07 -4.47923404E-01 -2.04077711E-01
 -1.13537144E-08 -3.91352079E-07  8.65961948E-08  5.77565099E-08 -1.59060631E-02
  2.85407190E-06 -7.12426905E-07 -1.57855527E-06 -4.33352199E-01  5.38190709E-06
  6.72321261E-07 -1.19172651E-06  4.63300273E-01  2.90087452E-08 -7.86940198E-09
  3.71547634E-08  1.41209729E-07  4.72772300E-02  4.89897898E-01  3.47295752E-08
  3.24935473E-07  8.54115577E-08  5.08850440E-08  1.59226475E-02 -3.63375075E-06
 -2.07709173E-06  1.25388060E-06  4.33373866E-01 -7.34226215E-06 -9.25321893E-07
  1.64590189E-06 -4.63307698E-01  2.63766426E-08 -2.29581561E-07  1.31128313E-07
  3.39919558E-07  4.00586378E-01 -2.86012434E-01  7.79345365E-07  3.43284959E-07
  7.90801826E-08 -7.33691792E-07  6.58392206E-08  3.47873687E-07 -3.08731593E-07
 -2.01834638E-07  6.58489014E-08  3.47858658E-07  7.90681365E-08 -7.33700729E-07
 -5.44840510E-03 -1.94137186E-02  1.18741153E-01 -2.41518140E-01 -3.99945138E-09
  2.00006650E-01  3.78701254E-01 -5.84639506E-01  2.34448556E-08 -2.68212606E-01
 -3.94358812E-01  8.25313870E-01  2.74975838E-08  2.54069923E-01 -2.10721344E-01
 -4.21303438E-02 -2.28977839E-01  2.15149916E-08  1.17136627E-09  8.15545145E-02
  2.90483608E-01 -1.31465318E-01 -1.07123524E-01  2.15543830E-10 -2.99390266E+00
 -4.54546139E-01 -1.49482860E+00 -8.49062985E-09  4.01383313E+00  4.32098030E-01
  2.11382823E-01 -1.39981648E-08 -3.07300493E-01 -3.41552637E-01  6.30628388E-01
 -1.64916727E-01  1.73306046E-08 -9.98800832E-09 -7.61069571E-02 -2.71076162E-01
 -1.76823466E-01 -5.61726039E-02  1.24590822E-09  2.79389182E+00 -1.38425202E+00
  5.20803262E-01  4.21335091E-09 -3.74562211E+00  4.84500274E-01  2.74164860E-01
  4.37832018E-09  4.75562148E-01  1.29946220E-01 -5.88503749E-01  1.83158857E-02
  8.31144912E-09  1.88228773E-08 -5.44840510E-03 -1.94137186E-02 -1.18741153E-01
  2.41518140E-01  2.00126741E-10  2.00006650E-01 -3.78701254E-01  5.84639506E-01
 -3.34524682E-09 -2.68212606E-01  3.94358812E-01 -8.25313870E-01 -4.29448752E-09
  2.54069923E-01 -2.10721344E-01 -4.21303438E-02 -2.28977839E-01 -7.15878425E-09
  2.27294123E-08  8.15545145E-02  2.90483608E-01  1.31465318E-01  1.07123524E-01
  2.26687219E-10 -2.99390266E+00  4.54546139E-01  1.49482860E+00  4.69409098E-09
  4.01383313E+00 -4.32098031E-01 -2.11382823E-01  4.52929546E-09 -3.07300493E-01
 -3.41552637E-01  6.30628388E-01 -1.64916727E-01 -2.44054135E-08 -1.40937484E-09
 -7.61069571E-02 -2.71076162E-01  1.76823466E-01  5.61726039E-02 -1.42200666E-09
  2.79389182E+00  1.38425202E+00 -5.20803262E-01 -1.31837943E-08 -3.74562212E+00
 -4.84500275E-01 -2.74164861E-01 -1.29057907E-08  4.75562148E-01  1.29946220E-01
 -5.88503749E-01  1.83158857E-02 -1.89498270E-08 -2.01170465E-09 -1.63072184E-02
  3.91888884E-02  2.43973379E-01 -5.86352168E-01 -2.27668887E-01  5.47175220E-01
 -1.63072184E-02  3.91888884E-02  2.43973379E-01 -5.86352168E-01 -2.27668887E-01
  5.47175220E-01  9.10257329E-02  3.24204685E-01 -1.14471641E-01 -6.98333100E-02
  6.67881308E-08 -3.34159337E+00 -1.53861798E+00 -7.46029383E-01 -3.91478610E-07
  4.47990671E+00  2.33230239E-01  1.66305729E-01 -4.59338863E-07 -3.80637182E-01
 -3.43571727E-01  7.03868862E-01 -5.67572113E-02 -3.04700206E-07 -1.39305992E-07
 -4.07940377E-02 -1.45295550E-01 -2.34177149E-01  8.25455294E-02  1.01222958E-08
  1.49756808E+00 -5.40849661E-01  8.21879264E-01  1.81064163E-07 -2.00770371E+00
  8.03506653E-01 -2.04180142E-01  2.24750148E-07  8.82486190E-02  2.36311798E-01
 -3.15445401E-01 -3.05329599E-01 -2.72170819E-08  1.91776066E-07 -5.02318869E-02
 -1.78904465E-01  7.08636619E-02  2.25753576E-01 -1.22746741E-08  1.84402741E+00
 -4.33199539E-01  1.01690792E+00 -7.42965460E-08 -2.47220238E+00 -3.17825037E-01
 -7.12441104E-01 -7.45377685E-08 -3.28896456E-02  4.32535959E-01 -3.88424867E-01
 -1.25548216E-01  7.39593168E-08 -9.97833554E-09  9.10257329E-02  3.24204685E-01
  1.14471641E-01  6.98333100E-02 -3.33617915E-09 -3.34159337E+00  1.53861798E+00
  7.46029383E-01  5.57436622E-08  4.47990671E+00 -2.33230239E-01 -1.66305730E-01
  7.18862146E-08 -3.80637182E-01 -3.43571727E-01  7.03868862E-01 -5.67572113E-02
 -4.46337186E-08 -1.87543703E-08 -4.07940377E-02 -1.45295550E-01  2.34177149E-01
 -8.25455294E-02 -1.23346669E-08  1.49756808E+00  5.40849661E-01 -8.21879264E-01
 -7.42655958E-08 -2.00770370E+00 -8.03506654E-01  2.04180142E-01 -7.45279754E-08
  8.82486190E-02  2.36311798E-01 -3.15445401E-01 -3.05329599E-01  3.83486864E-08
  6.26232808E-08 -5.02318869E-02 -1.78904465E-01 -7.08636619E-02 -2.25753576E-01
  1.00243895E-08  1.84402741E+00  4.33199539E-01 -1.01690792E+00  1.80782534E-07
 -2.47220238E+00  3.17825036E-01  7.12441104E-01  2.24813860E-07 -3.28896457E-02
  4.32535959E-01 -3.88424867E-01 -1.25548216E-01  1.25416175E-07 -1.47752456E-07
  2.72300083E-01 -6.54431888E-01 -1.22038037E-01  2.93287003E-01 -1.50263720E-01
  3.61141097E-01  2.72300083E-01 -6.54431888E-01 -1.22038037E-01  2.93287003E-01
 -1.50263720E-01  3.61141097E-01 -3.51453547E-12 -1.32682862E-11  8.38929794E-09
 -1.84178613E-08 -2.86160164E-08  1.14829874E-10  6.76439857E-08 -1.48385442E-07
  3.74082544E-07  1.21222342E-09 -1.78097118E-07  3.91749396E-07 -3.61995282E-07
  4.59084091E-08 -4.58813512E-08 -2.78029952E-11 -4.61444356E-08  2.28921387E-01
 -5.02659370E-01 -1.49958399E-09 -1.36307572E-08  3.52484225E-08 -1.22541854E-08
 -1.80248086E-06  2.78029662E-09  1.36106736E-07  4.27176325E-08 -1.93381022E-06
  4.02476238E-07 -3.20257892E-07  3.75719873E-08  1.37460826E-06  3.13009993E-08
 -3.05838984E-08 -1.14840741E-08  5.38371771E-08  5.49771974E-01 -5.30828054E-02
  6.46996729E-09 -1.28668168E-08  2.50688323E-08 -1.55908610E-08  1.87765904E-06
 -2.33039354E-07  5.54251014E-08 -5.39601477E-08  1.58221991E-06  4.49023583E-07
 -1.80818156E-08 -4.35316187E-08 -1.02164302E-06  3.72171409E-09 -5.12669255E-08
  4.27684910E-08 -2.81518052E-08  3.20852520E-01  4.49577653E-01 -4.98656656E-12
 -4.88846982E-12  2.26616566E-08 -4.97924506E-08 -2.86160169E-08  1.70501333E-10
  4.95749146E-08 -1.09060044E-07  3.74082519E-07 -1.35742833E-09 -4.97640844E-08
  1.09927718E-07 -3.61995237E-07 -5.10923583E-08  5.11279844E-08 -3.51534615E-11
  5.13217642E-08 -2.28921387E-01  5.02659370E-01 -6.46449767E-09  1.28902528E-08
 -4.74102433E-09 -2.91344183E-08 -1.80248085E-06  2.32830565E-07  4.28108254E-09
 -7.71310758E-08 -1.93381020E-06 -4.45858498E-07  4.45419264E-08 -1.54842075E-08
  1.37460822E-06  5.16855095E-08 -4.17565871E-09 -4.27307325E-08 -2.75139297E-08
 -5.49771974E-01  5.30828054E-02  1.50303283E-09  1.36238904E-08 -1.38861809E-08
 -3.46072328E-08  1.87765904E-06 -2.85734356E-09 -1.21587779E-07 -7.45681962E-08
  1.58221992E-06 -4.05496510E-07  1.81303713E-07  2.66424762E-07 -1.02164299E-06
 -4.22655688E-08  4.15272705E-08  1.15097207E-08 -4.28507010E-08 -3.20852520E-01
 -4.49577653E-01 -1.55555919E-12  1.03531802E-11  1.73100676E-08  7.12715892E-09
 -1.87559705E-09 -1.60641012E-08  2.84677224E-13  2.73806377E-11  1.88168685E-09
  1.60208664E-08 -1.73220318E-08 -7.11987515E-09  6.99092007E-03 -1.84399740E-02
  1.27995917E-01 -3.29098009E-01 -3.50430199E-09 -1.47959687E-01 -4.84099291E-02
 -8.90121336E-02 -1.84353942E-08 -2.27786704E-01  2.43497056E-02 -1.17461813E-01
  1.82216652E-08  4.11188055E-02 -6.43304645E-02  4.23300623E-02  1.38287210E-01
  8.55268769E-08  1.62419205E-09  2.82342017E-02 -7.44570450E-02 -2.41180466E-01
 -5.75101379E-02 -6.57647728E-09 -5.97590947E-01 -7.18027426E-02 -3.21579314E-01
  2.66195563E-09 -9.19674687E-01 -8.76810353E-02 -9.91500442E-02 -5.82083767E-09
 -5.37152826E-01  4.43399618E-01  1.70956066E-01  1.40748900E-01  2.87097267E-08
 -2.49902577E-08 -3.52248620E-02  9.29022256E-02 -1.50223536E-01 -3.77650814E-02
  1.79046640E-09  7.45541198E-01 -3.43917192E-01  2.20352654E-01 -1.30634773E-09
  1.14746232E+00 -1.31482894E-01  4.58266504E-02  3.46182382E-10 -1.58442020E-01
  2.75407080E-01 -2.13284001E-01  6.82518428E-01  6.28421113E-09  1.94255721E-08
  6.99092006E-03 -1.84399740E-02 -1.27995917E-01  3.29098009E-01 -6.44814288E-10
 -1.47959687E-01  4.84099291E-02  8.90121336E-02  3.55149948E-10 -2.27786702E-01
 -2.43497059E-02  1.17461813E-01  1.44854299E-10  4.11188055E-02 -6.43304645E-02
  4.23300623E-02  1.38287210E-01 -6.04484250E-09  1.98569752E-08  2.82342017E-02
 -7.44570450E-02  2.41180466E-01  5.75101379E-02  2.63929836E-09 -5.97590947E-01
  7.18027426E-02  3.21579314E-01 -1.59880725E-09 -9.19674689E-01  8.76810353E-02
  9.91500445E-02  1.02611611E-09 -5.37152826E-01  4.43399618E-01  1.70956066E-01
  1.40748900E-01 -2.42769396E-08 -3.95185293E-09 -3.52248620E-02  9.29022256E-02
  1.50223536E-01  3.77650814E-02 -4.50712344E-09  7.45541198E-01  3.43917192E-01
 -2.20352654E-01  6.06180917E-09  1.14746232E+00  1.31482894E-01 -4.58266506E-02
 -7.68291428E-09 -1.58442020E-01  2.75407080E-01 -2.13284001E-01  6.82518428E-01
 -2.74832112E-08 -8.94178667E-09 -6.67191463E-02  2.88858841E-02 -2.69402983E-01
  1.16583524E-01  3.36123015E-01 -1.45466191E-01 -6.67191463E-02  2.88858841E-02
 -2.69402983E-01  1.16583524E-01  3.36123015E-01 -1.45466191E-01 -3.66375073E-02
  9.66365010E-02  1.22869764E-01 -1.79840130E-02  1.83610142E-08  7.75433942E-01
  3.90972917E-01  1.65227280E-01  9.66161411E-08  1.19354413E+00  1.35717112E-01
  3.74085804E-02 -9.53360009E-08 -3.74551801E-01  4.96209406E-01 -2.21838773E-01
 -5.64718821E-01 -3.71717629E-07 -1.76384823E-07  2.43755329E-02 -6.42839653E-02
  2.63746152E-01 -9.52208861E-02  2.88428008E-08 -5.15941808E-01  1.96441667E-02
 -2.85510131E-01 -2.31777150E-08 -7.93929884E-01  8.07350336E-02 -1.00700120E-01
  3.54445669E-08 -4.73734716E-01  3.92785666E-01  1.47595386E-01  6.23081973E-02
 -5.19327735E-09  1.03452403E-07  1.22607942E-02 -3.23522813E-02 -1.68471659E-01
 -2.96189870E-01 -1.16836744E-08 -2.59486092E-01  8.15385990E-02 -1.30177775E-01
  7.62844412E-09 -3.99614154E-01 -2.74768986E-02 -1.18618646E-01 -3.57353125E-09
  1.55739073E-02 -5.62858257E-02  7.42393231E-02 -2.53332010E-01  3.54952383E-08
 -6.36726525E-09 -3.66375073E-02  9.66365010E-02 -1.22869764E-01  1.79840130E-02
  3.37218566E-09  7.75433942E-01 -3.90972917E-01 -1.65227280E-01 -1.84665348E-09
  1.19354413E+00 -1.35717112E-01 -3.74085804E-02 -8.42383155E-10 -3.74551801E-01
  4.96209406E-01 -2.21838773E-01 -5.64718821E-01 -1.46344167E-08 -2.36636855E-09
  2.43755329E-02 -6.42839653E-02 -2.63746152E-01  9.52208861E-02 -1.15225819E-08
 -5.15941808E-01 -1.96441667E-02  2.85510131E-01  7.57137972E-09 -7.93929883E-01
 -8.07350337E-02  1.00700120E-01 -3.44533130E-09 -4.73734716E-01  3.92785666E-01
  1.47595386E-01  6.23081973E-02  1.03147507E-08  3.17298479E-08  1.22607942E-02
 -3.23522813E-02  1.68471659E-01  2.96189870E-01  2.92365895E-08 -2.59486092E-01
 -8.15385991E-02  1.30177775E-01 -2.25296838E-08 -3.99614154E-01  2.74768986E-02
  1.18618646E-01  3.50921860E-08  1.55739073E-02 -5.62858257E-02  7.42393231E-02
 -2.53332010E-01  6.94116117E-08 -8.07650587E-08  3.49601600E-01 -1.51304824E-01
 -2.32574423E-01  1.00646760E-01 -1.17024252E-01  5.06538296E-02  3.49601600E-01
 -1.51304824E-01 -2.32574423E-01  1.00646760E-01 -1.17024252E-01  5.06538296E-02
  2.88638613E-02 -2.11287450E-01 -2.27033825E-01 -1.06544729E-01  9.67366165E-09
 -1.28904193E+00 -1.11801058E-01 -6.25290472E-02 -2.55014928E-09  4.92178107E+00
 -4.90434959E-02  3.13763764E-04 -4.18124898E-08 -9.93180233E-02 -1.74038616E-01
  1.76319718E-01  3.97479995E-02 -9.97855713E-08 -4.48698111E-08  1.46162665E-02
 -1.06995079E-01 -3.44453251E-01 -9.43196238E-02  6.55662021E-09 -6.52700238E-01
 -1.23223037E+00  5.40597415E-02  6.24272082E-09  2.49245414E+00  2.38781950E+00
 -2.53172335E-01  1.77559183E-08 -2.18937935E-01  8.05187958E-02  8.92832284E-02
 -7.32664773E-01 -4.71559345E-09  3.19830195E-08 -1.42461119E-02  1.04289915E-01
 -2.96317096E-01 -2.02126008E-01 -2.97174342E-09  6.36180184E-01 -7.72916918E-01
 -9.74599555E-01 -2.41262446E-09 -2.42935635E+00  1.38892703E+00  1.98393368E+00
 -4.27639514E-09  6.80691312E-01 -5.45776678E-01 -8.70214248E-02  2.73842268E-01
  9.79260772E-09 -2.30106081E-09 -2.88638613E-02  2.11287450E-01 -2.27033825E-01
 -1.06544729E-01  4.11702281E-10  1.28904193E+00 -1.11801058E-01 -6.25290472E-02
  2.33399867E-09 -4.92178107E+00 -4.90434965E-02  3.13765501E-04  3.56428433E-09
  9.93180234E-02  1.74038616E-01 -1.76319718E-01 -3.97479995E-02 -4.02167693E-09
 -2.14081114E-09 -1.46162665E-02  1.06995079E-01 -3.44453251E-01 -9.43196238E-02
 -2.98828692E-09  6.52700238E-01 -1.23223037E+00  5.40597415E-02 -2.40195894E-09
 -2.49245414E+00  2.38781950E+00 -2.53172335E-01 -4.28388739E-09  2.18937935E-01
 -8.05187958E-02 -8.92832284E-02  7.32664773E-01  5.28943691E-09  8.84236185E-09
  1.42461119E-02 -1.04289915E-01 -2.96317096E-01 -2.02126008E-01  6.52227472E-09
 -6.36180184E-01 -7.72916918E-01 -9.74599555E-01  6.17366098E-09  2.42935635E+00
  1.38892703E+00  1.98393368E+00  1.77834851E-08 -6.80691312E-01  5.45776678E-01
  8.70214248E-02 -2.73842268E-01  2.14225515E-08 -2.38583783E-08  8.64440553E-02
 -6.31093833E-02  4.37756305E-02 -3.19525948E-02 -4.26660576E-02  3.11380477E-02
 -8.64440553E-02  6.31093834E-02 -4.37756305E-02  3.19525948E-02  4.26660576E-02
 -3.11380478E-02 -2.14093453E-04  1.55552291E-03  1.62122360E-01 -3.51513865E-01
 -7.32031395E-11  9.59227119E-03  5.92893153E-01 -1.29951216E+00  2.64833047E-11
 -3.65680475E-02 -1.15376438E+00  2.53415954E+00  3.19772594E-10  5.70654999E-01
 -5.68630165E-01 -1.30642955E-03 -5.72938506E-01 -2.83033550E-08  6.41159746E-08
  2.48905673E-02 -1.82193078E-01  1.74335413E-01 -2.34083953E-01  2.35741661E-09
 -1.11158690E+00  7.09414483E-01 -1.79103547E-01  4.60078110E-09  4.24430930E+00
 -1.40723481E+00  9.73396809E-02 -2.03454554E-09 -8.74101677E-02 -1.48311236E-01
  1.52046549E-01  4.43198326E-01 -5.20024593E-08  1.06764726E-08  2.51029685E-02
 -1.83770315E-01  6.65339797E-02 -2.82223866E-01  1.20715361E-09 -1.12102583E+00
 -3.19226616E-01 -6.38338437E-01 -6.03615408E-10  4.28051556E+00  8.29895057E-01
  1.09619794E+00  5.32051200E-10  2.48035717E-01 -4.85772291E-01  1.53346027E-01
  9.20116860E-02 -2.32077216E-08 -3.19108603E-08  2.14093452E-04 -1.55552293E-03
  1.62122360E-01 -3.51513865E-01 -2.43772181E-12 -9.59227112E-03  5.92893153E-01
 -1.29951216E+00 -2.09427870E-11  3.65680468E-02 -1.15376438E+00  2.53415954E+00
 -2.55593020E-11 -5.70654999E-01  5.68630165E-01  1.30642954E-03  5.72938506E-01
  1.52014217E-08 -3.32896787E-08 -2.48905673E-02  1.82193078E-01  1.74335413E-01
 -2.34083953E-01 -1.16250459E-09  1.11158690E+00  7.09414483E-01 -1.79103547E-01
  6.45424324E-10 -4.24430930E+00 -1.40723481E+00  9.73396808E-02 -4.69285784E-10
  8.74101677E-02  1.48311236E-01 -1.52046549E-01 -4.43198326E-01  3.92328765E-08
 -3.57544165E-09 -2.51029685E-02  1.83770315E-01  6.65339797E-02 -2.82223866E-01
 -2.45361799E-09  1.12102583E+00 -3.19226616E-01 -6.38338437E-01 -4.70148159E-09
 -4.28051556E+00  8.29895057E-01  1.09619794E+00  1.76340442E-09 -2.48035717E-01
  4.85772291E-01 -1.53346027E-01 -9.20116860E-02  2.57640930E-08  4.65995805E-08
 -6.46795174E-04  4.81860252E-04  7.45407689E-02 -5.44246444E-02  7.51809555E-02
 -5.48709725E-02  6.46795163E-04 -4.81860232E-04 -7.45407689E-02  5.44246444E-02
 -7.51809555E-02  5.48709725E-02  1.07319093E-01  7.31365490E-01 -1.00383331E-01
 -4.57228700E-02  1.37476213E-07 -8.36004573E+00 -4.48302395E+00 -2.04166390E+00
 -9.87130093E-07  1.20262590E+01  1.81462586E+00  8.26492851E-01 -1.22276045E-06
 -3.99488307E-01 -2.13337353E-01  5.25323203E-01 -1.23516547E-01  7.27816111E-08
  3.31469108E-08 -1.07319214E-01 -7.31365958E-01  1.06009060E-02  1.09795154E-01
 -2.92141674E-08  8.36002754E+00  4.73423469E-01  4.90320950E+00  3.50780291E-07
 -1.20260265E+01 -1.91621733E-01 -1.98474188E+00  6.89891944E-07  1.67245784E-01
  4.45579118E-01 -5.25321596E-01  3.13321455E-02 -2.79234965E-08  1.35672912E-07
  1.07320144E-01  7.31364534E-01  8.97883079E-02 -6.40807739E-02 -8.16299218E-09
 -8.36004639E+00  4.00963384E+00 -2.86160032E+00 -1.03730018E-07  1.20262309E+01
 -1.62299757E+00  1.15837155E+00 -3.16023824E-07 -3.52511422E-01 -2.60318293E-01
  5.25327361E-01  1.54834690E-01  3.83149199E-08  2.28629942E-08 -1.07319093E-01
 -7.31365490E-01 -1.00383331E-01 -4.57228700E-02 -1.51545106E-08  8.36004573E+00
 -4.48302395E+00 -2.04166390E+00  6.70964116E-08 -1.20262589E+01  1.81462586E+00
  8.26492850E-01  3.01634419E-07  3.99488307E-01  2.13337353E-01 -5.25323203E-01
  1.23516547E-01 -2.56171527E-08 -1.16723492E-08  1.07319214E-01  7.31365958E-01
  1.06009060E-02  1.09795154E-01 -8.15921582E-09 -8.36002754E+00  4.73423469E-01
  4.90320950E+00 -1.03732184E-07  1.20260265E+01 -1.91621732E-01 -1.98474188E+00
 -3.16015347E-07 -1.67245784E-01 -4.45579118E-01  5.25321596E-01 -3.13321455E-02
  4.24080507E-08  1.39026456E-08 -1.07320144E-01 -7.31364534E-01  8.97883079E-02
 -6.40807739E-02 -2.92124354E-08  8.36004639E+00  4.00963384E+00 -2.86160032E+00
  3.50780026E-07 -1.20262309E+01 -1.62299757E+00  1.15837155E+00  6.89881968E-07
  3.52511422E-01  2.60318293E-01 -5.25327361E-01 -1.54834690E-01  8.40235719E-08
 -1.10123221E-07  1.41919819E-01 -1.46634744E+00 -1.41917916E-01  1.46633033E+00
  1.41920715E-01 -1.46635163E+00 -1.41919819E-01  1.46634744E+00  1.41917916E-01
 -1.46633033E+00 -1.41920715E-01  1.46635163E+00 -4.26726850E-08  3.77246621E-06
 -1.64805774E-01  3.61883359E-01  6.77165488E-13 -6.02084118E-06 -7.91961094E-01
  1.73896331E+00  6.42653009E-13  1.37451806E-04  2.90099884E+00 -6.36991515E+00
 -1.13865449E-11 -4.68832904E-01  4.68834722E-01 -1.08212473E-06  4.71070246E-01
  8.07155197E-09 -1.77359736E-08  7.01486142E-07  1.83334507E-06 -3.95795157E-01
  3.82173394E-02 -1.18408746E-09  1.56187247E-05 -1.90196360E+00  1.83632587E-01
 -2.20550185E-09 -1.62117495E-04  6.96700994E+00 -6.72664836E-01  7.18252645E-10
 -1.18897962E-01  1.18901833E-01  1.69156752E-06 -7.04360291E-01  1.02072244E-08
 -3.58286292E-09 -4.42356088E-07 -8.72461305E-06 -2.30990359E-01 -3.23670051E-01
 -4.60505281E-10 -6.43950457E-06 -1.11000954E+00 -1.55532511E+00  4.29512042E-10
  2.60302814E-05  4.06601914E+00  5.69723125E+00 -1.51081072E-10  5.87720067E-01
 -5.87724454E-01  4.67360782E-07  2.33279878E-01  2.64029398E-09  3.84996845E-09
 -4.26720232E-08  3.77247194E-06  1.64805774E-01 -3.61883359E-01  2.02883517E-12
 -6.02083817E-06  7.91961094E-01 -1.73896331E+00 -7.29338351E-12  1.37456557E-04
 -2.90099884E+00  6.36991514E+00  1.05310865E-11 -4.68832904E-01  4.68834722E-01
 -1.08212044E-06  4.71070246E-01 -1.57333338E-09  3.45894821E-09  7.01484814E-07
  1.83333333E-06  3.95795157E-01 -3.82173395E-02  4.60116396E-10  1.56187858E-05
  1.90196360E+00 -1.83632587E-01 -4.21220082E-10 -1.62123291E-04 -6.96700994E+00
  6.72664837E-01  1.33630507E-10 -1.18897962E-01  1.18901833E-01  1.69155990E-06
 -7.04360291E-01 -4.63583474E-09  5.33451088E-10 -4.42354725E-07 -8.72460763E-06
  2.30990359E-01  3.23670051E-01  1.18630560E-09 -6.43954304E-06  1.11000954E+00
  1.55532511E+00  2.20036595E-09  2.60361355E-05 -4.06601914E+00 -5.69723125E+00
 -7.00026349E-10  5.87720067E-01 -5.87724454E-01  4.67368219E-07  2.33279878E-01
 -3.99663822E-09 -1.00550014E-08  6.22083173E-06 -7.34005206E-06  3.23494756E-08
 -1.62901035E-06 -1.88454592E-06  2.52559013E-06  6.22083871E-06 -7.34007358E-06
  3.23370536E-08 -1.62898127E-06 -1.88453503E-06  2.52555504E-06  7.60391107E-02
  7.04475874E-02 -9.37626222E-02 -4.26999016E-02  2.81211259E-08 -4.12671245E+00
 -2.11749352E+00 -9.64337311E-01 -4.92885824E-07 -2.52422020E+00 -4.45137870E-01
 -2.02723140E-01 -2.98864735E-07  2.77760829E-01 -4.82017344E-01  3.15305850E-01
  5.04105486E-01  2.53400543E-07  1.15401115E-07 -7.60401858E-02 -7.04514264E-02
  9.89404107E-03  1.02550091E-01 -3.15796159E-08  4.12672332E+00  2.23609503E-01
  2.31595709E+00  1.90747186E-07  2.52420941E+00  4.70091733E-02  4.86855251E-01
  1.68680191E-07  6.70148381E-01 -4.65894017E-01 -3.15309025E-01 -1.27845798E-01
 -1.53216946E-08  7.37267981E-09  7.60390012E-02  7.04534573E-02  8.38586200E-02
 -5.98530397E-02  5.84052089E-09 -4.12670234E+00  1.89389266E+00 -1.35162627E+00
 -6.76642567E-08 -2.52421937E+00  3.98131929E-01 -2.84138997E-01 -7.62777505E-08
  8.59973845E-02 -2.90254032E-01  3.15303617E-01 -6.31941272E-01  3.94510649E-09
  7.81255248E-09 -7.60391107E-02 -7.04475874E-02 -9.37626222E-02 -4.26999016E-02
 -7.50912264E-09  4.12671245E+00 -2.11749352E+00 -9.64337311E-01  4.37926838E-08
  2.52422020E+00 -4.45137871E-01 -2.02723138E-01  8.01445100E-08 -2.77760829E-01
  4.82017344E-01 -3.15305850E-01 -5.04105486E-01 -7.84450727E-09 -3.57545234E-09
  7.60401858E-02  7.04514264E-02  9.89404107E-03  1.02550091E-01  5.84138343E-09
 -4.12672332E+00  2.23609503E-01  2.31595709E+00 -6.76624688E-08 -2.52420941E+00
  4.70091716E-02  4.86855251E-01 -7.62766580E-08 -6.70148381E-01  4.65894017E-01
  3.15309025E-01  1.27845798E-01  8.48469283E-09 -2.15084356E-09 -7.60390012E-02
 -7.04534573E-02  8.38586200E-02 -5.98530397E-02 -3.15787387E-08  4.12670234E+00
  1.89389266E+00 -1.35162627E+00  1.90746161E-07  2.52421937E+00  3.98131928E-01
 -2.84138999E-01  1.68677342E-07 -8.59973845E-02  2.90254032E-01 -3.15303617E-01
  6.31941272E-01 -4.49601919E-09 -1.63987321E-08 -2.67995065E-01 -3.81252782E-01
  2.67992061E-01  3.81245683E-01 -2.67994660E-01 -3.81254660E-01  2.67995065E-01
  3.81252782E-01 -2.67992061E-01 -3.81245683E-01  2.67994660E-01  3.81254660E-01
 -2.01918055E-01  1.22152852E+00  4.57203433E-02  2.08227622E-02  2.33567628E-08
  6.14184410E-01 -6.42433371E-02 -2.92596983E-02 -1.01549762E-07 -3.93376981E-02
 -8.81311477E-02 -4.00999057E-02 -2.33160241E-07 -7.56947063E-01 -6.94837362E-01
 -7.56926792E-01 -4.12078907E-02 -3.07987834E-08 -1.40263717E-08 -2.01919777E-01
  1.22153755E+00  4.82804159E-03  5.00042665E-02  3.05903726E-10  6.14193098E-01
 -6.78413285E-03 -7.02695511E-02  2.75145038E-08 -3.93774250E-02 -9.33541878E-03
 -9.63876862E-02  1.35188017E-07 -6.79465024E-01 -7.72334707E-01 -7.56933368E-01
 -1.04496022E-02 -2.05642537E-09  1.58496556E-08 -2.01921182E-01  1.22154481E+00
 -4.08910244E-02  2.91830894E-02 -2.68456909E-09  6.14205092E-01  5.74590082E-02
 -4.10063667E-02 -3.06393884E-09 -3.94153634E-02  7.88107353E-02 -5.62824321E-02
 -6.49828527E-08 -7.41282105E-01 -7.10528612E-01 -7.56938529E-01  5.16590630E-02
  1.96842019E-09  2.70478166E-09 -2.01918055E-01  1.22152852E+00 -4.57203433E-02
 -2.08227622E-02 -1.36223152E-09  6.14184410E-01  6.42433370E-02  2.92596983E-02
  2.24537040E-09 -3.93376986E-02  8.81311478E-02  4.00999058E-02  5.91844813E-08
 -7.56947063E-01 -6.94837362E-01 -7.56926792E-01 -4.12078907E-02 -1.38630737E-09
 -6.30694624E-10 -2.01919777E-01  1.22153755E+00 -4.82804158E-03 -5.00042665E-02
 -2.68490003E-09  6.14193098E-01  6.78413284E-03  7.02695512E-02 -3.06400306E-09
 -3.93774247E-02  9.33541876E-03  9.63876861E-02 -6.49794410E-08 -6.79465024E-01
 -7.72334707E-01 -7.56933368E-01 -1.04496022E-02  3.33181145E-09 -2.89696970E-10
 -2.01921182E-01  1.22154481E+00  4.08910244E-02 -2.91830894E-02  3.06042271E-10
  6.14205092E-01 -5.74590082E-02  4.10063667E-02  2.75143181E-08 -3.94153638E-02
 -7.88107353E-02  5.62824321E-02  1.35184061E-07 -7.41282105E-01 -7.10528612E-01
 -7.56938529E-01  5.16590631E-02  1.06070217E-08 -1.19559445E-08  9.59586309E-02
 -2.55000943E-01  9.59594246E-02 -2.55004909E-01  9.59597115E-02 -2.55003076E-01
  9.59586309E-02 -2.55000943E-01  9.59594246E-02 -2.55004909E-01  9.59597115E-02
 -2.55003075E-01 -4.06005352E-02  2.18816581E-01  6.91449012E-02 -1.63067891E-01
  2.57022464E-09  1.72166838E-01 -7.06359609E-02  1.67013884E-01 -1.15800799E-08
 -1.19429817E-01 -6.18333565E-02 -2.15780821E-02 -2.76119356E-08 -4.05281199E-02
 -2.53529667E-01 -1.53996414E-01 -1.07628227E-01 -3.29454307E-09 -1.03526100E-09
 -2.75807072E-01  1.48647423E+00  6.40750816E-02 -3.79778208E-02 -1.34428908E-10
  1.16951079E+00 -6.54937776E-02  3.99830509E-02  3.43677172E-09 -8.11830483E-01
 -4.48657318E-02 -4.40879421E-01  1.56940917E-08 -9.85802400E-01 -1.01179058E+00
 -1.04612865E+00  6.04823395E-02 -3.78802611E-10  1.88434672E-09 -2.35207891E-01
  1.26766253E+00 -4.17189664E-02 -1.04912169E-01 -2.75379805E-10  9.97371943E-01
  4.19375178E-02  1.07957659E-01 -4.17778096E-10 -6.92157046E-01  3.09736443E-01
 -2.16506003E-01 -7.53602435E-09 -7.69659368E-01 -9.33886340E-01 -8.92136476E-01
  3.54414225E-02  1.96156919E-10  3.28598907E-10  4.06005352E-02 -2.18816581E-01
  6.91449012E-02 -1.63067891E-01 -1.52485124E-10 -1.72166838E-01 -7.06359609E-02
  1.67013884E-01  2.11343139E-10  1.19429817E-01 -6.18333563E-02 -2.15780825E-02
  7.02608625E-09  4.05281199E-02  2.53529667E-01  1.53996414E-01  1.07628227E-01
 -1.55029961E-10 -7.58215636E-11  2.75807072E-01 -1.48647423E+00  6.40750816E-02
 -3.79778208E-02 -3.60742026E-10 -1.16951079E+00 -6.54937776E-02  3.99830509E-02
 -1.40002529E-10  8.11830483E-01 -4.48657314E-02 -4.40879421E-01 -7.92954443E-09
  9.85802400E-01  1.01179058E+00  1.04612865E+00 -6.04823395E-02  3.56456657E-10
 -3.17280402E-11  2.35207891E-01 -1.26766253E+00 -4.17189664E-02 -1.04912169E-01
  2.06606583E-10 -9.97371943E-01  4.19375178E-02  1.07957659E-01  2.60144712E-09
  6.92157046E-01  3.09736443E-01 -2.16506003E-01  1.64160676E-08  7.69659368E-01
  9.33886340E-01  8.92136476E-01 -3.54414225E-02  1.21022033E-09 -1.00855865E-09
  1.13550972E-02 -3.00174118E-02  7.71356390E-02 -2.03921544E-01  6.57827539E-02
 -1.73905596E-01 -1.13550972E-02  3.00174118E-02 -7.71356390E-02  2.03921544E-01
 -6.57827539E-02  1.73905596E-01 -2.95034900E-01  1.59010524E+00 -4.09043982E-02
  8.14445518E-03  1.86730969E-08  1.25105513E+00  4.29603317E-02 -7.84604098E-03
 -8.41417945E-08 -8.68349268E-01 -4.31057306E-01 -1.97212582E-01 -2.00760474E-07
 -1.08504042E+00 -1.05181695E+00 -1.11905870E+00  1.22155432E-02 -2.26400126E-08
 -1.03750777E-08 -1.12356242E-01  6.05551915E-01 -1.65991515E-01  3.07685890E-03
  2.85439323E-10  4.76420229E-01  1.69983532E-01 -2.70015530E-03  2.18775298E-08
 -3.30654682E-01 -1.17787478E-02 -1.80218414E-01  1.16811458E-07 -4.31100073E-01
 -3.82664126E-01 -4.26164722E-01 -1.50194550E-01 -1.22408907E-09  1.25488200E-08
  1.82677445E-01 -9.84552896E-01 -9.90562536E-02 -1.02719857E-01 -2.31761902E-09
 -7.74609182E-01  1.02007568E-01  1.04736721E-01 -2.00142301E-09  5.37626338E-01
 -2.36124275E-01  1.74383483E-01 -5.62953650E-08  7.68829693E-01  5.54252757E-01
  6.92891030E-01  4.03738956E-02  1.47598893E-09  2.24705401E-09  2.95034899E-01
 -1.59010524E+00 -4.09043982E-02  8.14445518E-03 -1.10676234E-09 -1.25105513E+00
  4.29603317E-02 -7.84604098E-03  1.52703950E-09  8.68349268E-01 -4.31057306E-01
 -1.97212582E-01  5.11288023E-08  1.08504042E+00  1.05181695E+00  1.11905870E+00
 -1.22155432E-02 -1.13883363E-09 -5.17292922E-10  1.12356242E-01 -6.05551915E-01
 -1.65991515E-01  3.07685890E-03 -2.30592833E-09 -4.76420229E-01  1.69983532E-01
 -2.70015530E-03 -2.04087421E-09  3.30654682E-01 -1.17787477E-02 -1.80218414E-01
 -5.62360020E-08  4.31100073E-01  3.82664126E-01  4.26164722E-01  1.50194550E-01
  2.66680472E-09 -3.65808815E-10 -1.82677445E-01  9.84552896E-01 -9.90562536E-02
 -1.02719857E-01  2.37845327E-10  7.74609182E-01  1.02007568E-01  1.04736721E-01
  2.19950862E-08 -5.37626338E-01 -2.36124275E-01  1.74383483E-01  1.16704311E-07
 -7.68829693E-01 -5.54252757E-01 -6.92891030E-01 -4.03738956E-02  8.65764971E-09
 -9.23183131E-09  8.25139141E-02 -2.18138646E-01  3.14233575E-02 -8.30719900E-02
 -5.10904136E-02  1.35067620E-01 -8.25139141E-02  2.18138646E-01 -3.14233575E-02
  8.30719900E-02  5.10904136E-02 -1.35067620E-01  2.69537746E-01 -1.50405672E+00
  1.01831579E-01  1.13552937E-01 -1.17850756E-08 -1.79125381E+00 -2.07040746E-01
 -1.50126325E-01  5.41728877E-08  6.03652191E+00  1.12247826E+00  6.88911779E-01
  1.37767835E-07  1.05417927E+00  1.27900280E+00  9.96432464E-01 -6.38108259E-02
  1.40725146E-08  6.40210515E-09 -4.74518332E-02  2.64785470E-01  1.68944503E-01
 -4.10282182E-02 -3.95912444E-10  3.15353132E-01 -1.38151982E-01  5.76690165E-02
 -1.31575284E-08 -1.06276376E+00  4.31144175E-01 -2.72811261E-01 -8.05351599E-08
 -1.99200478E-01 -2.11557047E-01 -1.75420392E-01  1.59317527E-01  4.97577592E-10
 -7.80559821E-09 -2.22082087E-01  1.23924707E+00  2.92504544E-02 -1.57213295E-01
  1.60851244E-09  1.47588980E+00 -1.14517924E-01  1.95047537E-01  7.08239548E-10
 -4.97375737E+00  7.06047004E-01 -8.64579719E-01  3.90252691E-08 -8.46968162E-01
 -1.07542872E+00 -8.20997782E-01 -7.08363236E-02 -8.27823489E-10 -1.48679531E-09
  2.69537746E-01 -1.50405672E+00 -1.01831579E-01 -1.13552937E-01  7.19719316E-10
 -1.79125381E+00  2.07040746E-01  1.50126325E-01 -6.32553505E-10  6.03652191E+00
 -1.12247826E+00 -6.88911779E-01 -3.53176558E-08  1.05417927E+00  1.27900280E+00
  9.96432464E-01 -6.38108260E-02  7.01239210E-10  3.50467078E-10 -4.74518332E-02
  2.64785470E-01 -1.68944503E-01  4.10282182E-02  1.60867357E-09  3.15353132E-01
  1.38151982E-01 -5.76690165E-02  5.91980379E-10 -1.06276375E+00 -4.31144176E-01
  2.72811261E-01  3.91905248E-08 -1.99200478E-01 -2.11557047E-01 -1.75420392E-01
  1.59317527E-01 -1.68610664E-09  4.03453186E-10 -2.22082087E-01  1.23924707E+00
 -2.92504544E-02  1.57213295E-01 -5.54009319E-10  1.47588980E+00  1.14517924E-01
 -1.95047537E-01 -1.28306432E-08 -4.97375737E+00 -7.06047005E-01  8.64579719E-01
 -8.08012124E-08 -8.46968162E-01 -1.07542872E+00 -8.20997782E-01 -7.08363236E-02
 -5.49281320E-09  5.43448100E-09 -5.55902044E-02  1.47793263E-01  9.78623223E-03
 -2.60191960E-02  4.58027172E-02 -1.21769645E-01 -5.55902044E-02  1.47793263E-01
  9.78623223E-03 -2.60191960E-02  4.58027172E-02 -1.21769645E-01 -1.00822806E-01
  5.62603676E-01 -1.15307159E-01  1.27073745E-01  4.40807936E-09  6.70034867E-01
  1.41632303E-01 -8.47709906E-02 -2.02606587E-08 -2.25801680E+00 -6.24167363E-01
  1.90886868E-01 -5.15229278E-08 -5.05875685E-01 -3.66870133E-01 -3.72723701E-01
  1.35958095E-01 -5.25524930E-09 -2.41343822E-09  2.83836714E-01 -1.58385042E+00
  4.27783359E-02  1.43701862E-01  3.88958328E-10 -1.88628174E+00 -4.91674675E-02
 -2.60425587E-01  4.42161865E-09  6.35675513E+00  2.08043606E-01  1.36270966E+00
  3.05243130E-08  1.35220971E+00  1.10474779E+00  1.04929425E+00 -9.80753939E-04
 -1.81519094E-10  2.77300866E-09 -1.83013799E-01  1.02124418E+00  1.55453001E-01
  5.44917671E-02 -6.01637063E-10  1.21624444E+00 -2.03545828E-01  7.76082381E-03
 -8.59194107E-11 -4.09873849E+00  9.29344308E-01 -2.25555805E-01 -1.48441147E-08
 -8.67694823E-01 -7.16514292E-01 -6.76570177E-01 -1.25744096E-01  2.69609885E-10
  6.34379026E-10 -1.00822806E-01  5.62603676E-01  1.15307159E-01 -1.27073745E-01
 -2.69218725E-10  6.70034867E-01 -1.41632303E-01  8.47709906E-02  2.34911543E-10
 -2.25801680E+00  6.24167363E-01 -1.90886868E-01  1.32041651E-08 -5.05875685E-01
 -3.66870133E-01 -3.72723701E-01  1.35958095E-01 -2.96885845E-10 -5.07901168E-11
  2.83836714E-01 -1.58385042E+00 -4.27783359E-02 -1.43701862E-01 -6.01915815E-10
 -1.88628174E+00  4.91674675E-02  2.60425587E-01 -3.96842484E-10  6.35675512E+00
 -2.08043606E-01 -1.36270966E+00 -1.43986682E-08  1.35220971E+00  1.10474779E+00
  1.04929425E+00 -9.80753939E-04  5.97906559E-10 -7.23424917E-11 -1.83013799E-01
  1.02124418E+00 -1.55453001E-01 -5.44917671E-02 -3.37168832E-11  1.21624444E+00
  2.03545828E-01 -7.76082380E-03  5.29658224E-09 -4.09873849E+00 -9.29344308E-01
  2.25555805E-01  2.98065196E-08 -8.67694823E-01 -7.16514292E-01 -6.76570177E-01
 -1.25744096E-01  2.16032652E-09 -2.13192084E-09  2.07935268E-02 -5.52790290E-02
 -5.85386498E-02  1.55629362E-01  3.77445974E-02 -1.00346861E-01  2.07935268E-02
 -5.52790291E-02 -5.85386498E-02  1.55629362E-01  3.77445974E-02 -1.00346861E-01
  2.19204650E-01 -9.88351462E-01  1.43118392E-01  6.51783278E-02  2.01072204E-08
 -3.73732792E+00 -1.43736619E+00 -6.54604182E-01 -2.29705237E-07  1.11718732E+01
  1.94076677E+00  8.83882331E-01 -1.94076881E-07  8.52826156E-01  1.07353172E+00
  7.45933588E-01 -1.46434307E-01  6.30879254E-08  2.87304918E-08 -2.19205544E-01
  9.88360547E-01 -1.51094816E-02 -1.56531429E-01 -1.07372367E-08  3.73732222E+00
  1.51785072E-01  1.57208615E+00  8.73743483E-08 -1.11717728E+01 -2.04937236E-01
 -2.12268585E+00  1.08887273E-07 -1.12818244E+00 -7.98181046E-01 -7.45938402E-01
  3.71372266E-02 -7.84319132E-09  1.26873922E-08  2.19204877E-01 -9.88354909E-01
 -1.28002118E-01  9.13575478E-02  8.74735236E-10 -3.73732003E+00  1.28558287E+00
 -9.17498398E-01 -2.86378839E-08  1.11718255E+01 -1.73582007E+00  1.23884779E+00
 -4.95658580E-08  9.08530115E-01  1.01782769E+00  7.45935544E-01  1.83567875E-01
  3.16485113E-09  3.26395425E-09 -2.19204650E-01  9.88351462E-01  1.43118392E-01
  6.51783278E-02 -3.25925206E-09  3.73732792E+00 -1.43736619E+00 -6.54604182E-01
  1.88406936E-08 -1.11718732E+01  1.94076677E+00  8.83882330E-01  4.96347415E-08
 -8.52826156E-01 -1.07353172E+00 -7.45933588E-01  1.46434307E-01 -3.28588535E-09
 -1.49556043E-09  2.19205544E-01 -9.88360547E-01 -1.51094816E-02 -1.56531429E-01
  8.75529830E-10 -3.73732222E+00  1.51785072E-01  1.57208615E+00 -2.86400622E-08
  1.11717728E+01 -2.04937235E-01 -2.12268585E+00 -4.95636719E-08  1.12818244E+00
  7.98181046E-01  7.45938402E-01 -3.71372266E-02  4.53976742E-09  2.47610489E-10
 -2.19204877E-01  9.88354909E-01 -1.28002118E-01  9.13575478E-02 -1.07368664E-08
  3.73732003E+00  1.28558287E+00 -9.17498398E-01  8.73750727E-08 -1.11718255E+01
 -1.73582007E+00  1.23884779E+00  1.08885445E-07 -9.08530115E-01 -1.01782769E+00
 -7.45935544E-01 -1.83567875E-01  4.42406867E-09 -1.42457504E-08 -6.56026025E-02
 -2.36977228E-01  6.56022135E-02  2.36971494E-01 -6.56025178E-02 -2.36978176E-01
  6.56026025E-02  2.36977228E-01 -6.56022135E-02 -2.36971494E-01  6.56025178E-02
  2.36978176E-01
Orthonormal basis                          R   N=       15876
  5.99409631E-03  3.35646115E-02  1.00693955E-02  4.58581104E-03 -1.06992452E-09
  5.26278163E-02  2.93748895E-02  1.33778035E-02 -2.04728853E-09  6.26482628E-02
  3.87705761E-02  1.76567039E-02 -1.62280515E-09  2.78678247E-02  2.78833446E-02
  2.42600992E-02 -1.60796784E-05  6.63831129E-10  3.02316474E-10  5.99412593E-03
  3.35647728E-02  1.06329594E-03  1.10132939E-02 -2.88892514E-10  5.26279202E-02
  3.10190571E-03  3.21282510E-02 -9.22086342E-10  6.26483248E-02  4.09409810E-03
  4.24045923E-02 -1.23355887E-09  2.78874338E-02  2.78640150E-02  2.42601954E-02
 -4.12204779E-06  1.42115286E-10 -5.27009612E-11  5.99406045E-03  3.35644364E-02
 -9.00605501E-03  6.42749567E-03 -1.15170596E-10  5.26276982E-02 -2.62730340E-02
  1.87505264E-02 -3.87479691E-10  6.26482204E-02 -3.46765808E-02  2.47478702E-02
 -7.96858840E-10  2.78716126E-02  2.78792652E-02  2.42599869E-02  2.00252601E-05
  3.59220055E-11 -6.48476543E-12  5.99409631E-03  3.35646115E-02 -1.00693955E-02
 -4.58581104E-03 -9.45303010E-11  5.26278163E-02 -2.93748895E-02 -1.33778035E-02
 -3.13269941E-10  6.26482628E-02 -3.87705761E-02 -1.76567039E-02 -6.74605668E-10
  2.78678247E-02  2.78833446E-02  2.42600992E-02 -1.60796784E-05  2.42526308E-11
  1.10450337E-11  5.99412593E-03  3.35647728E-02 -1.06329594E-03 -1.10132939E-02
 -1.15171269E-10  5.26279202E-02 -3.10190571E-03 -3.21282510E-02 -3.87482177E-10
  6.26483248E-02 -4.09409810E-03 -4.24045923E-02 -7.96862287E-10  2.78874338E-02
  2.78640150E-02  2.42601954E-02 -4.12204779E-06  1.86892611E-11  3.13556389E-11
  5.99406045E-03  3.35644364E-02  9.00605501E-03 -6.42749567E-03 -2.88894920E-10
  5.26276982E-02  2.62730340E-02 -1.87505264E-02 -9.22092010E-10  6.26482204E-02
  3.46765808E-02 -2.47478702E-02 -1.23356160E-09  2.78716126E-02  2.78792652E-02
  2.42599869E-02  2.00252601E-05  5.35357552E-11  1.41804854E-10  9.64422004E-03
  2.53641347E-02  9.64435988E-03  2.53642333E-02  9.64410685E-03  2.53640174E-02
  9.64422004E-03  2.53641347E-02  9.64435988E-03  2.53642333E-02  9.64410685E-03
  2.53640174E-02 -8.65386563E-03 -4.44698543E-02  9.12789230E-03 -1.14989064E-02
  4.29728973E-09 -5.62395367E-02  3.28851934E-02 -2.94957480E-02  8.35470268E-09
 -3.87301045E-02  6.49028232E-02 -3.11341426E-02  7.59051130E-09 -3.26151706E-02
 -3.95928775E-02 -3.24495431E-02 -9.28230517E-04 -2.24683626E-09 -1.02323441E-09
  1.58969266E-03  8.16832454E-03  2.26883289E-02 -2.85169314E-03  1.61458490E-09
  1.03178790E-02  6.39966712E-02 -9.45422236E-03  4.68646189E-09  7.10005707E-03
  8.70079927E-02 -1.69047024E-02  6.36436540E-09  7.91260063E-03  5.35197230E-03
  5.95814473E-03  8.44635463E-03 -4.63600592E-10  3.11158013E-10  1.02314494E-02
  5.25785198E-02  8.32629661E-03  4.50463856E-03  9.88090898E-10  6.65256368E-02
  3.10704738E-02  7.55045182E-03  2.89027045E-09  4.58278310E-02  6.36310738E-02
 -4.85799493E-03  4.95574448E-09  4.03023171E-02  4.50691743E-02  3.83721215E-02
  2.74260125E-03 -2.40230198E-10  8.48353612E-11  8.65386563E-03  4.44698543E-02
  9.12789230E-03 -1.14989064E-02  8.92477893E-10  5.62395367E-02  3.28851934E-02
 -2.94957480E-02  2.60217444E-09  3.87301045E-02  6.49028232E-02 -3.11341426E-02
  4.54513434E-09  3.26151706E-02  3.95928775E-02  3.24495431E-02  9.28230517E-04
 -2.00594464E-10 -9.13541393E-11 -1.58969266E-03 -8.16832454E-03  2.26883289E-02
 -2.85169314E-03  9.88094446E-10 -1.03178790E-02  6.39966712E-02 -9.45422236E-03
  2.89028192E-09 -7.10005707E-03  8.70079927E-02 -1.69047024E-02  4.95575873E-09
 -7.91260063E-03 -5.35197230E-03 -5.95814473E-03 -8.44635463E-03 -9.37021616E-11
 -2.36913239E-10 -1.02314494E-02 -5.25785198E-02  8.32629661E-03  4.50463856E-03
  1.61459276E-09 -6.65256368E-02  3.10704738E-02  7.55045182E-03  4.68647887E-09
 -4.58278310E-02  6.36310738E-02 -4.85799493E-03  6.36437198E-09 -4.03023171E-02
 -4.50691743E-02 -3.83721215E-02 -2.74260125E-03 -6.96021214E-11 -5.53991936E-10
 -2.60714893E-02 -5.03001142E-02  4.80528468E-03  9.23575469E-03  3.07875314E-02
  5.94793844E-02  2.60714893E-02  5.03001142E-02 -4.80528468E-03 -9.23575469E-03
 -3.07875314E-02 -5.94793844E-02 -6.81644876E-03 -3.50290036E-02 -4.98902681E-03
  1.76806812E-02  3.38383005E-09 -4.43475200E-02 -8.56517232E-03  5.24343700E-02
  6.58054405E-09 -3.05627639E-02  4.13030792E-03  7.88088968E-02  5.98031524E-09
 -3.03618369E-02 -2.65105514E-02 -2.55702306E-02  6.54674515E-03 -1.76684183E-09
 -8.04639561E-10 -1.09081327E-02 -5.60519872E-02  3.76579103E-03  4.16636416E-03
  1.27226119E-09 -7.08975738E-02  1.14935069E-02  2.13467133E-02  3.69240759E-09
 -4.88308609E-02  1.83650625E-02  5.67023027E-02  5.01450871E-09 -4.77502321E-02
 -4.32611045E-02 -4.09044556E-02  2.11380601E-03 -3.65277743E-10  2.45206032E-10
 -4.07087075E-03 -2.09203859E-02  1.11098688E-02  1.84160318E-02  7.78632349E-10
 -2.64951833E-02  2.84891244E-02  5.42310932E-02  2.27753242E-09 -1.82638477E-02
  3.04130269E-02  8.00786186E-02  3.90490948E-09 -2.09470740E-02 -1.30179541E-02
 -1.52730394E-02 -4.11264354E-03 -1.89292215E-10  6.68585807E-11  6.81644876E-03
  3.50290036E-02 -4.98902681E-03  1.76806812E-02  7.03305437E-10  4.43475200E-02
 -8.56517232E-03  5.24343700E-02  2.05055247E-09  3.05627639E-02  4.13030792E-03
  7.88088968E-02  3.58144701E-09  3.03618369E-02  2.65105514E-02  2.55702306E-02
 -6.54674515E-03 -1.58068566E-10 -7.19871203E-11  1.09081327E-02  5.60519872E-02
  3.76579103E-03  4.16636416E-03  7.78635145E-10  7.08975738E-02  1.14935069E-02
  2.13467133E-02  2.27754146E-09  4.88308609E-02  1.83650625E-02  5.67023027E-02
  3.90492071E-09  4.77502321E-02  4.32611045E-02  4.09044556E-02 -2.11380601E-03
 -7.38250029E-11 -1.86686166E-10  4.07087075E-03  2.09203859E-02  1.11098688E-02
  1.84160318E-02  1.27226738E-09  2.64951833E-02  2.84891244E-02  5.42310932E-02
  3.69242096E-09  1.82638477E-02  3.04130269E-02  8.00786186E-02  5.01451390E-09
  2.09470740E-02  1.30179541E-02  1.52730394E-02  4.11264354E-03 -5.48103266E-11
 -4.36524701E-10 -2.04827375E-02 -3.96463084E-02 -3.28586415E-02 -6.34237805E-02
 -1.22226459E-02 -2.36801896E-02  2.04827375E-02  3.96463084E-02  3.28586415E-02
  6.34237805E-02  1.22226459E-02  2.36801896E-02 -1.58017117E-10  2.53538435E-10
  8.17768331E-09  3.71215084E-09  3.54471945E-02  2.33894117E-09  1.35343160E-08
  6.17922769E-09  9.07402593E-02  2.67147142E-09  3.00172448E-09  1.39276847E-09
  1.30033512E-01 -9.12421412E-10  1.60281113E-09  1.67349100E-10 -2.65817889E-09
  6.92972113E-03  3.15592655E-03  2.09089919E-09  9.58378375E-09  1.46830097E-09
  6.25211815E-10  3.54471750E-02  9.47338715E-09  2.31267626E-09  5.10176261E-12
  9.07402918E-02  3.17369359E-09 -2.36883919E-09 -2.80822678E-09  1.30033592E-01
  6.84296483E-09  8.09659794E-09  7.21059855E-09 -3.22068008E-10  7.31739785E-04
  7.57925968E-03  5.92174256E-11  1.55213084E-11 -5.63360337E-09 -4.84466638E-09
  3.54471384E-02 -4.94655395E-10 -1.24437563E-08 -1.05683262E-08  9.07401716E-02
 -1.98156190E-09 -1.06753709E-08 -8.84959604E-09  1.30033454E-01  1.28550356E-09
 -1.41007857E-09  8.76975296E-11 -5.49791552E-11 -6.19794775E-03  4.42339368E-03
 -2.66288715E-09 -1.23626251E-08 -4.13051345E-09 -1.90831712E-09  3.54471945E-02
 -1.27816035E-08 -1.14141156E-08 -5.18597262E-09  9.07402593E-02 -7.00919877E-09
 -1.22989219E-08 -5.57926880E-09  1.30033512E-01 -9.45302326E-09 -9.94387155E-09
 -9.22042477E-09  5.75696584E-10 -6.92972113E-03 -3.15592655E-03  5.83986586E-11
  1.08721397E-11 -7.34989007E-09 -1.05794817E-09  3.54471750E-02 -4.85035886E-10
 -1.61292202E-08 -2.43497531E-09  9.07402918E-02 -1.96333872E-09 -1.36995126E-08
 -2.21877366E-09  1.30033592E-01 -2.91542874E-10  1.56388376E-10  8.84618878E-11
  2.46942779E-09 -7.31739785E-04 -7.57925968E-03  2.09150810E-09  9.58561142E-09
  1.44724389E-09  7.50869024E-10  3.54471384E-02  9.48849986E-09  1.49580101E-09
  1.75191593E-09  9.07401716E-02  3.19369048E-09 -3.68842931E-09  8.52158996E-11
  1.30033454E-01  7.43168908E-09  7.50755903E-09  7.21587826E-09 -1.16465133E-09
  6.19794775E-03 -4.42339368E-03 -3.25372674E-08 -4.89200426E-08  4.52224290E-09
  6.99636966E-09 -1.31972608E-09 -2.30012893E-09 -9.70345332E-09 -1.54510371E-08
 -1.29885373E-09 -2.27837100E-09  4.56391493E-09  7.03081996E-09 -1.25906280E-02
 -5.22261865E-02 -3.42562562E-03  5.45377655E-02  4.18317564E-09 -4.30261851E-02
  4.09294681E-03  1.01541704E-01  2.14775633E-09 -1.13002106E-02  9.36390933E-03
  5.81371000E-02 -8.41463607E-09 -4.64758753E-02 -3.18478452E-02 -4.03384415E-02
  4.60138639E-03 -7.48282153E-09 -3.40776930E-09 -7.08745933E-03 -2.94091485E-02
  6.21521914E-02  5.15580853E-03 -3.09188268E-09 -2.42209423E-02  1.11367990E-01
  1.53715388E-02 -6.95512982E-09 -6.41487506E-03  6.06099161E-02  1.26478977E-02
 -1.13658248E-08 -1.89134412E-02 -2.52018429E-02 -2.27058742E-02  1.48706953E-02
 -1.53679668E-09 -7.85746625E-10  1.96297561E-02  8.13602867E-02  1.80926681E-02
 -2.59747379E-02 -5.29349328E-09  6.71277556E-02  4.63945516E-02 -5.60781045E-02
 -1.21309209E-08  1.73326952E-02  3.53529685E-02 -3.76226835E-02 -1.50159150E-08
  6.40844147E-02  5.78620692E-02  6.29051074E-02 -8.01944434E-03  6.11489465E-10
 -8.84249712E-10 -1.25906280E-02 -5.22261865E-02  3.42562562E-03 -5.45377655E-02
 -5.79915757E-09 -4.30261851E-02 -4.09294681E-03 -1.01541704E-01 -1.32705199E-08
 -1.13002106E-02 -9.36390933E-03 -5.81371000E-02 -1.62009068E-08 -4.64758753E-02
 -3.18478452E-02 -4.03384415E-02  4.60138639E-03  1.00894513E-09  4.59495340E-10
 -7.08745933E-03 -2.94091485E-02 -6.21521914E-02 -5.15580853E-03 -5.29348493E-09
 -2.42209423E-02 -1.11367990E-01 -1.53715388E-02 -1.21309057E-08 -6.41487506E-03
 -6.06099161E-02 -1.26478977E-02 -1.50159026E-08 -1.89134412E-02 -2.52018429E-02
 -2.27058742E-02  1.48706953E-02 -2.65648204E-10  1.04174595E-09  1.96297561E-02
  8.13602867E-02 -1.80926681E-02  2.59747379E-02 -3.09184719E-09  6.71277556E-02
 -4.63945516E-02  5.60781045E-02 -6.95505314E-09  1.73326952E-02 -3.53529685E-02
  3.76226835E-02 -1.13657752E-08  6.40844147E-02  5.78620692E-02  6.29051074E-02
 -8.01944434E-03 -1.60157664E-09 -6.43528005E-10 -4.10647129E-02 -5.44869692E-02
 -2.31502047E-02 -3.07568364E-02  6.41330170E-02  8.46423838E-02 -4.10647129E-02
 -5.44869692E-02 -2.31502047E-02 -3.07568364E-02  6.41330170E-02  8.46423838E-02
  1.54026434E-02  6.38259939E-02 -3.84554355E-02  2.78854042E-02 -5.13198788E-09
  5.27068585E-02 -8.08250891E-02  4.43988187E-02 -2.64614756E-09  1.35846826E-02
 -5.27537388E-02  1.99216839E-02  1.02769861E-08  4.62170331E-02  4.94308113E-02
  4.93652808E-02  1.25538702E-02  9.17436569E-09  4.17811938E-09 -1.86087001E-02
 -7.71696807E-02 -2.03652604E-02  3.09977361E-02  3.77794032E-09 -6.36477715E-02
 -3.48934966E-02  7.13615385E-02  8.49544108E-09 -1.66830083E-02 -1.77525243E-02
  5.01918781E-02  1.38857274E-08 -5.41461307E-02 -6.15602647E-02 -5.96292091E-02
 -7.32101922E-03  1.87830998E-09  9.60498172E-10  3.15442090E-03  1.30496620E-02
  4.14441007E-02  5.01024518E-02  6.46931355E-09  1.08133510E-02  7.60217547E-02
  8.76720847E-02  1.48247909E-08  2.68945252E-03  4.28724809E-02  4.61729528E-02
  1.83488204E-08  1.56661129E-03  1.79653892E-02  1.01151331E-02 -7.19737765E-03
 -7.47043330E-10  1.08086172E-09  1.54026434E-02  6.38259939E-02  3.84554355E-02
 -2.78854042E-02  7.08773183E-09  5.27068585E-02  8.08250891E-02 -4.43988187E-02
  1.62182143E-08  1.35846826E-02  5.27537388E-02 -1.99216839E-02  1.97977219E-08
  4.62170331E-02  4.94308113E-02  4.93652808E-02  1.25538702E-02 -1.23301449E-09
 -5.61541357E-10 -1.86087001E-02 -7.71696807E-02  2.03652604E-02 -3.09977361E-02
  6.46930333E-09 -6.36477715E-02  3.48934966E-02 -7.13615385E-02  1.48247723E-08
 -1.66830083E-02  1.77525243E-02 -5.01918781E-02  1.83488052E-08 -5.41461307E-02
 -6.15602647E-02 -5.96292091E-02 -7.32101922E-03  3.24984075E-10 -1.27306766E-09
  3.15442090E-03  1.30496620E-02 -4.14441007E-02 -5.01024518E-02  3.77789692E-09
  1.08133510E-02 -7.60217547E-02 -8.76720847E-02  8.49534729E-09  2.68945252E-03
 -4.28724809E-02 -4.61729528E-02  1.38856667E-08  1.56661129E-03  1.79653892E-02
  1.01151331E-02 -7.19737765E-03  1.95759099E-09  7.86443777E-10  5.04453039E-02
  6.64667037E-02 -6.09208915E-02 -8.06319929E-02  1.03892722E-02  1.35233933E-02
  5.04453039E-02  6.64667037E-02 -6.09208915E-02 -8.06319929E-02  1.03892722E-02
  1.35233933E-02  1.03301217E-03  2.13602101E-03  7.21140504E-02  3.20673519E-02
  1.18894265E-08 -9.64007626E-03  1.22200649E-01  5.44549536E-02  1.31110338E-08
 -6.40760255E-02  3.60814651E-02  1.58033349E-02 -3.08489418E-09  7.71521019E-03
 -4.25949359E-03  8.83675547E-04  1.35625147E-02 -1.27534883E-08 -5.80808706E-09
  1.12451635E-03  2.44686209E-03  7.27671535E-03  7.81032894E-02 -1.92156536E-09
 -9.15418874E-03  1.23894855E-02  1.32644380E-01 -3.76618792E-09 -6.39094856E-02
  3.51914420E-03  3.87440097E-02 -8.63688739E-09 -7.30792675E-03  1.11430945E-02
  1.21374742E-03  3.54424424E-03 -3.17062821E-09 -6.77265070E-10  9.76870281E-04
  1.94594124E-03 -6.47467748E-02  4.56651927E-02 -6.95998135E-09 -9.94232466E-03
 -1.09574173E-01  7.73722600E-02 -1.44778783E-08 -6.41805628E-02 -3.25108730E-02
  2.27702251E-02 -1.58065877E-08  4.52479375E-03 -1.29991484E-03  6.80519653E-04
 -1.66989634E-02  4.30837689E-10 -1.47846240E-09  1.03301217E-03  2.13602101E-03
 -7.21140504E-02 -3.20673519E-02 -8.28592323E-09 -9.64007626E-03 -1.22200649E-01
 -5.44549536E-02 -1.71756446E-08 -6.40760255E-02 -3.60814651E-02 -1.58033349E-02
 -1.82635780E-08  7.71521019E-03 -4.25949359E-03  8.83675547E-04  1.35625147E-02
  1.31369529E-09  5.98289328E-10  1.12451635E-03  2.44686209E-03 -7.27671535E-03
 -7.81032894E-02 -6.95995072E-09 -9.15418874E-03 -1.23894855E-02 -1.32644380E-01
 -1.44778204E-08 -6.39094856E-02 -3.51914420E-03 -3.87440097E-02 -1.58065420E-08
 -7.30792675E-03  1.11430945E-02  1.21374742E-03  3.54424424E-03 -8.32502428E-10
  1.29552883E-09  9.76870281E-04  1.94594124E-03  6.47467748E-02 -4.56651927E-02
 -1.92148960E-09 -9.94232466E-03  1.09574173E-01 -7.73722600E-02 -3.76604087E-09
 -6.41805628E-02  3.25108730E-02 -2.27702251E-02 -8.63679984E-09  4.52479375E-03
 -1.29991484E-03  6.80519653E-04 -1.66989634E-02 -2.59226419E-09 -1.94727002E-09
 -5.88734981E-02 -7.80822868E-02 -5.86158923E-02 -7.74311363E-02 -5.90505922E-02
 -7.84952902E-02 -5.88734981E-02 -7.80822868E-02 -5.86158923E-02 -7.74311363E-02
 -5.90505922E-02 -7.84952902E-02 -1.85826555E-02 -6.22043308E-02  6.75930748E-02
 -9.12637516E-03  3.53068636E-08 -3.56324382E-02  8.11508954E-02  8.14296443E-04
  4.27344534E-08 -5.50296366E-03 -5.89457958E-03  6.18082883E-02  1.05038772E-08
 -4.00458669E-02 -4.36634235E-02 -5.18439019E-02 -5.61742967E-02 -2.45584137E-08
 -1.11841340E-08  3.34686062E-02  1.25349161E-01  1.66817736E-02  4.87441081E-03
  3.82893002E-09  6.71375817E-02  1.42878278E-02 -5.21277817E-03  7.01423019E-09
 -2.54306866E-02 -2.29426103E-02  3.77527942E-02 -1.36628050E-09  8.52002681E-02
  1.00135395E-01  9.25614962E-02  2.13456543E-02 -8.91310394E-09  6.25634226E-11
 -6.35341740E-03 -1.03139013E-02 -1.02177457E-01  4.78075151E-02 -1.35379098E-08
 -9.78342399E-03 -1.18106789E-01  6.20124174E-02 -2.27946338E-08 -3.08881670E-02
 -3.48883598E-02  6.45147117E-02 -1.86835697E-08  1.17930471E-03 -1.36073528E-03
 -1.83996948E-02  6.00228828E-02 -9.11633567E-10 -4.72897738E-09  1.85826555E-02
  6.22043308E-02  6.75930748E-02 -9.12637516E-03 -1.95913089E-08  3.56324382E-02
  8.11508954E-02  8.14296443E-04 -3.27374827E-08  5.50296366E-03 -5.89457958E-03
  6.18082883E-02 -2.54696469E-08  4.00458669E-02  4.36634235E-02  5.18439019E-02
  5.61742967E-02  2.67336464E-09  1.21755009E-09 -3.34686062E-02 -1.25349161E-01
  1.66817736E-02  4.87441081E-03 -1.35377108E-08 -6.71375817E-02  1.42878278E-02
 -5.21277817E-03 -2.27943154E-08  2.54306866E-02 -2.29426103E-02  3.77527942E-02
 -1.86833693E-08 -8.52002681E-02 -1.00135395E-01 -9.25614962E-02 -2.13456543E-02
 -4.16591602E-09  2.41655393E-09  6.35341740E-03  1.03139013E-02 -1.02177457E-01
  4.78075151E-02  3.82921716E-09  9.78342399E-03 -1.18106789E-01  6.20124174E-02
  7.01468869E-09  3.08881670E-02 -3.48883598E-02  6.45147117E-02 -1.36603348E-09
 -1.17930471E-03  1.36073528E-03  1.83996948E-02 -6.00228828E-02 -5.80374592E-09
 -6.76491708E-09 -8.51540582E-02 -7.39915461E-02  4.49851450E-02  3.19125560E-02
 -1.17130697E-01 -1.08366123E-01  8.51540582E-02  7.39915461E-02 -4.49851450E-02
 -3.19125560E-02  1.17130697E-01  1.08366123E-01  2.35117692E-02  1.01390601E-01
  1.03574359E-01  5.62248413E-02  3.53497747E-08  5.04168593E-02  1.13993947E-01
  6.30525898E-02  4.32383165E-08 -5.37059949E-02  9.64900114E-02  2.45254481E-02
  1.10679651E-08  6.62581870E-02  9.85661171E-02  6.42559142E-02 -2.27743661E-02
 -2.30031787E-08 -1.04758573E-08  1.10999993E-02  4.49215878E-02 -5.51980828E-02
  3.64747427E-02  4.19160874E-09  2.31163416E-02 -4.83112229E-02  3.76390800E-02
  7.45472136E-09 -1.76594796E-02  9.48265487E-02  2.15771871E-02 -1.09801999E-09
  3.22542626E-02  3.79285103E-02  3.04997096E-02 -6.79393642E-02 -9.29705454E-09
  1.69281079E-10 -1.93989940E-02 -8.00224590E-02  2.90439711E-02 -7.49952227E-02
 -1.39547444E-08 -4.07066384E-02  3.40264927E-02 -7.63000516E-02 -2.33351866E-08
  3.47379965E-02  9.30504192E-02  2.48121752E-02 -1.89432134E-08 -3.74818722E-02
 -8.90983969E-02 -5.32114815E-02  2.77640092E-04 -9.83576587E-10 -4.93557078E-09
 -2.35117692E-02 -1.01390601E-01  1.03574359E-01  5.62248413E-02 -2.02989171E-08
 -5.04168593E-02  1.13993947E-01  6.30525898E-02 -3.37103575E-08  5.37059949E-02
  9.64900114E-02  2.45254481E-02 -2.59676117E-08 -6.62581870E-02 -9.85661171E-02
 -6.42559142E-02  2.27743661E-02  2.76897967E-09  1.26109801E-09 -1.10999993E-02
 -4.49215878E-02 -5.51980828E-02  3.64747427E-02 -1.39545334E-08 -2.31163416E-02
 -4.83112229E-02  3.76390800E-02 -2.33348507E-08  1.76594796E-02  9.48265487E-02
  2.15771871E-02 -1.89430035E-08 -3.22542626E-02 -3.79285103E-02 -3.04997096E-02
  6.79393642E-02 -4.36899507E-09  2.49789685E-09  1.93989940E-02  8.00224590E-02
  2.90439711E-02 -7.49952227E-02  4.19190874E-09  4.07066384E-02  3.40264927E-02
 -7.63000516E-02  7.45519691E-09 -3.47379965E-02  9.30504192E-02  2.48121752E-02
 -1.09776299E-09  3.74818722E-02  8.90983969E-02  5.32114815E-02 -2.77640092E-04
 -5.97527973E-09 -7.12461086E-09 -7.62802067E-02 -8.03928708E-02 -1.33458515E-02
 -1.59907248E-02  3.35906475E-02  3.88644212E-02  7.62802067E-02  8.03928708E-02
  1.33458515E-02  1.59907248E-02 -3.35906475E-02 -3.88644212E-02  2.03004828E-02
  7.27167510E-02  2.88348876E-03 -5.15329727E-02 -2.05098708E-08  4.00014518E-02
 -7.63504996E-03 -5.17253902E-02 -2.47824114E-08 -8.19678439E-03 -2.56234450E-02
  7.29333406E-02 -6.30069597E-09  8.10270438E-02  2.29443545E-02  5.62482399E-02
 -1.80618772E-02  1.40170123E-08  6.38347738E-09  5.75708634E-03  3.70745243E-02
  2.49050932E-02  1.27530680E-01 -2.41298434E-09  1.55912695E-02  2.64227739E-02
  1.48154674E-01 -4.35053246E-09 -4.52191162E-02 -1.25943946E-02  9.11496049E-02
  4.83073989E-10  6.64999458E-02  5.54256023E-03  1.51511277E-02  3.47374735E-03
  5.17547232E-09 -7.62987281E-11  3.02874660E-02  1.14813266E-01 -3.99730324E-02
 -1.43960895E-02  7.79033939E-09  6.12714458E-02 -3.35160514E-02 -1.52988288E-02
  1.29714045E-08 -2.86404369E-02 -3.30726628E-03  7.07398035E-02  1.04583386E-08
  1.06574912E-01  6.49010496E-02  8.36057255E-02  6.55751765E-04  5.84309796E-10
  2.79292579E-09 -2.03004828E-02 -7.27167510E-02  2.88348876E-03 -5.15329727E-02
  1.13993623E-08 -4.00014518E-02 -7.63504996E-03 -5.17253902E-02  1.88337109E-08
  8.19678439E-03 -2.56234450E-02  7.29333406E-02  1.43980602E-08 -8.10270438E-02
 -2.29443545E-02 -5.62482399E-02  1.80618772E-02 -1.54714504E-09 -7.04629257E-10
 -5.75708634E-03 -3.70745243E-02  2.49050932E-02  1.27530680E-01  7.79021801E-09
 -1.55912695E-02  2.64227739E-02  1.48154674E-01  1.29712123E-08  4.52191162E-02
 -1.25943946E-02  9.11496049E-02  1.04582192E-08 -6.64999458E-02 -5.54256023E-03
 -1.51511277E-02 -3.47374735E-03  2.49051492E-09 -1.39258609E-09 -3.02874660E-02
 -1.14813266E-01 -3.99730324E-02 -1.43960895E-02 -2.41315572E-09 -6.12714458E-02
 -3.35160514E-02 -1.52988288E-02 -4.35080346E-09  2.86404369E-02 -3.30726628E-03
  7.07398035E-02  4.82928764E-10 -1.06574912E-01 -6.49010496E-02 -8.36057255E-02
 -6.55751765E-04  3.33984108E-09  3.95434646E-09  4.82284550E-02  3.95785274E-02
 -1.14949672E-01 -1.11521691E-01  2.37605295E-02  1.22141749E-02 -4.82284550E-02
 -3.95785274E-02  1.14949672E-01  1.11521691E-01 -2.37605295E-02 -1.22141749E-02
  2.45473555E-08  6.56898757E-08  2.64417581E-08 -4.97677381E-09  2.09768367E-01
  2.87829800E-08 -1.69184219E-08 -1.18956340E-08  2.60383854E-01  3.26122142E-08
 -1.97964447E-08  2.53631439E-10  1.16747275E-01  1.90306526E-08  4.96167557E-08
  6.82492947E-08 -6.47867212E-08  1.61759070E-02  4.04186728E-02 -1.76168590E-08
 -5.19308630E-08 -1.04648552E-07 -1.13110330E-08  4.45904545E-02 -1.62949411E-08
 -5.81461159E-08 -1.39335091E-08  5.53496980E-02  2.79441504E-08 -1.58212638E-08
 -2.23162514E-08  2.48168182E-02 -3.36332321E-08 -3.66304282E-08 -4.03590638E-08
 -5.50827101E-08 -9.24500950E-02  1.56472596E-02  2.24253462E-09  8.22319230E-09
  1.14067409E-07  3.48802712E-08 -1.65178380E-01  1.16845092E-08  7.89566528E-08
  8.59471747E-09 -2.05034843E-01  8.41066364E-09 -2.99031653E-08 -4.90338455E-08
 -9.19307803E-02 -1.75140094E-08  2.96483075E-08  5.97817173E-09 -5.16990331E-08
 -1.66844205E-02 -6.60404514E-02  1.29072765E-08  4.79179630E-08 -8.39849437E-08
 -1.59801134E-08 -2.09768367E-01  9.62943903E-09 -5.66162146E-08 -1.97499211E-08
 -2.60383854E-01 -1.91583209E-08 -5.96237533E-08 -3.46633552E-08 -1.16747275E-01
  1.89400483E-08  5.55778304E-08  3.06946627E-08 -7.00428421E-08  1.61759070E-02
  4.04186728E-02  5.90269207E-09  2.01989834E-08  1.18179909E-07  3.64197631E-08
 -4.45904545E-02  1.10635827E-08  6.35383793E-08  3.81966493E-08 -5.53496980E-02
  5.23276123E-09 -6.56951194E-08 -5.21897716E-10 -2.48168182E-02 -1.34008266E-09
  3.05067438E-08  1.44475120E-08 -7.79399820E-08 -9.24500949E-02  1.56472596E-02
 -2.20369279E-08 -6.66975801E-08 -9.19594759E-08 -4.28547449E-08  1.65178380E-01
 -1.72352796E-08 -6.20823684E-08 -2.21393460E-08  2.05034843E-01  3.24099841E-08
 -4.22463160E-08  4.57729364E-09  9.19307803E-02 -6.45908312E-08 -2.69108253E-08
 -5.08341705E-08 -6.08899040E-09 -1.66844205E-02 -6.60404514E-02 -1.73027476E-07
 -1.36521532E-07  4.30995480E-09  1.38703840E-08  7.79426868E-08  5.35958405E-08
 -9.34756490E-08 -7.30635078E-08  5.09708426E-08  3.51856807E-08  2.77095386E-08
  3.28766851E-08  8.14736628E-09  2.18027474E-08  8.77731440E-09 -1.65163200E-09
  6.96218449E-02  9.55295925E-09 -5.61420392E-09 -3.94780699E-09  8.64207414E-02
  1.08236356E-08 -6.56990119E-09  8.46126928E-11  3.87479658E-02  6.31637083E-09
  1.64681093E-08  2.26521192E-08 -2.15035471E-08  4.70686378E-02 -7.81493957E-02
 -5.84697306E-09 -1.72356061E-08 -3.47340134E-08 -3.75412403E-09  2.16476662E-01
 -5.40817027E-09 -1.92990413E-08 -4.62458552E-09  2.68710175E-01  9.27454158E-09
 -5.25040939E-09 -7.40684350E-09  1.20480164E-01 -1.11628479E-08 -1.21572898E-08
 -1.33949965E-08 -1.82828709E-08  2.22963799E-02  3.04773827E-02  7.44122526E-10
  2.72872875E-09  3.78597972E-08  1.15768682E-08  1.46854470E-01  3.87795425E-09
  2.62060335E-08  2.85249523E-09  1.82289036E-01  2.79156207E-09 -9.92461638E-09
 -1.62746757E-08  8.17321625E-02 -5.81340180E-09  9.84003282E-09  1.98372097E-09
 -1.71593712E-08 -5.93903313E-02 -4.52878124E-02  4.28406564E-09  1.59043465E-08
 -2.78753206E-08 -5.30355882E-09 -6.96218449E-02  3.19601859E-09 -1.87912718E-08
 -6.55493240E-09 -8.64207414E-02 -6.35875310E-09 -1.97892397E-08 -1.15050076E-08
 -3.87479658E-02  6.28643762E-09  1.84465066E-08  1.01878742E-08 -2.32478034E-08
  4.70686378E-02 -7.81493957E-02  1.95902949E-09  6.70380680E-09  3.92250185E-08
  1.20876082E-08 -2.16476662E-01  3.67189329E-09  2.10887306E-08  1.26773484E-08
 -2.68710175E-01  1.73672341E-09 -2.18044851E-08 -1.73082950E-10 -1.20480164E-01
 -4.44995187E-10  1.01250978E-08  4.79493175E-09 -2.58690419E-08  2.22963799E-02
  3.04773827E-02 -7.31408708E-09 -2.21369636E-08 -3.05223898E-08 -1.42237545E-08
 -1.46854470E-01 -5.72027538E-09 -2.06056695E-08 -7.34800816E-09 -1.82289036E-01
  1.07568314E-08 -1.40215000E-08  1.51975830E-09 -8.17321625E-02 -2.14378918E-08
 -8.93152356E-09 -1.68718998E-08 -2.02158663E-09 -5.93903313E-02 -4.52878124E-02
 -5.74287202E-08 -4.53120158E-08  1.43071284E-09  4.60373378E-09  2.58697353E-08
  1.77888374E-08 -3.10251982E-08 -2.42501967E-08  1.69171568E-08  1.16780577E-08
  9.19764457E-09  1.09123559E-08  5.77779562E-04  2.02421035E-03 -8.94334429E-02
  2.00060763E-01 -1.16807696E-09  1.29552772E-03 -6.66938851E-02  1.51038662E-01
 -1.37933654E-09 -9.97413236E-04 -7.72973860E-03  2.15463336E-02 -5.88549008E-10
 -8.82127751E-03  1.17717501E-02  1.55877097E-03  2.12524355E-02  2.30779560E-12
  1.07887169E-12  2.21586089E-04  7.75169757E-04  2.17883506E-01 -2.05037214E-02
 -5.69753369E-10  5.06499410E-04  1.63320354E-01 -1.50371026E-02 -7.02538469E-10
 -3.89186226E-04  2.46768296E-02 -1.63254906E-03 -3.11180352E-10  2.87438025E-03
 -1.74708495E-03  6.01153539E-04  2.69603752E-02  3.75552066E-10 -1.19096043E-10
 -3.49946639E-04 -1.23322410E-03 -1.26857192E-01 -1.79492122E-01  5.31424170E-10
 -7.79598898E-04 -9.54110424E-02 -1.35743436E-01  6.44257308E-10  6.09292971E-04
 -1.16059673E-02 -1.82486659E-02  2.69524175E-10  1.32601146E-02 -1.50661652E-02
 -9.41481064E-04  1.17117018E-02  1.87594618E-10  3.99684910E-10 -5.77779562E-04
 -2.02421035E-03 -8.94334429E-02  2.00060763E-01  1.10832215E-09 -1.29552772E-03
 -6.66938851E-02  1.51038662E-01  1.34043773E-09  9.97413236E-04 -7.72973860E-03
  2.15463336E-02  5.68424133E-10  8.82127751E-03 -1.17717501E-02 -1.55877097E-03
 -2.12524355E-02 -1.51236884E-10 -6.88467506E-11 -2.21586089E-04 -7.75169757E-04
  2.17883506E-01 -2.05037214E-02  5.31530500E-10 -5.06499410E-04  1.63320354E-01
 -1.50371026E-02  6.44386627E-10  3.89186226E-04  2.46768296E-02 -1.63254906E-03
  2.69580616E-10 -2.87438025E-03  1.74708495E-03 -6.01153539E-04 -2.69603752E-02
  4.24630098E-10 -1.20866979E-10  3.49946639E-04  1.23322410E-03 -1.26857192E-01
 -1.79492122E-01 -5.69646855E-10  7.79598898E-04 -9.54110424E-02 -1.35743436E-01
 -7.02408939E-10 -6.09292971E-04 -1.16059673E-02 -1.82486659E-02 -3.11123767E-10
 -1.32601146E-02  1.50661652E-02  9.41481064E-04 -1.17117018E-02  1.56713363E-10
  3.61499534E-10  5.84888650E-04 -8.07412101E-04  7.93525074E-05 -3.48923386E-04
 -4.87728557E-04  4.78687139E-04 -5.84888650E-04  8.07412101E-04 -7.93525074E-05
  3.48923386E-04  4.87728557E-04 -4.78687139E-04 -1.87450146E-02 -5.61528258E-02
 -1.52711077E-01  7.36789636E-02  9.61329173E-08 -4.00456072E-03 -8.35219968E-02
  1.42364611E-02  1.27446822E-07  1.89547137E-02 -2.60889883E-02 -6.41624977E-02
  7.22552206E-08 -4.85575284E-02 -2.77569228E-02 -4.28508909E-02  1.25654102E-01
  9.61701185E-08  4.37963282E-08 -5.42709869E-03 -1.71049372E-02  1.89526361E-01
 -4.63656244E-02  8.80099109E-08 -1.35908616E-03  6.95019644E-02 -2.42042953E-02
  9.58136866E-08  7.29966991E-03 -7.13223239E-02 -5.82389690E-03  4.65133217E-08
 -1.12682703E-02 -1.31370090E-02 -1.21044859E-02  1.46657335E-01 -4.52447944E-08
  2.37487590E-08  2.22361444E-02  6.43941570E-02 -1.49778363E-01  2.69533365E-02
 -6.69050152E-08  3.84069635E-03 -8.77335214E-02  3.29464122E-02 -7.33723230E-08
 -1.69100843E-02 -4.00465418E-02  5.66565248E-02 -1.96313611E-08  5.06281856E-02
  3.37474581E-02  5.16313639E-02  9.41325148E-02 -3.12749131E-08 -6.31233110E-08
 -1.87450146E-02 -5.61528258E-02  1.52711077E-01 -7.36789636E-02 -1.57720814E-07
 -4.00456072E-03  8.35219968E-02 -1.42364611E-02 -1.74236373E-07  1.89547137E-02
  2.60889883E-02  6.41624977E-02 -5.72824616E-08 -4.85575284E-02 -2.77569228E-02
 -4.28508909E-02  1.25654102E-01  2.31771266E-08  1.05545562E-08 -5.42709869E-03
 -1.71049372E-02 -1.89526361E-01  4.63656244E-02 -6.69076406E-08 -1.35908616E-03
 -6.95019644E-02  2.42042953E-02 -7.33753426E-08  7.29966991E-03  7.13223239E-02
  5.82389690E-03 -1.96325864E-08 -1.12682703E-02 -1.31370090E-02 -1.21044859E-02
  1.46657335E-01 -6.81482587E-08  1.78441935E-08  2.22361444E-02  6.43941570E-02
  1.49778363E-01 -2.69533365E-02  8.80069023E-08  3.84069635E-03  8.77335214E-02
 -3.29464122E-02  9.58102716E-08 -1.69100843E-02  4.00465418E-02 -5.66565248E-02
  4.65120097E-08  5.06281856E-02  3.37474581E-02  5.16313639E-02  9.41325148E-02
 -1.17855578E-08 -4.97213043E-08  1.18513900E-01  8.30124022E-02  3.15945113E-02
  2.21659603E-02 -1.44334332E-01 -1.02551678E-01  1.18513900E-01  8.30124022E-02
  3.15945113E-02  2.21659603E-02 -1.44334332E-01 -1.02551678E-01  1.70801616E-02
  4.55016190E-02  2.44394523E-02  1.88736573E-01 -4.18135778E-08  3.36653064E-03
  3.54028123E-02  8.69828570E-02 -6.18289668E-08 -1.06927595E-02  7.07462978E-02
 -3.27718489E-02 -4.30346663E-08 -3.30715506E-02  8.90117988E-02  3.92392067E-02
  2.07040460E-02 -9.16665038E-08 -4.17457512E-08 -2.78189142E-02 -7.85526554E-02
 -5.67216510E-02 -1.43028175E-01 -6.34179863E-08 -6.89585789E-03 -2.68302121E-02
 -9.57686185E-02 -6.38641478E-08  2.72446072E-02  8.01502777E-03 -7.35131417E-02
 -3.18454196E-08 -1.13296203E-01  9.90385830E-03 -6.22181130E-02 -2.62799488E-03
  2.46331801E-08 -1.88546853E-08  7.96335346E-03  2.04521102E-02  7.89511381E-02
  1.95708038E-01  4.12039066E-08  1.19091693E-03  2.00120291E-02  8.65387527E-02
  4.18403039E-08 -2.98104034E-03 -6.40291673E-02 -4.54480514E-02  5.52417561E-09
 -5.45117997E-02  7.84375843E-02  1.85964468E-02 -1.88941937E-02  2.47421658E-08
  4.78537089E-08  1.70801616E-02  4.55016190E-02 -2.44394523E-02 -1.88736573E-01
  1.09639488E-07  3.36653064E-03 -3.54028123E-02 -8.69828570E-02  1.12762588E-07
 -1.06927595E-02 -7.07462978E-02  3.27718489E-02  2.89762082E-08 -3.30715506E-02
  8.90117988E-02  3.92392067E-02  2.07040460E-02 -1.71547965E-08 -7.81238892E-09
 -2.78189142E-02 -7.85526554E-02  5.67216510E-02  1.43028175E-01  4.12047052E-08
 -6.89585789E-03  2.68302121E-02  9.57686185E-02  4.18412114E-08  2.72446072E-02
 -8.01502777E-03  7.35131417E-02  5.52454355E-09 -1.13296203E-01  9.90385830E-03
 -6.22181130E-02 -2.62799488E-03  5.23413340E-08 -1.27484944E-08  7.96335346E-03
  2.04521102E-02 -7.89511381E-02 -1.95708038E-01 -6.34167390E-08  1.19091693E-03
 -2.00120291E-02 -8.65387527E-02 -6.38628103E-08 -2.98104034E-03  6.40291673E-02
  4.54480514E-02 -3.18449636E-08 -5.45117997E-02  7.84375843E-02  1.85964468E-02
 -1.88941937E-02  1.94665438E-09  3.09594817E-08 -1.08602678E-01 -7.76538412E-02
  1.65968351E-01  1.18012582E-01 -5.12375960E-02 -3.73044128E-02 -1.08602678E-01
 -7.76538412E-02  1.65968351E-01  1.18012582E-01 -5.12375960E-02 -3.73044128E-02
  2.26570074E-02  1.03080174E-01 -3.96561513E-02  3.22139974E-02 -8.80706160E-10
  2.19574453E-02 -4.67494236E-02  1.67662489E-02 -4.73137387E-09 -1.19099790E-01
 -4.41813241E-02 -7.80500618E-03 -6.40553306E-09  5.08812828E-02  1.47661279E-01
  2.97121098E-02 -1.92973164E-01 -2.33905683E-08 -1.06522938E-08  2.77029444E-02
  1.20785287E-01  1.82576726E-02 -2.24456428E-02 -1.24543932E-08  2.05307758E-02
  1.07541380E-02 -3.92266260E-02 -1.11476770E-08 -1.22526870E-01 -2.44924077E-05
 -3.37710640E-02 -5.87435604E-09  1.94763581E-01  3.10748947E-02  3.94295726E-02
 -5.13334367E-02  2.28900825E-09 -4.17599006E-09  2.06338248E-02  9.48999805E-02
  3.00718234E-02  9.80713052E-03  6.45085694E-09  2.31246330E-02  3.64779570E-02
 -1.26244746E-03  5.81674940E-09 -1.17862007E-01  4.26028912E-02 -2.05920863E-02
 -8.88048204E-10  7.03058724E-02  1.14723870E-01  2.60947628E-02  2.35656506E-01
  5.73973355E-09  1.06741761E-08  2.26570074E-02  1.03080174E-01  3.96561513E-02
 -3.22139974E-02  2.14155279E-08  2.19574453E-02  4.67494236E-02 -1.67662489E-02
  1.97662692E-08 -1.19099790E-01  4.41813241E-02  7.80500618E-03  2.89364186E-09
  5.08812828E-02  1.47661279E-01  2.97121098E-02 -1.92973164E-01 -3.79623955E-09
 -1.72887511E-09  2.77029444E-02  1.20785287E-01 -1.82576726E-02  2.24456428E-02
  6.45087482E-09  2.05307758E-02 -1.07541380E-02  3.92266260E-02  5.81678412E-09
 -1.22526870E-01  2.44924077E-05  3.37710640E-02 -8.88025414E-10  1.94763581E-01
  3.10748947E-02  3.94295726E-02 -5.13334367E-02  1.18201535E-08 -2.67709170E-09
  2.06338248E-02  9.48999805E-02 -3.00718234E-02 -9.80713052E-03 -1.24542261E-08
  2.31246330E-02 -3.64779570E-02  1.26244746E-03 -1.11475147E-08 -1.17862007E-01
 -4.26028912E-02  2.05920863E-02 -5.87431004E-09  7.03058724E-02  1.14723870E-01
  2.60947628E-02  2.35656506E-01 -1.64776159E-09  4.46797168E-09 -2.51547973E-02
 -1.66490157E-02  1.38229971E-03 -1.47663267E-02 -4.76517755E-02 -2.22723342E-02
 -2.51547973E-02 -1.66490157E-02  1.38229971E-03 -1.47663267E-02 -4.76517755E-02
 -2.22723342E-02 -2.43359283E-10 -2.20534014E-09  1.27976086E-10  1.31709178E-10
  1.91063719E-01 -2.45917891E-10 -9.99311653E-10 -2.84169691E-10  1.47468842E-01
  3.29393737E-09 -3.33436281E-09 -1.16303688E-09 -1.62436071E-01 -3.18667872E-09
 -2.19042505E-09  2.69129764E-10 -3.11393991E-09  1.15733714E-01  5.27086609E-02
 -3.85766946E-10 -1.31817745E-09  7.57150326E-10  2.39415266E-09  1.91059759E-01
 -6.36759967E-10  1.50078321E-10  1.24409359E-09  1.47466612E-01  1.78929696E-09
 -3.50243862E-09  4.68063658E-10 -1.62436327E-01 -2.24774534E-10 -2.28050594E-09
 -3.48383888E-10  1.91558585E-09  1.22183151E-02  1.26581135E-01  4.15925029E-10
  8.81600444E-10 -9.09986225E-10 -2.23950286E-09  1.91060487E-01  2.08367319E-10
  1.35378258E-10 -5.05726559E-10  1.47466815E-01  4.92648131E-10 -2.07002165E-09
  5.78494789E-10 -1.62436246E-01  1.40776268E-09 -5.92320017E-10  9.48739289E-10
 -1.31591842E-09 -1.03509960E-01  7.38781948E-02 -5.17401981E-10 -1.07761597E-09
  2.99776814E-09  2.17482166E-09  1.91063719E-01  2.17883051E-10  1.59629502E-09
  1.24269524E-09  1.47468842E-01  4.21501035E-10 -1.08419216E-09 -6.23230524E-10
 -1.62436071E-01  1.33120000E-10 -1.23845813E-09 -1.02951544E-09  2.63049651E-09
 -1.15733714E-01 -5.27086609E-02  5.44479659E-10  1.14377720E-09 -2.20816351E-09
  5.22386962E-10  1.91059759E-01  2.29835536E-10  2.07654969E-10  1.06983223E-10
  1.47466612E-01  4.33814125E-10 -1.13180590E-09 -2.21421408E-09 -1.62436327E-01
  8.27714456E-10  2.36758344E-10  1.22846539E-09  2.08639566E-09 -1.22183151E-02
 -1.26581135E-01 -5.61100298E-10 -1.77634368E-09  2.18984445E-09  2.08199054E-10
  1.91060487E-01 -6.82894813E-10  5.46970544E-10 -5.79916597E-10  1.47466815E-01
  1.95254002E-09 -2.44500524E-09 -2.91165577E-09 -1.62436246E-01 -4.28272504E-10
 -2.68751987E-09 -6.88843308E-10  4.06344424E-09  1.03509960E-01 -7.38781948E-02
 -9.42285229E-09  1.90166781E-09 -2.96992195E-09 -1.15798139E-09  9.67004330E-10
  3.23361819E-12  3.85958241E-09  1.83091675E-09 -2.37259374E-10 -5.71765151E-10
 -3.09018908E-09 -7.80750271E-10  1.46174785E-02  5.03925462E-02 -2.80275346E-02
 -8.43001089E-02 -3.85588106E-07  2.16194598E-02 -2.60193384E-03 -4.91832676E-02
 -2.31180571E-07 -4.41491875E-02  8.66014573E-02 -1.34877768E-02 -1.45697560E-08
  7.13989467E-02  2.05006547E-02  1.72960607E-02  3.12008305E-01  1.71610745E-07
  7.81479137E-08 -2.27267920E-04  4.08239712E-04  1.17285984E-01 -2.33938387E-02
  2.24024555E-07  1.78585434E-03 -1.67557826E-02 -2.64750436E-04  1.32524649E-07
 -2.70781991E-03  8.32426701E-02 -2.19303162E-03  2.62099854E-08  2.06293685E-02
 -1.89261675E-02 -2.51563116E-04  1.31335307E-02  4.44881264E-07  4.17887092E-08
 -1.14106265E-02 -4.50440292E-02 -1.62398512E-02  5.36392098E-02  1.40211934E-07
 -1.72472409E-02  6.20827792E-03  3.69573518E-02  8.60689803E-08  4.17356278E-02
  8.86736560E-02  5.84526130E-03  2.54692804E-08 -2.81996782E-02 -5.92599446E-02
 -1.08125160E-02  3.28579127E-01 -3.23570767E-07 -4.02895975E-07 -1.46174785E-02
 -5.03925462E-02 -2.80275346E-02 -8.43001089E-02 -4.08131506E-07 -2.16194598E-02
 -2.60193384E-03 -4.91832676E-02 -2.50056107E-07  4.41491875E-02  8.66014573E-02
 -1.34877768E-02 -1.19217319E-08 -7.13989467E-02 -2.05006547E-02 -1.72960607E-02
 -3.12008305E-01  8.77326007E-08  3.99542255E-08  2.27267920E-04 -4.08239712E-04
  1.17285984E-01 -2.33938387E-02  1.40214838E-07 -1.78585434E-03 -1.67557826E-02
 -2.64750436E-04  8.60706152E-08  2.70781991E-03  8.32426701E-02 -2.19303162E-03
  2.54693432E-08 -2.06293685E-02  1.89261675E-02  2.51563116E-04 -1.31335307E-02
 -5.16344769E-07  2.03872988E-08  1.14106265E-02  4.50440292E-02 -1.62398512E-02
  5.36392098E-02  2.24021564E-07  1.72472409E-02  6.20827792E-03  3.69573518E-02
  1.32522763E-07 -4.17356278E-02  8.86736560E-02  5.84526130E-03  2.62096882E-08
  2.81996782E-02  5.92599446E-02  1.08125160E-02 -3.28579127E-01  3.23571262E-07
  3.08181078E-07  1.66820502E-01  2.55852988E-02 -8.44778164E-03 -3.57870010E-03
 -1.73780440E-01 -2.45009118E-02 -1.66820502E-01 -2.55852988E-02  8.44778164E-03
  3.57870010E-03  1.73780440E-01  2.45009118E-02 -4.17805742E-10  2.69844057E-10
 -2.63070678E-09  2.64113860E-09 -8.08824259E-03 -4.63112877E-10 -5.24056755E-10
  1.49865589E-09 -4.71790442E-03 -2.69933372E-09 -1.67426829E-09  3.74907784E-09
 -4.89706530E-04 -8.95394334E-11  2.70770558E-09 -1.69431755E-09 -1.46480256E-08
 -1.62924673E-01  3.53297293E-01  7.02784895E-10  2.78763491E-09 -9.01606069E-09
 -4.90367039E-09 -1.98575140E-01  1.29673896E-09  4.48753286E-10 -2.52250012E-09
 -1.15823791E-01 -4.19139848E-09 -1.12933831E-09  1.65174059E-09 -1.20365592E-02
  9.34017204E-11  6.05546474E-09 -1.82609619E-11  1.76616844E-10  2.00867189E-01
 -6.48764351E-02  7.78681511E-10  3.72575621E-09  7.87826707E-10 -2.46490090E-09
  2.06661786E-01  1.25104607E-09 -1.34023289E-09 -2.75868792E-09  1.20540137E-01
 -4.55182959E-09 -1.87993727E-09  1.96885132E-09  1.25279618E-02  2.07904864E-09
  5.94888373E-09  2.00535117E-10 -2.52992682E-08  6.78846589E-02  1.76227097E-01
  1.25216593E-09  3.38409325E-09 -5.88172914E-09  3.74115157E-09 -8.08824259E-03
  7.53196444E-10 -3.23458596E-09  2.33404864E-09 -4.71790442E-03 -2.63167229E-09
 -2.30631815E-09  5.32648928E-09 -4.89706530E-04  3.78890271E-09  1.66356212E-09
  1.64445286E-09  2.12642090E-08  1.62924673E-01 -3.53297293E-01 -1.14467346E-09
 -2.55507392E-09 -6.87734375E-09 -3.88228895E-09 -1.98575140E-01 -5.53673223E-10
  5.44280748E-10 -2.21145184E-09 -1.15823791E-01  1.63840309E-10 -1.81058070E-09
  5.83492846E-09 -1.20365592E-02  3.31602552E-10 -3.40447378E-09 -2.08379201E-09
 -1.45727425E-09 -2.00867189E-01  6.48764351E-02  2.78352257E-10  4.38855224E-12
  2.28197988E-10 -2.14642223E-09  2.06661786E-01 -3.67193730E-10 -2.31305382E-10
 -1.35721244E-09  1.20540137E-01 -2.51294071E-10 -1.67042882E-09  5.23165095E-09
  1.25279618E-02 -2.44012057E-10 -2.77474781E-10  3.22545568E-10  1.70337433E-08
 -6.78846589E-02 -1.76227097E-01 -2.56290949E-10  1.06992789E-09  7.38876308E-09
  1.82566247E-09  1.30230326E-08  1.80690546E-09  5.74367585E-09  4.80901782E-11
 -4.30706373E-09 -3.34794881E-10 -7.99626438E-09 -1.21606982E-09 -1.20822831E-08
  7.83812757E-09 -7.61595320E-08  7.63894973E-08 -2.33962159E-01 -1.33892935E-08
 -1.51733426E-08  4.33429985E-08 -1.36462899E-01 -7.81402231E-08 -4.84171739E-08
  1.08498370E-07 -1.41843203E-02 -2.55648272E-09  7.83764424E-08 -4.90218686E-08
 -4.23769378E-07 -4.29678739E-02 -3.43463341E-02  2.03377543E-08  8.06758069E-08
 -2.60874844E-07 -1.41935490E-07  1.23988605E-01  3.75305378E-08  1.29769160E-08
 -7.30062519E-08  7.23198905E-02 -1.21305701E-07 -3.26503273E-08  4.78066245E-08
  7.51375222E-03  2.71553629E-09  1.75240670E-07 -5.31679030E-10  5.12666075E-09
  3.31391585E-01 -3.59581533E-03  2.25327609E-08  1.07811652E-07  2.27937145E-08
 -7.13190200E-08  1.09979903E-01  3.61996047E-08 -3.87833129E-08 -7.98241733E-08
  6.41490666E-02 -1.31717092E-07 -5.43689237E-08  5.69894125E-08  6.66460320E-03
  6.01625053E-08  1.72140971E-07  5.80216209E-09 -7.32031255E-07 -2.20041945E-01
 -2.65154974E-01  3.62307954E-08  9.79129710E-08 -1.70235798E-07  1.08237106E-07
 -2.33962159E-01  2.17879427E-08 -9.36119999E-08  6.75281390E-08 -1.36462899E-01
 -7.61414406E-08 -6.67077923E-08  1.54153300E-07 -1.41843203E-02  1.09620278E-07
  4.81336923E-08  4.75819038E-08  6.15260212E-07  4.29678739E-02  3.43463341E-02
 -3.31277378E-08 -7.39475253E-08 -1.98984798E-07 -1.12377768E-07  1.23988605E-01
 -1.60254872E-08  1.57434162E-08 -6.40052387E-08  7.23198905E-02  4.74592767E-09
 -5.23618415E-08  1.68870810E-07  7.51375222E-03  9.58837048E-09 -9.85246612E-08
 -6.03057212E-08 -4.21800908E-08 -3.31391585E-01  3.59581533E-03  8.05981311E-09
  1.45273790E-10  6.60575852E-09 -6.20920565E-08  1.09979903E-01 -1.06199230E-08
 -6.68859474E-09 -3.92617641E-08  6.41490666E-02 -7.28925047E-09 -4.83038128E-08
  1.51414057E-07  6.66460320E-03 -7.05071377E-09 -8.00469086E-09  9.33806895E-09
  4.92817590E-07  2.20041945E-01  2.65154974E-01 -7.33621115E-09  3.09619263E-08
  2.13838184E-07  5.28354844E-08  3.76821777E-07  5.22817053E-08  1.66151751E-07
  1.38210979E-09 -1.24656546E-07 -9.69025655E-09 -2.31341444E-07 -3.51835132E-08
 -1.30944385E-13 -1.05502406E-12  2.14516223E-12  2.99717754E-13  1.64647038E-07
 -2.47065415E-13  5.23576325E-13  2.96061176E-13  1.03499374E-08  1.79363730E-12
 -2.47163708E-13 -1.79363090E-12  4.23512623E-08 -9.83176479E-13 -1.72136358E-12
  3.04236431E-13  1.92226869E-12 -1.40546091E-01  3.08607947E-01 -2.69348121E-13
 -1.29885158E-12  2.44969726E-12  3.12834775E-12  1.54759996E-07 -6.91673381E-13
  1.62576758E-13  1.36590855E-12  1.20359820E-06  2.11319649E-12 -3.37556067E-13
 -1.05958109E-12  9.03682665E-07 -4.89113489E-13 -2.56932145E-12  1.50799395E-13
 -7.21457705E-13  3.37533885E-01 -3.25898721E-02 -3.30342199E-13 -1.44034621E-12
 -3.11715406E-13  8.32873607E-13 -9.88517017E-09 -4.21996539E-13  4.21650089E-13
  9.17288867E-13  1.19324975E-06  1.70833621E-12 -1.63598515E-13 -1.40173635E-12
  8.61332058E-07 -9.26729813E-13 -2.10411139E-12 -1.23060039E-13  7.29798881E-12
 -1.96988545E-01 -2.76019663E-01 -3.18546307E-13 -7.60619510E-13  3.14705400E-12
 -7.81334127E-13 -1.64647046E-07 -4.15173092E-14  1.48875356E-12 -4.73635421E-13
 -1.03499416E-08  5.62387653E-13 -2.81969888E-14 -2.68859447E-12 -4.23512629E-08
 -7.36486752E-13 -3.98110584E-13 -4.26187965E-13 -5.54976367E-12 -1.40546091E-01
  3.08607947E-01  5.38904264E-13  1.29854932E-12  1.72154454E-12  2.74619613E-12
 -1.54759992E-07  3.45662574E-13  1.02865201E-14  1.26549127E-12 -1.20359819E-06
 -3.10142647E-13 -2.34688588E-13 -2.95429535E-12 -9.03682665E-07  1.01629903E-13
  1.63253599E-12  9.25231342E-13  8.16081396E-13  3.37533885E-01 -3.25898721E-02
 -2.17298110E-13 -4.54769861E-13 -4.21141639E-13  2.34617234E-13  9.88517382E-09
  2.00080904E-15 -1.46256632E-13  1.62099804E-13 -1.19324975E-06  5.05873492E-13
 -3.47173734E-13 -2.73208737E-12 -8.61332058E-07 -1.36876607E-13 -5.57107708E-13
 -2.17097774E-13 -3.37092684E-12 -1.96988545E-01 -2.76019663E-01 -2.27847215E-12
 -1.96477933E-13 -3.66918325E-12 -8.63332531E-13 -3.98871788E-12 -5.04218016E-13
 -4.58416093E-13  2.24956481E-13  2.49688227E-12  2.53971401E-13  1.59748734E-12
  2.85354056E-13 -1.02356759E-02 -4.33276479E-02  1.43282209E-01  3.07808111E-02
 -1.32277987E-07 -2.05124553E-02  4.47779572E-02  3.41784771E-02 -6.94607118E-08
  5.07349772E-02 -1.94656627E-02 -1.66778631E-01 -1.23980455E-08 -3.73942080E-02
 -5.32033582E-02 -4.86942941E-03 -4.59214729E-02 -2.26515478E-07 -1.03169502E-07
 -2.30679689E-02 -8.72354154E-02  3.55969555E-02  2.60418801E-01  4.84238478E-08
 -3.97241168E-02  2.08133392E-02  1.03902265E-01  2.95014439E-08  9.45637225E-02
 -2.06536637E-02 -1.58734294E-01 -5.67889201E-09 -4.38238966E-02 -1.30945407E-01
 -1.55818291E-02 -5.55394288E-02  2.85443768E-07 -4.65776771E-08 -8.57847196E-03
 -3.82254696E-02 -1.02833953E-01  5.40355833E-02  1.08702375E-07 -1.63461568E-02
 -3.53399399E-02  2.91059839E-02  5.88417200E-08  4.41471413E-02 -2.85257779E-02
 -1.68449565E-01 -8.49120011E-09 -4.78504289E-02 -3.35323964E-02 -2.76306366E-03
  6.64786619E-02 -1.56409562E-07 -1.70702919E-07  1.02356759E-02  4.33276479E-02
  1.43282209E-01  3.07808111E-02 -1.23168919E-07  2.05124553E-02  4.47779572E-02
  3.41784771E-02 -6.60021647E-08 -5.07349772E-02 -1.94656627E-02 -1.66778631E-01
 -2.10483168E-08  3.73942080E-02  5.32033582E-02  4.86942941E-03  4.59214729E-02
  2.05168280E-08  9.34383977E-09  2.30679689E-02  8.72354154E-02  3.55969555E-02
  2.60418801E-01  1.08707520E-07  3.97241168E-02  2.08133392E-02  1.03902265E-01
  5.88446365E-08 -9.45637225E-02 -2.06536637E-02 -1.58734294E-01 -8.49082115E-09
  4.38238966E-02  1.30945407E-01  1.55818291E-02  5.55394288E-02 -2.31452546E-07
 -5.93344630E-09  8.57847196E-03  3.82254696E-02 -1.02833953E-01  5.40355833E-02
  4.84187254E-08  1.63461568E-02 -3.53399399E-02  2.91059839E-02  2.94987215E-08
 -4.41471413E-02 -2.85257779E-02 -1.68449565E-01 -5.67904019E-09  4.78504289E-02
  3.35323964E-02  2.76306366E-03 -6.64786619E-02  1.52248954E-07  2.45918663E-07
 -1.13824532E-01 -1.75418678E-02 -2.30218084E-01 -4.07766524E-02 -1.15326499E-01
 -1.82447402E-02  1.13824532E-01  1.75418678E-02  2.30218084E-01  4.07766524E-02
  1.15326499E-01  1.82447402E-02 -2.00074006E-02 -8.39703121E-02 -3.91367948E-02
  1.06815773E-01 -7.52954791E-08 -2.38308464E-02 -4.02497037E-02  8.04939797E-02
 -3.70744174E-08  1.20486482E-01  1.46604741E-02  8.27568802E-02 -8.17113845E-09
 -5.34198748E-02 -1.32290863E-01  1.40375870E-03 -2.24840841E-01 -1.89991329E-07
 -8.65317222E-08  1.85533947E-02  1.65227455E-03  5.98351313E-02  1.01855579E-02
  2.48629719E-08 -1.97815133E-02  4.41254093E-02 -9.53673489E-05  1.62233233E-08
  1.01592269E-01  3.78112776E-02  1.02333158E-01 -5.57933243E-09 -4.76707969E-02
 -3.18963438E-02  6.69674137E-02 -9.31482119E-02  1.93444046E-07 -3.99134570E-08
 -4.65380724E-02 -1.45311862E-01  2.29952239E-02  5.50113431E-02  7.50380661E-08
 -2.58093773E-02  2.68299538E-02  3.77246902E-02  3.97638398E-08  1.32836968E-01
  1.54807724E-02  3.98589538E-02 -8.35496121E-09 -1.13679976E-01 -1.50475044E-01
 -4.33898163E-02  2.45673927E-01 -1.01445232E-07 -1.07704381E-07 -2.00074006E-02
 -8.39703121E-02  3.91367948E-02 -1.06815773E-01 -7.15550145E-08 -2.38308464E-02
  4.02497037E-02 -8.04939797E-02 -3.73329343E-08  1.20486482E-01 -1.46604741E-02
 -8.27568802E-02 -1.62219911E-08 -5.34198748E-02 -1.32290863E-01  1.40375870E-03
 -2.24840841E-01  1.01848044E-08  4.63855504E-09  1.85533947E-02  1.65227455E-03
 -5.98351313E-02 -1.01855579E-02  7.50412968E-08 -1.97815133E-02 -4.41254093E-02
  9.53673499E-05  3.97656656E-08  1.01592269E-01 -3.78112776E-02 -1.02333158E-01
 -8.35470272E-09 -4.76707969E-02 -3.18963438E-02  6.69674137E-02 -9.31482119E-02
 -1.47845058E-07 -5.82506353E-09 -4.65380724E-02 -1.45311862E-01 -2.29952239E-02
 -5.50113431E-02  2.48597567E-08 -2.58093773E-02 -2.68299538E-02 -3.77246902E-02
  1.62216623E-08  1.32836968E-01 -1.54807724E-02 -3.98589538E-02 -5.57939339E-09
 -1.13679976E-01 -1.50475044E-01 -4.33898163E-02  2.45673927E-01  9.68803792E-08
  1.72137228E-07 -9.98843554E-02 -7.43053871E-03 -4.96173603E-02 -2.72728006E-02
 -1.55546836E-01 -4.30761483E-03 -9.98843554E-02 -7.43053871E-03 -4.96173603E-02
 -2.72728006E-02 -1.55546836E-01 -4.30761483E-03 -1.22030928E-02 -5.27570326E-02
  2.36110604E-01  5.84366338E-02 -5.45053915E-08 -2.60116229E-02  9.75990828E-02
  1.48358923E-02 -2.25953620E-08  6.71087772E-02 -1.39322509E-01  2.73328392E-02
 -6.48584355E-09 -5.50126920E-02 -5.93342949E-02 -2.00948148E-03  1.75795160E-01
 -2.16422562E-07 -9.85673434E-08  9.60098374E-04  4.68452494E-03  6.82237576E-02
 -3.55621546E-02  1.09844159E-08  3.10237036E-03  1.62739204E-02 -1.20006486E-02
  8.77209369E-09 -7.07104139E-03 -1.47894394E-01  2.70194599E-02 -7.62099398E-09
  1.40756485E-02 -3.53079073E-03  2.37594464E-05 -9.34050604E-02  1.77330048E-07
 -4.77601905E-08  1.44684466E-02  5.91232690E-02  2.29997008E-01 -1.41118555E-01
  7.12824385E-08  2.99436138E-02  9.76842150E-02 -4.68560119E-02  3.62930502E-08
 -7.40893853E-02 -1.39154954E-01  2.48826255E-02 -1.21314991E-08  7.24197170E-02
  5.32480211E-02  4.41196803E-03  1.85752617E-01 -8.66534537E-08 -8.61894976E-08
  1.22030928E-02  5.27570326E-02  2.36110604E-01  5.84366338E-02 -4.70018479E-08
  2.60116229E-02  9.75990828E-02  1.48358923E-02 -2.29605967E-08 -6.71087772E-02
 -1.39322509E-01  2.73328392E-02 -1.85615958E-08  5.50126920E-02  5.93342949E-02
  2.00948148E-03 -1.75795160E-01  3.04424753E-09  1.38669920E-09 -9.60098374E-04
 -4.68452494E-03  6.82237576E-02 -3.55621546E-02  7.12849050E-08 -3.10237036E-03
  1.62739204E-02 -1.20006486E-02  3.62944428E-08  7.07104139E-03 -1.47894394E-01
  2.70194599E-02 -1.21312531E-08 -1.40756485E-02  3.53079073E-03 -2.37594461E-05
  9.34050604E-02 -1.21903857E-07 -8.78978254E-09 -1.44684466E-02 -5.91232690E-02
  2.29997008E-01 -1.41118555E-01  1.09819545E-08 -2.99436138E-02  9.76842150E-02
 -4.68560119E-02  8.77091060E-09  7.40893853E-02 -1.39154954E-01  2.48826255E-02
 -7.62096744E-09 -7.24197170E-02 -5.32480211E-02 -4.41196803E-03 -1.85752617E-01
  8.03816630E-08  1.65130336E-07 -1.07401499E-01 -2.07213525E-02  3.97914557E-03
  3.32008157E-04  1.11598523E-01  2.24665809E-02  1.07401499E-01  2.07213525E-02
 -3.97914557E-03 -3.32008157E-04 -1.11598523E-01 -2.24665809E-02 -7.01082389E-02
 -1.44075476E-01  1.43301529E-02 -1.85619997E-03  2.00452839E-08 -9.63854464E-03
  4.30077914E-03 -1.79079079E-02  2.10585474E-08  3.79314414E-02 -7.81979690E-02
 -4.32699758E-02 -6.72093326E-10 -1.65270730E-01 -1.20930791E-02 -1.09247756E-01
 -1.43180358E-01 -1.97675034E-07 -9.00264586E-08  2.98131174E-02  5.63543072E-02
 -1.90391647E-01  1.78001535E-02 -1.01870991E-08  2.48650649E-03 -1.28816383E-01
  1.67941794E-02 -1.31499925E-11 -6.14995631E-03 -9.89912540E-02  5.58739118E-02
 -6.22747402E-09  2.73918062E-02  3.26670503E-02  5.04301493E-02  3.08132184E-01
  7.83537991E-08 -4.79218089E-08  3.78179202E-02  7.47495370E-02  7.94534975E-02
  9.33940742E-02  3.36992372E-08  2.74446387E-03  6.41887396E-02  8.49990122E-02
  1.45197443E-08 -9.00847510E-03  1.22063789E-02  1.10359039E-01 -1.25532730E-08
  1.71722819E-01 -8.75152401E-02  6.29828790E-02 -2.32430047E-02 -2.79756051E-08
 -1.92056241E-08 -7.01082389E-02 -1.44075476E-01 -1.43301529E-02  1.85619997E-03
  4.41094372E-09 -9.63854464E-03 -4.30077914E-03  1.79079079E-02  2.77543639E-09
  3.79314414E-02  7.81979690E-02  4.32699758E-02 -1.54035922E-08 -1.65270730E-01
 -1.20930791E-02 -1.09247756E-01 -1.43180358E-01 -9.92066463E-09 -4.51807045E-09
  2.98131174E-02  5.63543072E-02  1.90391647E-01 -1.78001535E-02  3.37001203E-08
  2.48650649E-03  1.28816383E-01 -1.67941794E-02  1.45202610E-08 -6.14995631E-03
  9.89912540E-02 -5.58739118E-02 -1.25531036E-08  2.73918062E-02  3.26670503E-02
  5.04301493E-02  3.08132184E-01 -3.28532409E-08 -8.49610163E-09  3.78179202E-02
  7.47495370E-02 -7.94534975E-02 -9.33940742E-02 -1.01879907E-08  2.74446387E-03
 -6.41887396E-02 -8.49990122E-02 -1.34597064E-11 -9.00847510E-03 -1.22063789E-02
 -1.10359039E-01 -6.22736915E-09  1.71722819E-01 -8.75152401E-02  6.29828790E-02
 -2.32430047E-02  1.52849878E-08  9.05682541E-08 -1.01677435E-01  2.24103208E-02
  2.33760207E-02 -1.65624457E-02  5.24936640E-02 -9.75316839E-03 -1.01677435E-01
  2.24103208E-02  2.33760207E-02 -1.65624457E-02  5.24936640E-02 -9.75316839E-03
  2.41012390E-03 -8.70247943E-03  3.38558108E-03  1.20235463E-01  3.04224396E-08
  7.67523693E-03  6.29040450E-02 -4.90511324E-02  3.58191351E-08  1.21370214E-02
 -8.16736419E-04 -3.42296423E-02  8.36264582E-09 -1.22303327E-01  8.64276149E-02
  1.72273430E-02  1.58166292E-01 -2.21193871E-07 -1.00736728E-07  5.48105941E-03
  2.52566806E-04 -3.79060350E-02  8.43319054E-02 -1.66895177E-08  2.54380153E-03
 -1.11481650E-01  4.69155492E-02  5.35158987E-10  1.05865038E-02 -3.81398313E-02
 -1.39359874E-02 -4.53318592E-09 -4.47723717E-02  2.75623183E-02  1.56724410E-02
  4.46185287E-01  6.72590586E-08 -7.25148054E-08 -4.00973525E-03  1.91682047E-03
 -4.91704282E-02 -1.61534734E-02  3.09522454E-08 -7.88557524E-03  4.29809001E-02
  6.52456820E-02  8.87928403E-09 -1.77799030E-03  7.57535179E-05 -2.55900964E-03
 -2.09254167E-08  2.01591933E-01 -1.84887416E-01 -1.20366220E-02 -4.94091285E-02
 -1.80311063E-08  7.78659631E-09 -2.41012390E-03  8.70247943E-03  3.38558108E-03
  1.20235463E-01  2.60906150E-08 -7.67523693E-03  6.29040450E-02 -4.90511324E-02
  7.99429073E-09 -1.21370214E-02 -8.16736419E-04 -3.42296423E-02 -2.68096350E-08
  1.22303327E-01 -8.64276149E-02 -1.72273430E-02 -1.58166292E-01 -3.25283272E-08
 -1.48142841E-08 -5.48105941E-03 -2.52566806E-04 -3.79060350E-02  8.43319054E-02
  3.09524838E-08 -2.54380153E-03 -1.11481650E-01  4.69155492E-02  8.87962742E-09
 -1.05865038E-02 -3.81398313E-02 -1.39359874E-02 -2.09250145E-08  4.47723717E-02
 -2.75623183E-02 -1.56724410E-02 -4.46185287E-01 -5.96230356E-09 -1.87122490E-08
  4.00973525E-03 -1.91682047E-03 -4.91704282E-02 -1.61534734E-02 -1.66898480E-08
  7.88557524E-03  4.29809001E-02  6.52456820E-02  5.35372825E-10  1.77799030E-03
  7.57535179E-05 -2.55900964E-03 -4.53276558E-09 -2.01591933E-01  1.84887416E-01
  1.20366220E-02  4.94091285E-02 -1.05520996E-08  9.83419828E-08 -5.89027451E-02
 -1.94937521E-02  8.38323163E-03 -2.45596971E-03  6.94596008E-02  1.35884898E-02
  5.89027451E-02  1.94937521E-02 -8.38323163E-03  2.45596971E-03 -6.94596008E-02
 -1.35884898E-02 -1.82948700E-02 -4.51938954E-04 -4.22900857E-02  1.39403680E-01
 -1.13626369E-07  8.79309082E-03 -1.82250887E-02  9.19970509E-02 -1.39991598E-07
 -5.89952716E-02 -1.06739605E-01  9.08556233E-02 -4.78573000E-08  1.77568613E-01
 -1.06395402E-01 -6.08246575E-02  4.29878692E-02  7.27998723E-07  3.31547682E-07
  9.49618295E-02  1.56172911E-01  5.06579085E-02 -4.02515476E-02  3.38054412E-08
  2.60313049E-02  3.75582230E-02  2.79290175E-02 -2.54022112E-08 -9.74606527E-02
  4.96781002E-02  5.66797171E-02  1.51638549E-09 -8.11375883E-02  3.03076168E-01
  8.46886879E-02  4.05268994E-03 -1.73262331E-07  3.03000212E-07 -7.90045033E-02
 -8.54118473E-02  9.87214933E-03  1.03051719E-01 -7.87722645E-08 -1.87238467E-04
  1.71246864E-02  5.72364252E-02 -1.11683602E-08 -3.87124876E-02  1.48158177E-01
 -3.86309967E-03  7.60549183E-08  6.96449491E-02 -8.13963175E-02 -1.38793340E-01
 -8.23835149E-02  4.08818310E-08 -9.02434563E-08 -1.82948700E-02 -4.51938953E-04
  4.22900857E-02 -1.39403680E-01 -9.31610239E-08  8.79309082E-03  1.82250887E-02
 -9.19970509E-02 -7.21296109E-09 -5.89952716E-02  1.06739605E-01 -9.08556233E-02
  1.06508311E-07  1.77568613E-01 -1.06395402E-01 -6.08246575E-02  4.29878692E-02
  1.85458115E-07  8.44635029E-08  9.49618295E-02  1.56172911E-01 -5.06579085E-02
  4.02515476E-02 -7.87720353E-08  2.60313049E-02 -3.75582230E-02 -2.79290175E-02
 -1.11701674E-08 -9.74606527E-02 -4.96781002E-02 -5.66797171E-02  7.60521894E-08
 -8.11375883E-02  3.03076168E-01  8.46886879E-02  4.05268994E-03 -4.12431365E-08
  9.00693459E-08 -7.90045033E-02 -8.54118473E-02 -9.87214933E-03 -1.03051719E-01
  3.38057678E-08 -1.87238467E-04 -1.71246864E-02 -5.72364252E-02 -2.54044477E-08
 -3.87124876E-02 -1.48158177E-01  3.86309967E-03  1.51353091E-09  6.96449491E-02
 -8.13963175E-02 -1.38793340E-01 -8.23835149E-02  1.14847431E-07 -3.29614408E-07
  1.19304390E-01  3.22583113E-02  1.79088297E-01 -1.53254688E-02  8.02264265E-02
  5.37150723E-02  1.19304390E-01  3.22583113E-02  1.79088297E-01 -1.53254688E-02
  8.02264265E-02  5.37150723E-02 -3.99804432E-07 -3.58798854E-07  2.65258956E-07
  1.11596501E-07  9.43914531E-03 -1.02724680E-07  1.01853955E-07  1.00060099E-08
 -7.46367122E-02  9.82946291E-08  4.27654287E-08 -1.35605136E-07 -9.18711764E-02
 -1.23193661E-07 -1.04928874E-07 -3.89196721E-07 -1.22252537E-07  4.16132079E-01
  2.36879007E-01  2.01920271E-07  7.57103145E-08 -1.61723046E-07  3.49677056E-07
  2.29401900E-03 -1.07979679E-08  1.01887953E-09  8.78869796E-08 -1.81474349E-02
  1.16667858E-07 -8.85040803E-08 -5.43762352E-08 -2.23372510E-02 -1.18596264E-07
 -7.50562685E-08  2.61938930E-07 -6.33216805E-08 -1.35587653E-01  1.29579727E-01
 -1.37456010E-07 -1.05828781E-07  2.23479789E-07  1.10487245E-08 -7.14239014E-03
 -7.40636819E-09  3.77131390E-08 -2.69729309E-08  5.64904876E-02  3.72465310E-08
 -1.90698703E-07 -4.69931774E-08  6.95342148E-02  6.58287267E-10 -8.36647365E-08
 -8.86781925E-08 -6.76129059E-08  2.33198577E-01 -2.94576016E-01  2.48383938E-07
  1.84268783E-07  3.10820385E-08  2.56415418E-07 -9.43914532E-03  1.72817128E-08
 -1.44749943E-10  9.40836880E-08  7.46367122E-02  1.97872743E-08 -2.14360879E-07
  3.65644762E-08  9.18711764E-02 -2.66620784E-07  2.68892072E-07  2.91620760E-07
 -2.40928856E-07  4.16132079E-01  2.36879007E-01 -3.66932160E-07 -3.50663493E-07
  1.67473660E-07  2.42555089E-07 -2.29401900E-03 -4.38706662E-08  6.88469326E-08
  1.42308471E-07  1.81474349E-02  8.78901734E-08  2.10708630E-09  4.65803810E-08
  2.23372510E-02  2.15726101E-07 -4.80181578E-07 -3.52473729E-07 -5.04103671E-08
 -1.35587653E-01  1.29579727E-01  4.01395263E-07  2.98752622E-07  2.91170327E-08
  3.09533661E-08  7.14239014E-03  1.73351917E-08  5.39425909E-08  3.21233896E-08
 -5.64904876E-02  4.37858712E-08  1.45755780E-07 -6.25753152E-08 -6.95342148E-02
 -1.69080646E-07  1.75731856E-07  4.69730029E-07  2.79977646E-07  2.33198577E-01
 -2.94576016E-01  3.38829612E-07  1.28610326E-07 -3.42894349E-07 -7.73784825E-08
  1.92708002E-07  4.36010305E-08 -3.29081299E-07 -1.39246781E-07  1.24049291E-08
  1.21505259E-07 -4.16388011E-07 -1.78811929E-07 -1.18590519E-07 -1.06424643E-07
  7.86749482E-08  3.31029121E-08  2.79885149E-03 -3.04687111E-08  3.02088380E-08
  2.96981349E-09 -2.21374296E-02  2.91534276E-08  1.26820348E-08 -4.02197301E-08
 -2.72486049E-02 -3.65323586E-08 -3.11276888E-08 -1.15443973E-07 -3.62574844E-08
  1.88957488E-01 -7.36356214E-02  5.98983020E-08  2.24627919E-08 -4.79655071E-08
  1.03718319E-07  9.57345809E-03 -3.20177815E-09  3.04185885E-10  2.60695717E-08
 -7.57055807E-02  3.46021887E-08 -2.62493266E-08 -1.61266689E-08 -9.31863744E-02
 -3.51806718E-08 -2.22528096E-08  7.76991990E-08 -1.87846209E-08  8.16596996E-02
  4.78084233E-01 -4.07768974E-08 -3.13944514E-08  6.62873214E-08  3.28067166E-09
  6.77302699E-03 -2.19698382E-09  1.11861759E-08 -7.99972010E-09 -5.35688003E-02
  1.10469260E-08 -5.65587559E-08 -1.39389342E-08 -6.59377943E-02  1.96319946E-10
 -2.48174830E-08 -2.63096047E-08 -2.00581163E-08 -3.42497863E-01  1.09297638E-01
  7.36770387E-08  5.46584695E-08  9.21873714E-09  7.60522384E-08 -2.79885149E-03
  5.12634506E-09 -4.34829805E-11  2.79044961E-08  2.21374296E-02  5.86785177E-09
 -6.35789207E-08  1.08435534E-08  2.72486049E-02 -7.90808697E-08  7.97561560E-08
  8.64999872E-08 -7.14612258E-08  1.88957488E-01 -7.36356214E-02 -1.08838147E-07
 -1.04009567E-07  4.96734624E-08  7.19468349E-08 -9.57345809E-03 -1.30121913E-08
  2.04205010E-08  4.22102135E-08  7.57055807E-02  2.60669570E-08  6.24711263E-10
  1.38157124E-08  9.31863744E-02  6.39867463E-08 -1.42422144E-07 -1.04549300E-07
 -1.49498518E-08  8.16596996E-02  4.78084233E-01  1.19060365E-07  8.86137762E-08
  8.63813961E-09  9.18121359E-09 -6.77302699E-03  5.14203571E-09  1.59996343E-08
  9.52675471E-09  5.35688003E-02  1.29859622E-08  4.32299925E-08 -1.85605051E-08
  6.59377943E-02 -5.01488951E-08  5.21224957E-08  1.39326594E-07  8.30429306E-08
 -3.42497863E-01  1.09297638E-01  1.00507494E-07  3.81489809E-08 -1.01703230E-07
 -2.29528047E-08  5.71636159E-08  1.29349926E-08 -9.76106803E-08 -4.13028196E-08
  3.68502044E-09  3.60404919E-08 -1.23505260E-07 -5.30374008E-08 -5.12315995E-07
 -3.89787192E-07  1.66994857E-07  1.42488783E-07 -1.11161989E-01 -8.87475170E-08
  4.94132410E-08  4.02075440E-08 -8.25720095E-02  6.67335791E-08 -6.27460412E-09
 -9.62107229E-08  6.74878041E-02  5.52146481E-08 -2.12036749E-07 -4.81676544E-07
 -1.90894831E-08  3.17580485E-01  1.44632753E-01  3.70107596E-07  2.13968093E-07
 -8.30520154E-08  3.77213574E-07 -1.11158831E-01  1.11305880E-08  4.02711669E-08
  1.22771393E-07 -8.25697456E-02  6.71192520E-08 -5.01414296E-08 -1.39716097E-08
  6.74881314E-02 -2.09903578E-07  1.21047453E-07  3.94361302E-07 -1.16296446E-07
  3.35355780E-02  3.47344324E-01 -2.95925510E-07 -2.13594138E-07  2.45321041E-07
  8.58741998E-08 -1.11162040E-01 -1.33082642E-08  3.95553959E-08 -1.73804050E-08
 -8.25717319E-02  2.57811672E-08 -1.05051978E-07 -5.50452621E-08  6.74878432E-02
  2.49661936E-08 -1.18991516E-07 -2.46387928E-07 -1.43606640E-07 -2.84043012E-01
  2.02716913E-01  3.66416743E-07  2.54059525E-07  1.49493107E-08  2.07028655E-07
 -1.11161989E-01  2.75671367E-08 -1.63072998E-08  6.99300958E-08 -8.25720095E-02
 -2.35248332E-09 -1.68258644E-07  1.21476763E-09  6.74878041E-02 -2.68116281E-07
  2.96061855E-07  3.71765979E-07 -2.36876511E-07 -3.17580485E-01 -1.44632753E-01
 -4.57176513E-07 -3.63062079E-07  1.54190708E-07  3.09658367E-07 -1.11158831E-01
 -4.19291894E-08  7.37160716E-08  1.53199349E-07 -8.25697456E-02  4.99845781E-08
  1.75283346E-10  4.03151799E-08  6.74881314E-02  2.47570404E-07 -4.26610037E-07
 -4.26898554E-07  1.92766897E-08 -3.35355780E-02 -3.47344325E-01  4.84982944E-07
  3.33477387E-07  8.34137123E-08  6.16515874E-08 -1.11162040E-01  2.31867784E-08
  4.79265456E-08  6.75182370E-09 -8.25717319E-02  1.78240378E-08  1.02358718E-07
 -6.67818330E-08  6.74878432E-02 -1.29442961E-07  1.55386546E-07  4.94795081E-07
  2.70229258E-07  2.84043012E-01 -2.02716913E-01  4.97728466E-07  1.54485797E-07
 -3.09585567E-07 -1.18016643E-07  3.02825723E-07  1.01698925E-07 -4.07921627E-07
 -1.69649979E-07  1.25589083E-07  1.45519081E-07 -4.46258812E-07 -1.88576625E-07
 -2.06955100E-01 -1.26494862E-01 -2.30169927E-02  3.24821595E-02 -1.38280704E-07
 -1.36623061E-02 -1.98134157E-02  1.18541348E-02  1.49423427E-07  6.18456682E-03
 -2.48105027E-02 -1.21683771E-02  1.48626701E-08  8.95011589E-02 -1.04291336E-01
 -1.76849816E-01  6.42297401E-02 -9.68297240E-07 -4.40977658E-07  2.16780770E-01
  1.34763473E-01  3.18967191E-02  1.19217194E-01  5.39757265E-07  1.46663960E-02
  2.55573069E-02  5.30277615E-02  4.09369423E-07 -2.27836475E-03  5.36400115E-03
  1.77805631E-02 -3.75270601E-08 -9.13462190E-02  1.07760969E-01  1.89656991E-01
 -4.73655245E-02 -1.34731006E-07 -1.59828280E-06 -2.05332217E-01 -1.28742143E-01
  6.90360525E-02  4.71684561E-02  2.62585720E-07 -9.89607392E-03  1.36518096E-02
 -8.23328294E-03  1.37988491E-07  6.36082207E-03  1.63933578E-02 -2.06097966E-02
 -2.29307324E-07  1.67054839E-02 -4.11899544E-02 -1.71929791E-01 -7.23565443E-02
  6.27572127E-07  8.45987631E-08  2.06955100E-01  1.26494862E-01 -2.30169927E-02
  3.24821595E-02  7.65027688E-08  1.36623061E-02 -1.98134157E-02  1.18541348E-02
 -1.01286654E-07 -6.18456682E-03 -2.48105027E-02 -1.21683771E-02 -3.55077744E-07
 -8.95011589E-02  1.04291336E-01  1.76849816E-01 -6.42297401E-02 -4.19711402E-07
 -1.91137051E-07 -2.16780770E-01 -1.34763473E-01  3.18967191E-02  1.19217194E-01
  2.62573901E-07 -1.46663960E-02  2.55573069E-02  5.30277615E-02  1.37977253E-07
  2.27836475E-03  5.36400115E-03  1.77805631E-02 -2.29312721E-07  9.13462190E-02
 -1.07760969E-01 -1.89656991E-01  4.73655245E-02  4.75780429E-07  4.17844915E-07
  2.05332217E-01  1.28742143E-01  6.90360525E-02  4.71684561E-02  5.39770591E-07
  9.89607392E-03  1.36518096E-02 -8.23328294E-03  4.09372229E-07 -6.36082207E-03
  1.63933578E-02 -2.06097966E-02 -3.75305208E-08 -1.67054839E-02  4.11899544E-02
  1.71929791E-01  7.23565443E-02 -1.29412169E-06  9.47542974E-07  1.89746637E-01
  7.41256682E-02 -1.00452219E-01 -6.30452524E-02  1.56263056E-01  6.70173300E-02
 -1.89746637E-01 -7.41256682E-02  1.00452219E-01  6.30452524E-02 -1.56263056E-01
 -6.70173300E-02 -1.00030055E-01 -6.31289521E-02 -7.59750761E-02 -1.50956386E-01
  3.09084035E-08 -1.39832126E-03 -2.69106714E-02 -6.43084874E-02 -1.17495262E-09
  2.40252116E-05 -3.73348094E-03 -1.41160896E-03 -2.41257912E-09 -2.11671330E-01
  1.94894681E-01 -8.00976507E-02 -8.72713147E-02  3.92871773E-08  1.78920764E-08
  7.77256470E-02  4.31776372E-02 -5.15683022E-02 -1.23819733E-01 -4.14628999E-08
  1.02263187E-03 -4.53142544E-02 -3.69939368E-02 -2.91066358E-08 -7.61964080E-03
 -4.85509362E-03  2.50368831E-02  1.99520590E-09  2.69571529E-01 -2.62554054E-01
  5.48210812E-02  7.61019689E-02  1.10115226E-08  1.14143903E-07 -1.01701456E-01
 -5.82940723E-02 -4.17931901E-02 -1.99545027E-01 -2.17520924E-08 -7.56852585E-03
  2.93140305E-02 -3.01972756E-02 -1.10923223E-08  1.61003655E-04  1.58015721E-02
  6.76450816E-03  1.68891746E-08 -6.51788488E-02  6.51650246E-02 -8.69290357E-02
  1.05123366E-01 -4.77617677E-08 -5.45981324E-09  1.00030055E-01  6.31289521E-02
 -7.59750761E-02 -1.50956386E-01 -2.08565937E-09  1.39832126E-03 -2.69106714E-02
 -6.43084874E-02  9.32650989E-09 -2.40252116E-05 -3.73348094E-03 -1.41160896E-03
  2.66448011E-08  2.11671330E-01 -1.94894681E-01  8.00976507E-02  8.72713147E-02
  3.47162775E-08  1.58099129E-08 -7.77256470E-02 -4.31776372E-02 -5.15683022E-02
 -1.23819733E-01 -2.17510179E-08 -1.02263187E-03 -4.53142544E-02 -3.69939368E-02
 -1.10914679E-08  7.61964080E-03 -4.85509362E-03  2.50368831E-02  1.68894899E-08
 -2.69571529E-01  2.62554054E-01 -5.48210812E-02 -7.61019689E-02 -3.54715292E-08
 -3.24430753E-08  1.01701456E-01  5.82940723E-02 -4.17931901E-02 -1.99545027E-01
 -4.14640275E-08  7.56852585E-03  2.93140305E-02 -3.01972756E-02 -2.91069948E-08
 -1.61003655E-04  1.58015721E-02  6.76450816E-03  1.99534543E-09  6.51788488E-02
 -6.51650246E-02  8.69290357E-02 -1.05123366E-01  9.33343946E-08 -6.66224084E-08
 -2.68564087E-02  2.18133858E-02 -1.89258650E-01 -5.06173411E-02  3.99103041E-02
  3.50464989E-02  2.68564087E-02 -2.18133858E-02  1.89258650E-01  5.06173411E-02
 -3.99103041E-02 -3.50464989E-02 -2.96396790E-07 -1.01820890E-07  1.75408343E-07
  3.44069758E-08 -3.48200009E-02 -3.75299418E-08 -8.97914864E-09  2.36885548E-08
 -1.77134637E-02  3.16039978E-08 -6.54652372E-08 -1.03691859E-07 -2.27594751E-03
  4.86123856E-08 -1.99788242E-08 -1.51046115E-07 -8.47310422E-08  1.16931310E-01
 -1.37821431E-01 -4.91808257E-08 -1.86511811E-08 -5.95177909E-08  4.61341241E-09
 -2.38658451E-01 -4.34699808E-09  4.97634494E-08 -1.06915793E-08 -1.21410111E-01
  5.26617062E-09 -1.26084790E-07 -6.21872393E-09 -1.56003093E-02 -1.98418024E-08
  2.45538716E-08 -2.87269407E-08 -2.89810856E-07 -7.17268750E-02  3.46354016E-01
  3.23510588E-07  1.08615490E-07  1.21900032E-07 -2.28554303E-08  2.73477712E-01
  2.80738574E-08 -3.12395131E-08  2.73044124E-09  1.39123266E-01 -3.09897221E-08
 -5.28285432E-08  1.01715327E-07  1.78766492E-02 -6.23921039E-08  4.34023641E-08
  1.46255339E-07 -3.93238713E-08  2.74917601E-01 -2.81234608E-01 -3.38566836E-07
 -1.13190134E-07 -1.19806292E-07 -1.89769511E-08 -3.48200009E-02 -2.84552326E-08
  2.93411532E-08 -2.25053613E-08 -1.77134637E-02  2.91498017E-08  6.36113881E-08
  1.01729325E-07 -2.27594751E-03  9.42713486E-08 -6.22136759E-08 -1.64081125E-07
 -4.43911427E-08 -1.16931310E-01  1.37821431E-01  5.76079953E-08  1.59986678E-08
  2.78426195E-08 -1.98861298E-08 -2.38658451E-01  2.82972098E-09 -5.70438849E-08
 -2.53966475E-09 -1.21410111E-01  2.33572682E-09  1.16802544E-07 -3.74692683E-09
 -1.56003093E-02 -6.55277920E-08  5.68147088E-08  2.28106473E-08 -3.13739679E-07
  7.17268750E-02 -3.46354016E-01  2.26911175E-07  7.62878629E-08 -1.43223538E-07
 -2.31555587E-08  2.73477712E-01  2.38595202E-08  3.40101499E-08  3.04316572E-09
  1.39123266E-01 -2.72834952E-08  4.10945242E-08 -9.81325741E-08  1.78766492E-02
 -5.83237279E-08  4.65777568E-08  1.03014993E-07 -5.38778592E-08 -2.74917601E-01
  2.81234608E-01  8.92208408E-08  7.43412360E-08  1.95341329E-08  1.82257349E-08
 -7.50245430E-08 -8.06036407E-08  1.11795262E-07  8.53388164E-08  1.26019185E-09
  1.90997470E-09 -4.02799539E-08 -6.35605319E-08 -2.51786146E-06 -8.64933105E-07
  1.48994290E-06  2.92258263E-07 -2.95681059E-01 -3.18778057E-07 -7.63279882E-08
  2.01222449E-07 -1.50417920E-01  2.68465041E-07 -5.56158226E-07 -8.80829368E-07
 -1.93279238E-02  4.13051807E-07 -1.69801917E-07 -1.28308063E-06 -7.19643680E-07
  3.72448864E-01  1.92121422E-01 -4.17602993E-07 -1.58358258E-07 -5.05470549E-07
  3.91971714E-08  1.77995857E-01 -3.69109878E-08  4.22742330E-07 -9.07960556E-08
  9.05491967E-02  4.47122674E-08 -1.07105644E-06 -5.27930846E-08  1.16348020E-02
 -1.68622556E-07  2.08683785E-07 -2.43949826E-07 -2.46189758E-06 -1.63921977E-01
 -2.37326912E-01  2.74796813E-06  9.22588853E-07  1.03550197E-06 -1.94108913E-07
  1.17687324E-01  2.38471449E-07 -2.65373528E-07  2.31880639E-08  5.98690930E-02
 -2.63249675E-07 -4.48705089E-07  8.64059551E-07  7.69263659E-03 -5.29979202E-07
  3.68698972E-07  1.24227842E-06 -3.34096306E-07  2.29040556E-01  3.41299584E-02
 -2.87593225E-06 -9.61467764E-07 -1.01779140E-06 -1.61228710E-07 -2.95681059E-01
 -2.41717490E-07  2.49231958E-07 -1.91174281E-07 -1.50417920E-01  2.47625433E-07
  5.40415278E-07  8.64163974E-07 -1.93279238E-02  8.00759497E-07 -5.28437505E-07
 -1.39375410E-06 -3.77097855E-07 -3.72448864E-01 -1.92121422E-01  4.89204077E-07
  1.35865796E-07  2.36498269E-07 -1.68877986E-07  1.77995857E-01  2.40304201E-08
 -4.84562286E-07 -2.15552989E-08  9.05491967E-02  1.98287034E-08  9.92237120E-07
 -3.18296984E-08  1.16348020E-02 -5.56563877E-07  4.82618402E-07  1.93675475E-07
 -2.66508712E-06  1.63921977E-01  2.37326912E-01  1.92768763E-06  6.48083718E-07
 -1.21656903E-06 -1.96595128E-07  1.17687324E-01  2.02685231E-07  2.88901431E-07
  2.58395350E-08  5.98690930E-02 -2.31778728E-07  3.49066796E-07 -8.33636876E-07
  7.69263659E-03 -4.95432267E-07  3.95668286E-07  8.75108960E-07 -4.57678354E-07
 -2.29040556E-01 -3.41299584E-02  7.57882675E-07  6.31534785E-07  1.65939595E-07
  1.54788212E-07 -6.37226296E-07 -6.84666828E-07  9.49560724E-07  7.24913144E-07
  1.07677835E-08  1.62448704E-08 -3.42197462E-07 -5.39947613E-07  3.22967487E-01
  1.02313687E-01 -1.48297273E-01 -2.83831946E-02 -2.39380388E-06  2.92662946E-02
  2.66288592E-02 -2.26741646E-02 -1.27741711E-06 -3.24316881E-02  8.44179102E-02
  1.06609183E-01 -1.79359651E-07 -8.29353116E-02  4.91242658E-02  1.49689999E-01
  4.81421122E-02  3.30861819E-06  1.50687118E-06 -6.59398916E-03 -5.12416257E-03
  2.31923481E-02 -5.41540867E-03  1.01488014E-06 -5.65225822E-04 -5.64509849E-02
  3.03750109E-03  5.20741816E-07  1.84796714E-03  1.32305507E-01 -4.78164718E-03
  7.38311353E-08  4.36165831E-02 -5.85843189E-02  6.00226793E-03  3.12686298E-01
 -1.42547727E-06 -1.27468280E-06 -2.83476783E-01 -9.13884187E-02 -1.24927539E-01
  1.08532342E-02  1.45030106E-06 -2.65831965E-02  3.34137008E-02 -7.44272963E-04
  7.04269109E-07  3.26146252E-02  3.60835421E-02 -1.11918914E-01  1.13979559E-07
  5.69432403E-02 -4.85787050E-02 -1.14181089E-01  5.70361418E-02  2.29458269E-06
 -1.37101152E-07  3.22967487E-01  1.02313687E-01  1.48297273E-01  2.83831946E-02
 -2.74530804E-06  2.92662946E-02 -2.66288592E-02  2.26741646E-02 -1.32340977E-06
 -3.24316881E-02 -8.44179102E-02 -1.06609183E-01 -1.16408619E-07 -8.29353116E-02
  4.91242658E-02  1.49689999E-01  4.81421122E-02 -3.32339967E-06 -1.51360368E-06
 -6.59398915E-03 -5.12416257E-03 -2.31923481E-02  5.41540867E-03  1.45046288E-06
 -5.65225821E-04  5.64509849E-02 -3.03750109E-03  7.04351812E-07  1.84796714E-03
 -1.32305507E-01  4.78164718E-03  1.13989869E-07  4.36165831E-02 -5.85843189E-02
  6.00226794E-03  3.12686298E-01  1.40281618E-06  1.82121577E-06 -2.83476783E-01
 -9.13884187E-02  1.24927539E-01 -1.08532342E-02  1.01471777E-06 -2.65831965E-02
 -3.34137008E-02  7.44272964E-04  5.20659485E-07  3.26146252E-02 -3.60835421E-02
  1.11918914E-01  7.38209978E-08  5.69432403E-02 -4.85787050E-02 -1.14181089E-01
  5.70361418E-02 -1.89717577E-06 -2.38759074E-07 -8.22543438E-02 -8.43041866E-02
 -2.17534512E-02 -8.00494357E-03  5.07722529E-02  7.18953185E-02 -8.22543438E-02
 -8.43041866E-02 -2.17534512E-02 -8.00494357E-03  5.07722529E-02  7.18953185E-02
 -6.52837103E-02 -9.46881858E-03 -7.50031801E-02  1.08678450E-02 -5.08919307E-08
  1.94304651E-03  8.10874697E-03 -4.00909401E-02 -1.00415096E-08 -2.86920471E-02
  5.36949083E-02  4.52433351E-02  4.13246826E-09 -9.62586613E-02  7.10112802E-02
  2.52615850E-02  1.15800965E-01  2.66871527E-08  1.21538498E-08  5.61952415E-01
  5.24308627E-02 -1.78321055E-02 -1.75925034E-01  4.99532930E-08  3.30718399E-02
 -4.32314860E-03 -3.42880960E-03  1.54226583E-08 -3.84440975E-02  1.06029645E-02
  1.01839728E-01  7.77827482E-10 -4.84965997E-02 -1.39233917E-01  1.29146092E-01
 -1.96889020E-02  7.28579641E-09 -4.93558782E-08 -4.36510910E-02 -5.90712054E-03
  9.75364369E-02  1.54129247E-02 -6.04912214E-08  2.65370437E-03 -9.11067617E-03
 -3.49366437E-02 -2.09102589E-08 -2.81866872E-02 -4.29470714E-02  5.29599426E-02
 -5.30830431E-09 -1.00650539E-01  7.23426393E-02  2.91277219E-02 -3.69249646E-02
 -4.90909373E-08  2.84523626E-08 -6.52837103E-02 -9.46881858E-03  7.50031801E-02
 -1.08678450E-02  7.78012188E-08  1.94304651E-03 -8.10874697E-03  4.00909401E-02
  2.57106260E-08 -2.86920471E-02 -5.36949083E-02 -4.52433351E-02 -4.54112546E-09
 -9.62586613E-02  7.10112802E-02  2.52615850E-02  1.15800965E-01  6.37419163E-08
  2.90293117E-08  5.61952415E-01  5.24308627E-02  1.78321055E-02  1.75925034E-01
 -6.04911599E-08  3.30718399E-02  4.32314860E-03  3.42880960E-03 -2.09102657E-08
 -3.84440975E-02 -1.06029645E-02 -1.01839728E-01 -5.30827491E-09 -4.84965997E-02
 -1.39233917E-01  1.29146092E-01 -1.96889020E-02 -1.07620389E-08 -5.57107501E-08
 -4.36510910E-02 -5.90712054E-03 -9.75364369E-02 -1.54129247E-02  4.99532463E-08
  2.65370437E-03  9.11067617E-03  3.49366437E-02  1.54226134E-08 -2.81866872E-02
  4.29470714E-02 -5.29599426E-02  7.77856815E-10 -1.00650539E-01  7.23426393E-02
  2.91277219E-02 -3.69249646E-02 -3.24494189E-08  3.78952967E-08  1.35767338E-02
 -2.33557776E-02 -1.06514253E-01 -6.52083512E-02  1.68121231E-02 -1.89290340E-02
  1.35767338E-02 -2.33557776E-02 -1.06514253E-01 -6.52083512E-02  1.68121231E-02
 -1.89290340E-02  8.83665390E-07  1.21383085E-08 -1.67289371E-07 -8.74580486E-08
  3.02953289E-01  9.53417647E-08 -8.49379400E-08  1.38249355E-08  9.40440123E-02
  2.49791983E-08 -1.56254600E-07 -7.05211327E-08  3.35642568E-03  4.28099299E-10
 -3.73117858E-07  1.23757181E-07  1.79385013E-07 -2.36280771E-01 -1.07606923E-01
  1.02309201E-06  1.12856113E-07  3.15179565E-07 -2.13983348E-07 -3.02952902E-01
  6.13401683E-08  4.03505510E-08  4.08705230E-08 -9.40438456E-02 -6.72908263E-08
 -1.67734726E-07  1.43201219E-07 -3.35612844E-03 -2.43384258E-07  7.84789055E-08
  1.05180756E-07 -3.20528180E-07  2.49498246E-02  2.58426143E-01 -3.17938874E-07
  5.01511549E-09  1.57612213E-07  9.32347686E-08  3.02953102E-01  4.49431185E-10
 -4.36024391E-08 -4.17073309E-08  9.40437977E-02 -6.35369693E-08  3.29950938E-08
  2.02187246E-07  3.35615312E-03 -1.90929475E-10  1.69583763E-07 -5.34813531E-08
 -1.38038146E-07  2.11325867E-01 -1.50820602E-01 -9.18927336E-07 -7.61369761E-08
 -3.31451562E-07 -1.10287346E-07 -3.02953289E-01 -6.42209877E-08  3.82282942E-08
 -2.41506216E-09 -9.40440123E-02  2.43461663E-08  1.82012604E-07  8.93705636E-08
 -3.35642568E-03  1.02485407E-07  1.17770104E-07 -1.13366933E-07 -1.30736434E-08
 -2.36280771E-01 -1.07606923E-01 -7.18966249E-07 -8.74825010E-09  5.61616261E-08
  8.20980470E-08  3.02952902E-01 -2.37639117E-08 -5.68507746E-08  3.45029505E-08
  9.40438456E-02 -6.30414157E-08  1.89969625E-07 -9.87570072E-08  3.35612844E-03
  1.36650239E-07  1.71585412E-07 -1.03071296E-07 -2.40540949E-07  2.49498246E-02
  2.58426143E-01  1.10347138E-06  1.13151540E-07 -5.67146450E-09  3.78456558E-07
 -3.02953102E-01  5.93436658E-08  3.15545006E-09 -5.66489804E-08 -9.40437977E-02
 -7.14710751E-08  2.51340036E-10 -2.33962954E-07 -3.35615312E-03 -1.02640262E-07
 -8.58652636E-08  1.04835701E-07 -9.50099950E-08  2.11325867E-01 -1.50820602E-01
 -2.39127328E-07  5.72388010E-08  1.87876130E-08 -7.46216848E-08  1.03316980E-07
 -3.74393383E-08  1.08257722E-08  9.19871361E-08  1.70353883E-07 -3.88595476E-09
 -6.46750067E-08 -1.02443505E-07  4.03045243E-01  1.44556497E-02 -1.06561010E-01
 -7.58934262E-02 -1.81327001E-07  2.38826232E-02 -6.84526774E-03  2.91667619E-02
 -5.88935178E-08 -5.19708432E-02  6.94908300E-02  4.73829708E-02  1.66378382E-10
 -5.52822255E-03 -1.31205998E-01  4.89205139E-02 -3.13656356E-02  1.56014286E-07
  7.10519744E-08  1.63086445E-02  5.00596810E-03 -1.01557437E-02 -1.08338243E-01
  1.51902413E-07  1.03865631E-02  8.16683779E-03  4.05807495E-03  4.62760136E-08
 -5.80184958E-02  1.00201540E-02  1.00196653E-01  2.24315344E-09 -6.04408594E-02
  4.75789669E-02  2.06318900E-02 -3.02319475E-05 -1.71735435E-08 -1.30050287E-07
  4.50629325E-01  1.43295424E-02  8.46768478E-02 -1.02667110E-01 -1.34384743E-07
  2.58818997E-02  4.45332442E-03  2.25317329E-02 -4.03800986E-08 -5.20458365E-02
 -5.99951598E-02  5.99847555E-02 -3.42961020E-09 -2.87542096E-02 -1.25468401E-01
  5.21103322E-02 -1.96853169E-02 -8.69113673E-08  6.92582638E-08  4.03045243E-01
  1.44556497E-02  1.06561010E-01  7.58934262E-02  1.34525091E-07  2.38826232E-02
  6.84526774E-03 -2.91667619E-02  3.94637389E-08 -5.19708432E-02 -6.94908300E-02
 -4.73829708E-02 -2.18410568E-09 -5.52822255E-03 -1.31205998E-01  4.89205139E-02
 -3.13656356E-02  9.96378824E-08  4.53770094E-08  1.63086445E-02  5.00596810E-03
  1.01557437E-02  1.08338243E-01 -1.34384533E-07  1.03865631E-02 -8.16683779E-03
 -4.05807495E-03 -4.03800674E-08 -5.80184958E-02 -1.00201540E-02 -1.00196653E-01
 -3.42957157E-09 -6.04408594E-02  4.75789669E-02  2.06318900E-02 -3.02319475E-05
 -4.80641253E-09 -1.11028608E-07  4.50629325E-01  1.43295424E-02 -8.46768478E-02
  1.02667110E-01  1.51902295E-07  2.58818997E-02 -4.45332442E-03 -2.25317329E-02
  4.62759087E-08 -5.20458365E-02  5.99951598E-02 -5.99847555E-02  2.24319571E-09
 -2.87542096E-02 -1.25468401E-01  5.21103322E-02 -1.96853169E-02 -1.09378711E-07
  7.24152082E-08  4.88988494E-03 -3.37980232E-02  8.32695313E-02 -2.76522051E-02
 -1.13336253E-02 -3.99758720E-02  4.88988494E-03 -3.37980232E-02  8.32695313E-02
 -2.76522051E-02 -1.13336253E-02 -3.99758720E-02 -2.54481667E-01 -5.84444552E-03
 -5.91626606E-03  6.00018334E-02  2.98571342E-07 -1.11453898E-02  1.44783675E-04
 -1.82993216E-02  1.05820017E-07 -1.89056081E-03  3.48371443E-03 -6.33049492E-03
  9.14207175E-09  2.16665140E-02  5.30106869E-02 -1.17711567E-02  1.08782892E-02
 -2.72809124E-07 -1.24242646E-07  3.02703293E-01  6.37771265E-03 -5.87920326E-02
 -2.37598964E-02 -2.63572484E-07  1.36462916E-02  1.13182897E-02  6.43718827E-03
 -8.00894592E-08  2.25604896E-03  5.60377790E-03 -7.47640154E-04 -2.82920968E-09
 -4.29845861E-02 -4.74766146E-02  1.44737397E-02 -7.50859080E-03  4.60051081E-08
  2.11820825E-07  5.59623872E-01  1.26753156E-02  3.68749580E-02 -2.96720677E-02
  2.25640633E-07  2.44158285E-02 -1.30940084E-02  9.41983995E-03  6.46804365E-08
  4.01703522E-03  2.13809782E-04  6.48782593E-05 -3.31606283E-09 -8.06785289E-02
 -8.42311795E-02  2.61743286E-02 -6.09932675E-03  1.38317856E-07 -1.16932871E-07
  2.54481667E-01  5.84444552E-03 -5.91626606E-03  6.00018334E-02 -1.96756785E-07
  1.11453898E-02  1.44783675E-04 -1.82993216E-02 -5.65087878E-08  1.89056082E-03
  3.48371444E-03 -6.33049492E-03 -7.68451230E-09 -2.16665140E-02 -5.30106869E-02
  1.17711567E-02 -1.08782892E-02 -1.43856419E-07 -6.55150372E-08 -3.02703293E-01
 -6.37771265E-03 -5.87920326E-02 -2.37598964E-02  2.25640398E-07 -1.36462916E-02
  1.13182897E-02  6.43718827E-03  6.46804329E-08 -2.25604896E-03  5.60377790E-03
 -7.47640154E-04 -3.31606125E-09  4.29845861E-02  4.74766146E-02 -1.44737397E-02
  7.50859080E-03  2.58775431E-09  1.81104655E-07 -5.59623872E-01 -1.26753156E-02
  3.68749580E-02 -2.96720677E-02 -2.63572557E-07 -2.44158285E-02 -1.30940084E-02
  9.41983995E-03 -8.00893926E-08 -4.01703522E-03  2.13809782E-04  6.48782589E-05
 -2.82921836E-09  8.06785289E-02  8.42311795E-02 -2.61743286E-02  6.09932675E-03
  1.89990234E-07 -1.04343599E-07  1.87403044E-02  3.21478774E-03 -2.92990702E-02
 -5.20809551E-03 -4.92931303E-02 -1.01410876E-02 -1.87403044E-02 -3.21478774E-03
  2.92990702E-02  5.20809551E-03  4.92931303E-02  1.01410876E-02  4.98485289E-01
  1.10180753E-02 -5.11953889E-02  3.79375869E-03 -7.16656139E-07  2.14695514E-02
  1.43731920E-02 -3.18992564E-04 -2.54356226E-07  3.56535918E-03  9.69371888E-04
 -2.71727652E-03 -2.20127469E-08 -7.67212705E-02 -6.97425646E-02  2.22923211E-02
  3.14858609E-03  6.56119954E-07  2.98809983E-07  4.69441859E-01  1.00793757E-02
  3.07011430E-02 -4.79964742E-02  6.30988388E-07  2.04823579E-02 -5.28382991E-03
  1.19988711E-02  1.91630657E-07  3.40340249E-03 -3.49969363E-03  6.26632389E-05
  6.77950932E-09 -6.48372378E-02 -7.38819112E-02  2.11944770E-02  1.41972832E-03
 -1.10924708E-07 -5.06661436E-07 -2.79993040E-02 -7.45893667E-04  3.58594032E-02
  5.17073098E-02 -5.38663143E-07 -1.14776692E-03 -9.61611595E-03 -1.52095321E-02
 -1.54184639E-07 -2.17260906E-04 -4.75824830E-03 -6.26628755E-03  8.07017831E-09
 -1.25408351E-02  2.03821110E-02 -1.12920203E-03 -4.73105663E-03 -3.29375193E-07
  2.79346538E-07 -4.98485289E-01 -1.10180753E-02 -5.11953889E-02  3.79375869E-03
  4.68725612E-07 -2.14695514E-02  1.43731920E-02 -3.18992564E-04  1.34395250E-07
 -3.56535918E-03  9.69371887E-04 -2.71727652E-03  1.84406565E-08  7.67212705E-02
  6.97425646E-02 -2.22923211E-02 -3.14858609E-03  3.42230631E-07  1.55858507E-07
 -4.69441859E-01 -1.00793757E-02  3.07011430E-02 -4.79964742E-02 -5.38662471E-07
 -2.04823579E-02 -5.28382991E-03  1.19988711E-02 -1.54184574E-07 -3.40340249E-03
 -3.49969364E-03  6.26632390E-05  8.07018186E-09  6.48372378E-02  7.38819112E-02
 -2.11944770E-02 -1.41972832E-03 -5.48688015E-09 -4.31850569E-07  2.79993040E-02
  7.45893667E-04  3.58594032E-02  5.17073098E-02  6.30988448E-07  1.14776692E-03
 -9.61611595E-03 -1.52095321E-02  1.91630441E-07  2.17260907E-04 -4.75824830E-03
 -6.26628755E-03  6.77952352E-09  1.25408351E-02 -2.03821110E-02  1.12920203E-03
  4.73105663E-03 -4.55023989E-07  2.48916389E-07 -4.53304996E-02 -8.81383528E-03
 -4.45681091E-02 -8.23574283E-03  2.28041000E-04 -1.55006767E-04  4.53304996E-02
  8.81383528E-03  4.45681091E-02  8.23574283E-03 -2.28041000E-04  1.55006767E-04
  3.83971596E-01 -4.43891367E-02  2.08418811E-01  1.25773066E-01 -5.88818819E-08
 -1.20491515E-02 -4.20191125E-03 -3.42156770E-04 -3.79125905E-08  9.23895260E-02
 -1.58686369E-01 -1.64411276E-01 -2.15105154E-08 -1.24886407E-02 -3.95859425E-02
 -1.50652837E-01 -5.30016149E-02  7.96815236E-08  3.62886528E-08  2.63985054E-01
 -2.40404456E-02  7.64149323E-02  1.81411184E-01  7.89602982E-08 -1.01095400E-02
  4.76496740E-03  4.52518363E-04  2.20266333E-08  7.70319435E-02 -1.30903720E-01
 -1.50656816E-01 -2.62792489E-09  1.27962477E-04  3.02445035E-03 -1.27740296E-01
 -1.00268161E-01 -3.99917080E-08 -3.65927902E-08 -5.51744640E-02  3.08711709E-02
 -4.00611640E-02  1.93012274E-02 -5.72589620E-08 -5.19535879E-03 -1.03464331E-02
  5.54282049E-03 -1.02605507E-08  3.68516662E-02  4.45314026E-02  7.49459140E-03
  1.78470280E-08  6.67358269E-02  8.45660145E-02 -6.65368710E-02 -6.94773458E-03
 -2.39699153E-08  2.79969203E-08  3.83971596E-01 -4.43891367E-02 -2.08418811E-01
 -1.25773066E-01 -1.22116431E-09 -1.20491515E-02  4.20191125E-03  3.42156770E-04
 -1.12740633E-10  9.23895260E-02  1.58686369E-01  1.64411276E-01  2.46009311E-08
 -1.24886407E-02 -3.95859425E-02 -1.50652837E-01 -5.30016149E-02  2.25498382E-10
  1.02765029E-10  2.63985054E-01 -2.40404456E-02 -7.64149323E-02 -1.81411184E-01
 -5.72588736E-08 -1.01095400E-02 -4.76496740E-03 -4.52518363E-04 -1.02605523E-08
  7.70319435E-02  1.30903720E-01  1.50656816E-01  1.78468741E-08  1.27962477E-04
  3.02445035E-03 -1.27740296E-01 -1.00268161E-01  5.38504248E-09 -3.64609664E-08
 -5.51744640E-02  3.08711709E-02  4.00611640E-02 -1.93012274E-02  7.89606128E-08
 -5.19535879E-03  1.03464331E-02 -5.54282049E-03  2.20266958E-08  3.68516662E-02
 -4.45314026E-02 -7.49459140E-03 -2.62809556E-09  6.67358269E-02  8.45660145E-02
 -6.65368710E-02 -6.94773458E-03 -5.38573353E-08 -6.14671964E-09 -5.40882533E-02
  9.18329377E-02 -3.34385104E-02  6.70984562E-02  2.54449822E-02  5.01273965E-03
 -5.40882533E-02  9.18329377E-02 -3.34385104E-02  6.70984562E-02  2.54449822E-02
  5.01273965E-03 -1.53082153E-01  4.50582844E-02 -5.62758207E-03 -2.61766225E-02
  8.01518633E-08 -2.78318749E-03  1.23876714E-02 -4.55773585E-03  3.66650640E-08
  1.97848678E-02 -1.00791852E-02  6.34259691E-02  9.42772038E-09  5.65739195E-02
  1.12207195E-01 -2.64406671E-02  2.16695098E-02 -9.24379801E-08 -4.20981066E-08
  1.80729759E-01 -1.77910275E-02 -6.61723856E-02  1.57579789E-01 -6.36902251E-08
 -8.88721129E-03 -1.07843573E-02  1.27361300E-03 -1.70430783E-08  6.38716234E-02
  1.41244921E-01 -1.40329722E-01  5.64535473E-10  3.72049932E-02 -2.81650454E-02
 -9.68216313E-02  1.42619896E-01  2.56611151E-08  3.65176753E-08  3.91859253E-01
 -5.51929594E-02 -1.95312624E-01  1.62976839E-01  3.93720022E-08 -1.34864558E-02
  9.09000406E-03 -8.36566417E-03  7.42481505E-09  9.37966960E-02  1.28769091E-01
 -2.05156936E-01 -7.49631180E-09 -2.60263211E-02 -6.22628623E-02 -1.40544027E-01
  5.78320389E-02  1.44051782E-08 -2.08104919E-08 -1.53082153E-01  4.50582844E-02
  5.62758207E-03  2.61766225E-02 -1.00441270E-08 -2.78318749E-03 -1.23876714E-02
  4.55773585E-03 -1.72284464E-09  1.97848678E-02  1.00791852E-02 -6.34259691E-02
 -9.92627480E-09  5.65739195E-02  1.12207195E-01 -2.64406671E-02  2.16695098E-02
 -5.23633219E-09 -2.38475391E-09  1.80729759E-01 -1.77910275E-02  6.61723856E-02
 -1.57579789E-01  3.93719148E-08 -8.88721129E-03  1.07843573E-02 -1.27361300E-03
  7.42480620E-09  6.38716234E-02 -1.41244921E-01  1.40329722E-01 -7.49625487E-09
  3.72049932E-02 -2.81650454E-02 -9.68216313E-02  1.42619896E-01 -6.24257088E-09
  2.45279579E-08  3.91859253E-01 -5.51929594E-02  1.95312624E-01 -1.62976839E-01
 -6.36902671E-08 -1.34864558E-02 -9.09000406E-03  8.36566417E-03 -1.70430694E-08
  9.37966960E-02 -1.28769091E-01  2.05156936E-01  5.64588320E-10 -2.60263211E-02
 -6.22628623E-02 -1.40544027E-01  5.78320389E-02  4.43930128E-08 -4.61413894E-09
  2.69211028E-02 -1.80783478E-02 -3.92828149E-02  4.76457024E-02 -6.93383421E-02
  1.00399367E-01  2.69211028E-02 -1.80783478E-02 -3.92828149E-02  4.76457024E-02
 -6.93383421E-02  1.00399367E-01 -1.01779374E-01  4.27893984E-02 -2.27054713E-01
 -1.25662671E-02  1.38417406E-07  1.42831051E-02 -3.77273452E-03  4.28880693E-02
  7.25273603E-08 -6.29952594E-02  2.09137342E-01 -1.07777510E-01  2.81381243E-08
  1.84510194E-01 -1.24590200E-01  6.02338934E-02 -1.70533078E-01 -1.71791770E-07
 -7.82375536E-08  1.66561050E-01 -8.10517690E-02  1.81871058E-02  2.60288979E-01
 -1.10950912E-07 -1.31863754E-02  8.82373884E-03  3.25097202E-03 -2.46320529E-08
  3.00470728E-02 -7.29336028E-03 -1.59521121E-01  4.74026201E-09 -1.39169111E-01
  5.18742385E-03 -8.64122044E-02  3.68848887E-02  5.77662550E-08  4.13829482E-08
 -8.14353097E-02  3.14390697E-02  1.64498355E-01 -8.06680390E-02  5.97362079E-08
  1.32590665E-02 -9.15473418E-04  3.45518976E-02  5.83647749E-09 -5.94434100E-02
 -2.21666398E-01 -7.87237981E-02 -2.21869397E-08  1.70276494E-01 -1.27073045E-01
  4.77593060E-02  2.26020935E-02  1.42832776E-08 -2.81842353E-08 -1.01779374E-01
  4.27893984E-02  2.27054713E-01  1.25662671E-02  1.62511068E-08  1.42831051E-02
  3.77273452E-03 -4.28880693E-02  3.48337572E-09 -6.29952594E-02 -2.09137342E-01
  1.07777510E-01 -3.08274229E-08  1.84510194E-01 -1.24590200E-01  6.02338934E-02
 -1.70533078E-01  1.02214352E-08  4.65492944E-09  1.66561050E-01 -8.10517690E-02
 -1.81871058E-02 -2.60288979E-01  5.97359152E-08 -1.31863754E-02 -8.82373884E-03
 -3.25097202E-03  5.83646696E-09  3.00470728E-02  7.29336028E-03  1.59521121E-01
 -2.21866940E-08 -1.39169111E-01  5.18742385E-03 -8.64122044E-02  3.68848887E-02
 -1.18850564E-08  2.92763986E-08 -8.14353097E-02  3.14390697E-02 -1.64498355E-01
  8.06680390E-02 -1.10951011E-07  1.32590665E-02  9.15473418E-04 -3.45518976E-02
 -2.46320030E-08 -5.94434100E-02  2.21666398E-01  7.87237981E-02  4.74050459E-09
  1.70276494E-01 -1.27073045E-01  4.77593060E-02  2.26020935E-02  6.91388332E-08
  1.64105477E-08  7.97875433E-02 -5.87610994E-02  1.10147144E-02  9.08392957E-02
  6.36163694E-02 -6.15331574E-02  7.97875433E-02 -5.87610994E-02  1.10147144E-02
  9.08392957E-02  6.36163694E-02 -6.15331574E-02 -3.36280587E-01  9.47823016E-02
  1.67935755E-02  1.10872610E-02 -3.01549626E-07  5.81958494E-03  1.59365603E-02
  8.89369016E-03 -1.26259177E-07 -3.48031302E-03  1.51802159E-02  7.01762140E-03
 -2.06501757E-08  3.08295378E-02  3.08606117E-02  2.12203564E-01 -9.08379013E-03
  3.42630877E-07  1.56040964E-07  3.37650620E-01 -9.46113466E-02 -2.40225863E-03
 -1.77021490E-02  1.66550646E-07 -6.56178555E-03 -2.08033738E-03 -1.83696297E-02
  3.35144971E-08  3.44322803E-03 -1.62455536E-03 -1.70491003E-02 -1.98876104E-09
 -3.56216598E-02 -2.38839710E-02 -2.14476427E-01  3.20822865E-03 -7.28431823E-08
 -7.01979970E-08 -3.35171880E-01  9.47438572E-02 -1.42873512E-02  1.34562782E-02
 -7.05830792E-08  5.30142342E-03 -1.37265895E-02  1.08213902E-02 -6.29534487E-09
 -3.48981766E-03 -1.34068676E-02  9.58552555E-03  1.66299011E-08  3.17190286E-02
  3.12320783E-02  2.10504276E-01  9.61127821E-03 -5.93748110E-09  3.77438717E-08
  3.36280587E-01 -9.47823016E-02  1.67935755E-02  1.10872610E-02 -1.60012742E-09
 -5.81958494E-03  1.59365603E-02  8.89369016E-03 -3.19868475E-09  3.48031302E-03
  1.51802159E-02  7.01762139E-03  2.15719469E-08 -3.08295378E-02 -3.08606117E-02
 -2.12203564E-01  9.08379013E-03 -6.31212805E-09 -2.87450894E-09 -3.37650620E-01
  9.46113466E-02 -2.40225863E-03 -1.77021490E-02 -7.05827519E-08  6.56178555E-03
 -2.08033738E-03 -1.83696297E-02 -6.29536155E-09 -3.44322803E-03 -1.62455536E-03
 -1.70491003E-02  1.66297226E-08  3.56216598E-02  2.38839710E-02  2.14476427E-01
 -3.20822865E-03  2.45751478E-08 -2.92559043E-08  3.35171880E-01 -9.47438572E-02
 -1.42873512E-02  1.34562782E-02  1.66550299E-07 -5.30142342E-03 -1.37265895E-02
  1.08213902E-02  3.35143358E-08  3.48981766E-03 -1.34068676E-02  9.58552555E-03
 -1.98886820E-09 -3.17190286E-02 -3.12320783E-02 -2.10504276E-01 -9.61127821E-03
 -1.00772818E-07 -8.86850257E-09 -9.64752913E-02 -4.60762783E-02  9.97592685E-02
  4.69767329E-02 -9.59500561E-02 -4.57260067E-02  9.64752913E-02  4.60762783E-02
 -9.97592685E-02 -4.69767329E-02  9.59500561E-02  4.57260067E-02 -1.77750699E-01
  7.43843861E-02  5.12009293E-02  1.53896498E-01 -3.60895558E-07  2.48857273E-02
  1.66611405E-02 -1.32236101E-02 -1.62042765E-07  3.13168855E-02 -6.44463957E-02
 -9.30065884E-02 -5.63425421E-08 -9.67698637E-02 -8.45642861E-02  3.54967789E-01
  1.48953852E-03  3.87970664E-07  1.76690666E-07  1.22750571E-02 -5.31965211E-03
  2.33949984E-01 -2.69681371E-02  2.07653218E-07 -1.81116935E-03 -4.23715114E-02
  3.41797150E-03  2.37914986E-08 -1.29758293E-03 -1.27102061E-01  1.75168919E-02
 -1.61336186E-08  1.23841523E-02 -6.94737119E-04 -2.40824254E-02  5.62549589E-02
 -1.14657030E-07 -2.13585279E-08  1.65135515E-01 -6.81714973E-02 -9.69413896E-04
 -1.80763487E-01 -7.87145069E-08 -2.32130023E-02  2.09557116E-02  1.11989109E-02
  4.98059994E-09 -2.81441984E-02 -3.20131990E-02  1.09164754E-01  4.10932779E-08
  9.05458950E-02  7.90994555E-02 -3.28960572E-01  5.08643467E-03  1.29395822E-09
  3.09292872E-08 -1.77750699E-01  7.43843861E-02 -5.12009293E-02 -1.53896498E-01
 -6.17933580E-08  2.48857273E-02 -1.66611405E-02  1.32236101E-02 -4.03847298E-09
  3.13168855E-02  6.44463957E-02  9.30065884E-02  6.24256233E-08 -9.67698637E-02
 -8.45642861E-02  3.54967789E-01  1.48953853E-03 -2.67158463E-08 -1.21663739E-08
  1.22750571E-02 -5.31965211E-03 -2.33949984E-01  2.69681371E-02 -7.87132706E-08
 -1.81116935E-03  4.23715114E-02 -3.41797151E-03  4.98044982E-09 -1.29758293E-03
  1.27102061E-01 -1.75168919E-02  4.10923440E-08  1.23841523E-02 -6.94737123E-04
 -2.40824254E-02  5.62549589E-02  2.41809012E-08 -1.93271234E-08  1.65135515E-01
 -6.81714973E-02  9.69413894E-04  1.80763487E-01  2.07652662E-07 -2.32130023E-02
 -2.09557116E-02 -1.11989109E-02  2.37909922E-08 -2.81441984E-02  3.20131990E-02
 -1.09164754E-01 -1.61344757E-08  9.05458950E-02  7.90994555E-02 -3.28960572E-01
  5.08643467E-03 -9.13790387E-08 -7.24700897E-08 -2.15607923E-01  5.33099879E-03
  1.18579316E-02 -6.38157608E-04  1.98257895E-01 -4.51472658E-03 -2.15607923E-01
  5.33099879E-03  1.18579316E-02 -6.38157609E-04  1.98257895E-01 -4.51472658E-03
  8.93813250E-02 -3.81613505E-02 -1.13132466E-01  1.78494377E-01  1.58634961E-07
 -1.38675557E-02  1.19870613E-02 -4.36780189E-02  7.02780256E-08 -8.68929314E-03
  7.32129388E-02 -7.75134279E-02  2.36784286E-08  4.14107929E-03  8.49187933E-02
 -1.78128725E-01  5.46294031E-02 -1.69437994E-07 -7.71659176E-08 -2.01172553E-01
  8.94004254E-02  2.77405522E-02  8.72517756E-02 -8.96673443E-08  2.97386106E-02
 -4.35705776E-03  7.71025149E-03 -1.00882170E-08  3.38820869E-02 -1.78079180E-02
 -9.66057383E-02  6.80153380E-09 -8.03219573E-02 -1.22023458E-01  4.10195670E-01
 -7.89750280E-03  4.92289389E-08  8.85098772E-09  1.09466087E-01 -4.50810464E-02
  1.63897910E-01  1.46324400E-01  3.34374522E-08 -1.67796172E-02 -1.34049117E-02
 -3.69568478E-02 -2.20624075E-09 -1.25137511E-02 -9.14111264E-02 -4.83284282E-02
 -1.72990901E-08  2.15724444E-02  9.16337201E-02 -2.18720681E-01 -9.21196969E-03
 -1.06091643E-09 -1.32707053E-08  8.93813250E-02 -3.81613505E-02  1.13132466E-01
 -1.78494377E-01  2.61664650E-08 -1.38675557E-02 -1.19870613E-02  4.36780189E-02
  1.71368033E-09 -8.68929314E-03 -7.32129388E-02  7.75134279E-02 -2.62939031E-08
  4.14107930E-03  8.49187933E-02 -1.78128725E-01  5.46294031E-02  1.12434715E-08
  5.12025709E-09 -2.01172553E-01  8.94004254E-02 -2.77405522E-02 -8.72517756E-02
  3.34369191E-08  2.97386105E-02  4.35705776E-03 -7.71025149E-03 -2.20617303E-09
  3.38820869E-02  1.78079180E-02  9.66057383E-02 -1.72986890E-08 -8.03219573E-02
 -1.22023458E-01  4.10195670E-01 -7.89750280E-03 -1.07071771E-08  7.91111041E-09
  1.09466087E-01 -4.50810464E-02 -1.63897909E-01 -1.46324400E-01 -8.96670855E-08
 -1.67796171E-02  1.34049117E-02  3.69568478E-02 -1.00879943E-08 -1.25137511E-02
  9.14111264E-02  4.83284282E-02  6.80189934E-09  2.15724444E-02  9.16337201E-02
 -2.18720681E-01 -9.21196968E-03  3.89933357E-08  3.13253281E-08  9.34818360E-02
  7.18511388E-04 -2.53510278E-01 -1.91810866E-03  1.22610770E-01  2.38248329E-03
  9.34818360E-02  7.18511389E-04 -2.53510278E-01 -1.91810866E-03  1.22610770E-01
  2.38248329E-03 -1.36623523E-02  6.55930324E-03 -9.06345439E-02  1.57573361E-01
 -4.30617665E-08  6.08774431E-03  2.83872123E-02 -4.64175334E-02 -1.64324959E-08
  1.38763832E-04  7.51183500E-03 -4.95539660E-03 -2.74203548E-09 -4.67416720E-02
  1.57239068E-02  4.64647410E-02  5.08734729E-02  4.44713749E-08  2.02532366E-08
 -1.18216380E-01  4.86804340E-02 -9.21256849E-02 -1.54643528E-01  1.97948964E-08
  6.49615218E-02  2.46847099E-02  3.97155469E-02  2.18450519E-09  3.92314036E-03
  5.47975498E-03  2.84686089E-02 -6.59234992E-10 -1.68226600E-01 -1.32908027E-01
  4.20518664E-01 -1.92687514E-02 -9.65490236E-09 -2.41953172E-09 -1.06894024E-01
  4.61110703E-02  1.70169724E-01  4.65536343E-03 -6.07319755E-09  5.63573271E-02
 -5.30440297E-02 -1.86420704E-04  3.52261062E-10  2.84820033E-03 -2.56773108E-02
  1.31604329E-02  2.22632064E-09 -1.46948716E-01 -1.17487731E-01  3.76332923E-01
 -5.42966202E-02  1.52656388E-09  3.04931371E-09  1.36623523E-02 -6.55930324E-03
 -9.06345439E-02  1.57573361E-01 -3.25487916E-09 -6.08774431E-03  2.83872123E-02
 -4.64175334E-02 -4.97782646E-10 -1.38763832E-04  7.51183500E-03 -4.95539660E-03
  3.23047785E-09  4.67416720E-02 -1.57239068E-02 -4.64647410E-02 -5.08734729E-02
 -1.52881341E-09 -6.96200568E-10  1.18216380E-01 -4.86804340E-02 -9.21256849E-02
 -1.54643528E-01 -6.07311112E-09 -6.49615218E-02  2.46847099E-02  3.97155469E-02
  3.52244249E-10 -3.92314036E-03  5.47975498E-03  2.84686089E-02  2.22626426E-09
  1.68226600E-01  1.32908027E-01 -4.20518664E-01  1.92687514E-02  3.30236661E-09
 -8.50106436E-10  1.06894024E-01 -4.61110703E-02  1.70169724E-01  4.65536344E-03
  1.97947914E-08 -5.63573271E-02 -5.30440297E-02 -1.86420704E-04  2.18445654E-09
 -2.84820033E-03 -2.56773108E-02  1.31604329E-02 -6.59277624E-10  1.46948716E-01
  1.17487731E-01 -3.76332923E-01  5.42966202E-02 -8.16316408E-09 -5.69480651E-09
 -1.99944692E-02 -9.05702054E-03 -1.34830193E-01 -3.92640113E-02 -1.21435500E-01
 -4.19093839E-02  1.99944692E-02  9.05702054E-03  1.34830193E-01  3.92640113E-02
  1.21435500E-01  4.19093839E-02 -1.28728285E-01  5.64588552E-02 -1.46922239E-01
 -9.50942738E-02 -2.86963357E-07  6.81256175E-02  3.80016779E-02  3.03069176E-02
 -1.13867570E-07  3.95802924E-03  2.79495429E-02  1.59202128E-02 -2.47644959E-08
 -1.34886275E-01 -1.88792687E-01  4.59727078E-01  1.10814734E-02  2.97932928E-07
  1.35685263E-07 -5.31313298E-02  2.32211852E-02  1.69285945E-01 -8.92864330E-02
  1.39546134E-07  2.81389343E-02 -3.50547030E-02  2.26164337E-02  1.52227806E-08
  1.66065531E-03 -3.30566834E-03  1.35787347E-02 -6.56294511E-09 -7.24050362E-02
 -6.14446649E-02  1.89825741E-01  2.22058433E-02 -7.08109262E-08 -1.51340113E-08
  7.55587261E-02 -3.31774648E-02  1.41760620E-02  1.93140639E-01 -4.53639936E-08
 -4.00227621E-02 -4.47790250E-03 -5.42861085E-02  2.90935855E-09 -2.31091919E-03
  1.04604460E-02 -1.76570021E-02  1.91540422E-08  5.52044598E-02  1.34706823E-01
 -2.69862622E-01  2.93546646E-03  8.20463985E-09  2.10789780E-08  1.28728285E-01
 -5.64588552E-02 -1.46922239E-01 -9.50942738E-02 -2.87365735E-08 -6.81256175E-02
  3.80016779E-02  3.03069176E-02 -3.18127549E-09 -3.95802924E-03  2.79495429E-02
  1.59202128E-02  2.84404366E-08  1.34886275E-01  1.88792687E-01 -4.59727078E-01
 -1.10814734E-02 -1.28010063E-08 -5.82945690E-09  5.31313298E-02 -2.32211852E-02
  1.69285945E-01 -8.92864330E-02 -4.53633094E-08 -2.81389343E-02 -3.50547030E-02
  2.26164337E-02  2.90923857E-09 -1.66065531E-03 -3.30566834E-03  1.35787347E-02
  1.91535663E-08  7.24050362E-02  6.14446649E-02 -1.89825741E-01 -2.22058433E-02
  2.12868579E-08 -7.64780732E-09 -7.55587261E-02  3.31774648E-02  1.41760620E-02
  1.93140639E-01  1.39545489E-07  4.00227621E-02 -4.47790250E-03 -5.42861085E-02
  1.52224329E-08  2.31091919E-03  1.04604460E-02 -1.76570021E-02 -6.56333598E-09
 -5.52044598E-02 -1.34706823E-01  2.69862622E-01 -2.93546646E-03 -5.79004346E-08
 -4.34809976E-08 -1.43465135E-01 -4.50488489E-02 -6.01750334E-02 -1.86812090E-02
  8.31930014E-02  2.61986938E-02  1.43465135E-01  4.50488489E-02  6.01750335E-02
  1.86812090E-02 -8.31930014E-02 -2.61986938E-02  3.21825378E-03  1.70848129E-02
 -1.27795377E-01  3.34720885E-01  1.02898434E-06 -2.41369696E-03 -2.89067072E-02
  2.50155054E-02 -4.35991074E-07  4.08705453E-03 -2.70813420E-02 -9.29120100E-03
 -1.20920068E-06  1.64420780E-01 -1.29547744E-01 -4.17814522E-04 -2.77209852E-01
 -5.70680223E-07 -2.59113845E-07 -2.17214181E-03  4.12451193E-03 -2.95082612E-01
 -1.75354992E-02  4.34515335E-07  5.28022079E-03  3.62019937E-02 -5.37334262E-03
 -2.26810384E-07 -1.57433107E-03 -6.41321529E-03 -5.28653772E-03 -6.02235127E-07
  2.15649000E-02 -5.34498431E-02  4.10152700E-02  1.79853977E-01 -7.83190414E-07
 -2.45218625E-07 -1.57963593E-03 -2.56397063E-03 -2.42015464E-01 -2.73216061E-01
 -4.71047507E-07  3.98158597E-03 -4.93600503E-02 -4.91915407E-02  2.25128125E-07
 -6.93797892E-04  1.15047784E-02  2.17654000E-03  6.05912610E-07 -2.76861738E-01
  2.45658314E-01  2.69879206E-02 -2.24791321E-01 -7.04385176E-07 -4.71407291E-07
  3.21825378E-03  1.70848129E-02  1.27795377E-01 -3.34720885E-01 -9.25133707E-07
 -2.41369696E-03  2.89067072E-02 -2.50155054E-02  4.54392125E-07  4.08705453E-03
  2.70813420E-02  9.29120100E-03  1.20830724E-06  1.64420780E-01 -1.29547744E-01
 -4.17814522E-04 -2.77209852E-01 -5.54076151E-07 -2.51550010E-07 -2.17214181E-03
  4.12451192E-03  2.95082612E-01  1.75354992E-02 -4.69744146E-07  5.28022079E-03
 -3.62019937E-02  5.37334262E-03  2.24501730E-07 -1.57433107E-03  6.41321530E-03
  5.28653772E-03  6.04235005E-07  2.15649000E-02 -5.34498431E-02  4.10152700E-02
  1.79853977E-01 -8.18640802E-07 -2.21019281E-07 -1.57963593E-03 -2.56397063E-03
  2.42015464E-01  2.73216061E-01  4.35822479E-07  3.98158597E-03  4.93600503E-02
  4.91915407E-02 -2.27436130E-07 -6.93797893E-04 -1.15047784E-02 -2.17654000E-03
 -6.03912728E-07 -2.76861738E-01  2.45658314E-01  2.69879206E-02 -2.24791321E-01
 -6.99365351E-07 -4.28780376E-07  3.49962597E-02  3.31088557E-02 -3.49212857E-02
 -8.01336257E-03 -3.22293423E-02 -1.70012700E-02  3.49962597E-02  3.31088557E-02
 -3.49212857E-02 -8.01336257E-03 -3.22293423E-02 -1.70012700E-02  2.45735403E-08
  5.49002583E-08  1.14658214E-06 -2.13201580E-06 -3.20251166E-01 -7.75866661E-08
  5.25622476E-07 -7.64902884E-07  1.55635354E-01  3.71257292E-08  3.80278606E-08
  1.54677569E-07  4.13414341E-01 -1.42996852E-06  1.81059258E-06 -2.83839483E-07
  2.92339083E-06  2.24215087E-01  1.49408017E-03  5.08729551E-08 -6.12342115E-07
  6.24096009E-07  1.52116699E-07 -7.80727963E-02  4.83607285E-07  4.34930281E-07
  1.36072871E-07  3.79451804E-02 -1.05681979E-08 -1.47079412E-07  2.62910277E-07
  1.00791174E-01 -1.58376675E-06  3.07360168E-07  2.26014570E-07 -1.07093284E-06
  3.17205042E-01  1.95122459E-02  5.57200374E-08 -3.88527419E-07 -2.68474371E-06
 -1.92404698E-06  2.42170672E-01  2.99363536E-07 -9.39921082E-07 -1.58587849E-07
 -1.17691209E-01 -8.72751720E-08 -3.74334311E-07  4.23822268E-07 -3.12624315E-01
 -1.92099702E-06  1.27252129E-06  1.35916822E-09 -4.43036173E-06  2.55116238E-01
  9.10253353E-02 -1.66942297E-09 -4.40907956E-08  1.79619688E-06 -3.97482496E-06
  3.20251166E-01  3.70367123E-08  6.95467713E-07 -8.78928162E-07 -1.55635354E-01
  6.91413404E-08  1.31573749E-07  1.78526684E-07 -4.13414341E-01  2.34703381E-06
 -2.42479461E-06 -7.29296627E-09 -4.44300050E-06  2.24215087E-01  1.49408017E-03
 -5.75182990E-08  5.66068045E-07  2.22172324E-06  3.32758606E-07  7.80727963E-02
 -4.93084615E-07  2.72918722E-07  1.63609138E-07 -3.79451804E-02  4.52308161E-08
 -4.48144370E-08  9.40584825E-08 -1.00791174E-01  1.85386449E-06 -5.75573832E-07
 -3.23902568E-07  2.04378407E-06  3.17205042E-01  1.95122459E-02 -5.77282594E-08
  3.10847164E-07 -1.39833571E-06 -3.57148738E-07 -2.42170672E-01 -3.18030549E-07
 -6.87995205E-07  9.85058983E-08  1.17691209E-01  1.28216749E-07 -3.38278540E-07
  2.33400660E-07  3.12624315E-01  4.62854844E-07  2.11666388E-07 -1.86200041E-07
  3.30896133E-06  2.55116238E-01  9.10253353E-02 -2.43616647E-08 -5.35836726E-07
  7.69309558E-08  1.47958990E-07  1.77840625E-07 -5.28810500E-07  3.50926280E-07
  4.97533305E-07 -2.03638462E-07 -2.38296303E-07 -2.68061563E-07  4.03013478E-07
  7.27979734E-09  1.63022609E-08  3.43055231E-07 -6.38665097E-07 -9.47412054E-02
 -2.30879706E-08  1.56981363E-07 -2.28302960E-07  4.60421669E-02  1.09134884E-08
  1.15248844E-08  4.61772762E-08  1.22299736E-01 -4.27954628E-07  5.40940119E-07
 -8.42587671E-08  8.74137327E-07 -7.31942861E-02  3.06797820E-01  1.51863731E-08
 -1.82531179E-07  1.88726820E-07  4.55392935E-08 -3.24711849E-01  1.44198262E-07
  1.29427422E-07  4.06366367E-08  1.57808022E-01 -3.21001856E-09 -4.36749284E-08
  7.82632037E-08  4.19180095E-01 -4.72629366E-07  9.21598328E-08  6.73844213E-08
 -3.20954677E-07 -5.51714957E-02  2.13822489E-01  1.66171639E-08 -1.15782544E-07
 -7.98524010E-07 -5.71164138E-07 -2.29982095E-01  8.92923692E-08 -2.79840114E-07
 -4.68595532E-08  1.11764612E-01 -2.60511997E-08 -1.11541091E-07  1.26162358E-07
  2.96880411E-01 -5.70453556E-07  3.77036640E-07  5.99117723E-10 -1.31921967E-06
  1.63495935E-02  2.75911273E-01 -5.18994753E-10 -1.31863922E-08  5.34637916E-07
 -1.18225590E-06  9.47412054E-02  1.11023726E-08  2.07091848E-07 -2.61917744E-07
 -4.60421669E-02  2.05043938E-08  3.90666352E-08  5.31866805E-08 -1.22299736E-01
  6.98484658E-07 -7.22029349E-07 -1.87700612E-09 -1.32238725E-06 -7.31942861E-02
  3.06797820E-01 -1.71424151E-08  1.68820892E-07  6.59974207E-07  9.88981510E-08
  3.24711849E-01 -1.47027429E-07  8.16684341E-08  4.87574203E-08 -1.57808022E-01
  1.34719124E-08 -1.34529930E-08  2.82821880E-08 -4.19180095E-01  5.52433982E-07
 -1.71254609E-07 -9.65415665E-08  6.07911386E-07 -5.51714957E-02  2.13822489E-01
 -1.72041770E-08  9.28127228E-08 -4.19099207E-07 -1.08906159E-07  2.29982095E-01
 -9.48340702E-08 -2.05543266E-07  2.89668223E-08 -1.11764612E-01  3.81664960E-08
 -1.00816571E-07  6.98377845E-08 -2.96880411E-01  1.40386972E-07  6.08845284E-08
 -5.54140371E-08  9.88527980E-07  1.63495935E-02  2.75911273E-01 -7.85978579E-09
 -1.59488143E-07  2.32035834E-08  4.41992349E-08  5.31982631E-08 -1.57450945E-07
  1.04304639E-07  1.48001082E-07 -6.05231690E-08 -7.08876392E-08 -7.97363573E-08
  1.20314664E-07 -7.71690254E-04 -4.46686498E-03 -1.56109633E-01  3.13698765E-01
 -3.30265066E-06  6.15286465E-03 -6.21307858E-02  8.59205115E-02  1.65680599E-06
  2.61864325E-03 -9.15549457E-03 -1.73366984E-02  4.36029968E-06  1.98964192E-01
 -2.19158921E-01  1.24229190E-02 -3.79148521E-01  1.93550241E-06  8.89268124E-07
 -5.76747552E-03  6.00408067E-02 -1.49310389E-01 -2.17941418E-02 -1.71845595E-06
 -5.01411743E-02 -3.70449637E-02 -1.61789783E-02  8.25980619E-07  3.82683803E-03
  7.88121353E-03 -2.06449623E-02  2.19049351E-06  1.77466353E-01 -4.84802349E-02
 -2.72274623E-02  1.62804716E-01  2.93669915E-06  7.92257809E-07 -5.68622715E-03
  3.71826045E-02  2.12869995E-01  1.14329772E-01  1.68040237E-06 -3.24481003E-02
  8.30969916E-02  2.60368276E-03 -8.20288232E-07  1.02593170E-02  3.38243364E-02
 -3.44437225E-02 -2.17093983E-06  1.23120413E-01 -5.07767665E-02 -1.15435842E-02
  3.98846397E-01  2.51882044E-06  1.67914384E-06  7.71690254E-04  4.46686498E-03
 -1.56109633E-01  3.13698765E-01  3.38319817E-06 -6.15286466E-03 -6.21307858E-02
  8.59205115E-02 -1.64469469E-06 -2.61864325E-03 -9.15549457E-03 -1.73366984E-02
 -4.36115410E-06 -1.98964192E-01  2.19158920E-01 -1.24229190E-02  3.79148521E-01
  1.95784928E-06  8.99446691E-07  5.76747552E-03 -6.00408067E-02 -1.49310389E-01
 -2.17941418E-02  1.69304711E-06  5.01411743E-02 -3.70449637E-02 -1.61789783E-02
 -8.26463035E-07 -3.82683803E-03  7.88121353E-03 -2.06449623E-02 -2.18728982E-06
 -1.77466353E-01  4.84802349E-02  2.72274623E-02 -1.62804716E-01  2.91388583E-06
  8.06605918E-07  5.68622715E-03 -3.71826045E-02  2.12869995E-01  1.14329772E-01
 -1.70580860E-06  3.24481003E-02  8.30969916E-02  2.60368276E-03  8.19806240E-07
 -1.02593170E-02  3.38243364E-02 -3.44437225E-02  2.17414352E-06 -1.23120413E-01
  5.07767666E-02  1.15435842E-02 -3.98846397E-01  2.52297493E-06  1.70577132E-06
  2.49774077E-02  3.91310874E-02 -1.58853011E-02 -1.79679076E-02 -2.23933254E-02
  4.60513053E-02 -2.49774077E-02 -3.91310874E-02  1.58853011E-02  1.79679076E-02
  2.23933254E-02 -4.60513053E-02  9.87810794E-04  8.84262829E-02  6.66973444E-02
  1.43991777E-02 -4.65256494E-07  4.35493442E-02 -1.02787557E-02  1.02953584E-02
  3.51101420E-09 -1.62883959E-02 -2.01284527E-01 -9.44196328E-02  1.74058376E-07
 -5.13398552E-02 -1.38666050E-01  3.78379400E-01  5.00692793E-02 -1.08965346E-07
 -4.95926964E-08  2.20801052E-03  9.20231583E-02  3.70901445E-02  1.02030011E-01
  1.12936183E-07  4.11788463E-02  4.37957271E-03 -7.02978014E-03  6.26750041E-08
 -1.46500500E-02 -2.19084951E-02 -2.27747160E-01  9.45424239E-08 -1.46443801E-01
 -2.30064106E-02  3.64840030E-01 -1.10528426E-02 -2.58825096E-08  2.24603885E-07
  8.96711534E-04  8.69596622E-02 -5.03311171E-02  6.88653694E-02  1.37731187E-07
  4.35628106E-02  9.39778890E-03  9.30391094E-03 -1.81872581E-08 -1.63703424E-02
  1.79053077E-01 -1.30945114E-01 -8.23339178E-08 -4.14168660E-02 -1.50202061E-01
  3.77106074E-01 -8.03443529E-02  1.45236075E-07  2.69291040E-07  9.87810794E-04
  8.84262829E-02 -6.66973444E-02 -1.43991777E-02 -6.86736786E-08  4.35493442E-02
  1.02787557E-02 -1.02953584E-02 -1.14584506E-07 -1.62883959E-02  2.01284527E-01
  9.44196328E-02 -1.78299513E-07 -5.13398552E-02 -1.38666050E-01  3.78379400E-01
  5.00692793E-02  2.78198423E-07  1.26678430E-07  2.20801052E-03  9.20231583E-02
 -3.70901445E-02 -1.02030011E-01  1.37781807E-07  4.11788463E-02 -4.37957271E-03
  7.02978014E-03 -1.81817695E-08 -1.46500500E-02  2.19084951E-02  2.27747160E-01
 -8.23388643E-08 -1.46443801E-01 -2.30064106E-02  3.64840030E-01 -1.10528426E-02
  2.98453033E-07 -6.72591677E-08  8.96711534E-04  8.69596622E-02  5.03311171E-02
 -6.88653694E-02  1.12890245E-07  4.35628106E-02 -9.39778890E-03 -9.30391094E-03
  6.26629309E-08 -1.63703424E-02 -1.79053077E-01  1.30945114E-01  9.45361102E-08
 -4.14168660E-02 -1.50202061E-01  3.77106074E-01 -8.03443529E-02  1.52388629E-07
 -1.66944767E-07 -9.02992494E-02  5.16782902E-02 -6.82043749E-02  6.21054082E-02
 -9.10388971E-02  4.88911318E-02 -9.02992494E-02  5.16782902E-02 -6.82043749E-02
  6.21054082E-02 -9.10388971E-02  4.88911318E-02 -2.54454355E-10 -8.20908401E-09
 -4.92136728E-08 -7.76841212E-09 -1.01073662E-01 -9.73529586E-09 -9.68271269E-09
 -7.40208531E-09 -1.78872061E-02  1.48062542E-09  2.66840215E-08  1.13583990E-08
 -1.41139961E-03  2.64320685E-08  4.48806943E-08 -9.05301730E-08 -1.65534057E-08
 -2.36810205E-01  2.49374829E-01 -2.09480780E-09 -6.18068218E-09  9.70385714E-09
 -1.26557117E-08  3.95531586E-01 -7.74255973E-09  5.80953212E-09 -4.92413022E-10
  6.99999852E-02  1.39461158E-09  3.65754747E-09  3.13859350E-08  5.52228286E-03
  2.22678985E-08  1.13497049E-08 -4.87925090E-08 -2.27629303E-08  1.32885439E-01
  4.28117335E-01 -3.89901157E-10 -1.53464261E-08  1.02792191E-08  9.36932203E-09
 -2.94458526E-01 -2.79439701E-09  7.77096658E-10  5.58127256E-09 -5.21117147E-02
  2.11261945E-09 -2.51914713E-08  1.74210652E-08 -4.11150275E-03  1.95554196E-08
 -6.20165581E-09 -4.49527714E-08  4.80832397E-09  4.01895069E-01  6.51916541E-04
  3.14027444E-10 -1.50623905E-08  1.33992157E-08  4.75915966E-09 -1.01073662E-01
 -2.57444113E-09 -4.55248603E-09 -4.38774681E-09 -1.78872061E-02  7.61758573E-10
 -3.32419980E-08 -1.65312346E-08 -1.41139961E-03  1.58986046E-08  4.40924429E-09
 -5.05597719E-08 -2.03135370E-09  2.36810205E-01 -2.49374829E-01 -4.34186290E-10
 -1.62974711E-08  2.94458214E-08  1.05543979E-08  3.95531586E-01 -2.31181447E-09
 -6.62712475E-10 -1.88218168E-09  6.99999852E-02  2.06170371E-09 -6.07744829E-09
 -3.08858079E-08  5.52228286E-03  1.12722164E-08 -9.16941409E-10 -4.37254120E-08
  1.70477030E-08 -1.32885439E-01 -4.28117335E-01 -1.93478607E-09 -6.65609078E-09
  7.65003361E-09  2.37303776E-08 -2.94458526E-01 -7.79055673E-09  8.52679000E-09
  1.18800978E-08 -5.21117147E-02  1.66020479E-09  2.68681121E-08 -1.58399000E-08
 -4.11150275E-03 -1.72775393E-08  5.22854539E-08 -5.10289352E-08 -7.26184147E-09
 -4.01895069E-01 -6.51916541E-04 -1.47865084E-08  5.91707277E-09  5.80919824E-09
 -1.09225359E-08  1.34424447E-08 -5.44231760E-09  1.64552832E-08 -1.10217968E-08
  7.33206356E-09 -7.04929428E-09  4.93359418E-09 -1.10298579E-08  1.00377953E-09
  3.23248610E-08  1.93955991E-07  3.06199603E-08  3.98368115E-01  3.83626680E-08
  3.81659269E-08  2.91783807E-08  7.05008727E-02 -5.83268518E-09 -1.05112421E-07
 -4.47383675E-08  5.56187822E-03 -1.04146725E-07 -1.76879297E-07  3.56707418E-07
  6.52384622E-08  3.68111198E-01  2.58278933E-01  8.25556129E-09  2.43335438E-08
 -3.82910877E-08  4.98586191E-08 -1.11652349E-01  3.05066282E-08 -2.29004078E-08
  1.94438650E-09 -1.97592491E-02 -5.49316140E-09 -1.44052178E-08 -1.23639725E-07
 -1.55898823E-03 -8.77308719E-08 -4.47267381E-08  1.92211501E-07  8.97493103E-08
  3.09395341E-01 -1.54343652E-01  1.53597957E-09  6.04649944E-08 -4.05082176E-08
 -3.69695810E-08 -2.86716053E-01  1.09992369E-08 -3.07045084E-09 -2.20120167E-08
 -5.07409263E-02 -8.32144079E-09  9.92413893E-08 -6.86292643E-08 -4.00324587E-03
 -7.70929599E-08  2.45200192E-08  1.77070069E-07 -1.89275929E-08  1.19374113E-01
 -3.80422409E-01 -1.23842545E-09  5.93475745E-08 -5.27827162E-08 -1.87540344E-08
  3.98368115E-01  1.01303830E-08  1.79414768E-08  1.73031397E-08  7.05008727E-02
 -2.99723241E-09  1.30965797E-07  6.51322431E-08  5.56187822E-03 -6.26579095E-08
 -1.73160748E-08  1.99165319E-07  7.98017977E-09 -3.68111198E-01 -2.58278933E-01
  1.71030725E-09  6.42110050E-08 -1.16072038E-07 -4.15658202E-08 -1.11652349E-01
  9.09897796E-09  2.61010886E-09  7.41807575E-09 -1.97592491E-02 -8.12155587E-09
  2.39504171E-08  1.21671238E-07 -1.55898823E-03 -4.43830416E-08  3.61930669E-09
  1.72237216E-07 -6.72135982E-08 -3.09395341E-01  1.54343652E-01  7.62533393E-09
  2.62075573E-08 -3.01705564E-08 -9.35290159E-08 -2.86716053E-01  3.06962932E-08
 -3.36082499E-08 -4.68314089E-08 -5.07409263E-02 -6.53979854E-09 -1.05845422E-07
  6.23937771E-08 -4.00324587E-03  6.81310204E-08 -2.06065548E-07  2.01024144E-07
  2.86384544E-08 -1.19374113E-01  3.80422409E-01  5.83103515E-08 -2.33344655E-08
 -2.28771649E-08  4.30318678E-08 -5.29619080E-08  2.14368486E-08 -6.48354136E-08
  4.34268993E-08 -2.88814821E-08  2.77672811E-08 -1.94172151E-08  4.34585837E-08
  6.41051431E-03 -6.28612230E-02  1.08862212E-01  5.72969932E-03  5.39512630E-09
  5.33429043E-02  2.24394458E-02  7.70195381E-02 -1.08709027E-08 -1.16706908E-02
  3.73955815E-02  3.66753694E-02 -2.41612163E-08  1.29605061E-01 -2.89538271E-01
  5.61166744E-02  1.54028040E-01 -1.35568556E-07 -6.17505036E-08  2.88787411E-03
 -3.05331228E-02 -3.40923058E-01  6.14332421E-02 -3.67642816E-10  2.44068316E-02
 -2.79096361E-02  2.12371127E-02  1.11998995E-09 -4.17324209E-03  4.10203061E-02
  1.56087664E-02 -1.13775949E-08 -7.62430031E-02  1.65247263E-03  2.35518580E-02
  3.16327669E-01 -8.97549028E-08  7.03728305E-09 -3.47744758E-03  3.47607999E-02
 -9.53165050E-02 -2.48594514E-01  1.01559594E-07 -3.08636022E-02 -5.96653528E-02
 -1.32519272E-01  1.89634802E-08  6.72172890E-03  1.85745933E-02 -1.88027173E-02
  1.03331685E-08 -3.16717066E-01  4.09382182E-01 -3.55510203E-02  5.53103382E-03
 -7.06564140E-08  1.23980990E-07 -6.41051431E-03  6.28612230E-02  1.08862212E-01
  5.72969932E-03 -1.77176778E-07 -5.33429043E-02  2.24394458E-02  7.70195381E-02
 -1.41631093E-08  1.16706908E-02  3.73955815E-02  3.66753694E-02  1.91211902E-08
 -1.29605061E-01  2.89538271E-01 -5.61166744E-02 -1.54028040E-01  1.59216329E-07
  7.25155330E-08 -2.88787411E-03  3.05331228E-02 -3.40923058E-01  6.14332421E-02
  1.01549244E-07 -2.44068316E-02 -2.79096361E-02  2.12371127E-02  1.89604261E-08
  4.17324209E-03  4.10203061E-02  1.56087664E-02  1.03297746E-08  7.62430031E-02
 -1.65247263E-03 -2.35518580E-02 -3.16327669E-01  4.71557861E-08 -1.34672760E-07
  3.47744758E-03 -3.47607999E-02 -9.53165050E-02 -2.48594514E-01 -3.48804178E-10
  3.08636022E-02 -5.96653528E-02 -1.32519272E-01  1.12186679E-09 -6.72172890E-03
  1.85745933E-02 -1.88027173E-02 -1.13806161E-08  3.16717066E-01 -4.09382182E-01
  3.55510203E-02 -5.53103382E-03 -5.35946137E-08 -7.23343226E-08  6.01313344E-02
 -9.83284731E-03  1.30706229E-02 -3.33283208E-03 -4.78521804E-02 -2.05291909E-03
 -6.01313344E-02  9.83284731E-03 -1.30706229E-02  3.33283208E-03  4.78521804E-02
  2.05291909E-03 -1.17891978E-09 -1.20705689E-08 -1.81392011E-07 -6.31699656E-08
 -3.26838218E-01  3.72007152E-09 -3.89689184E-08  7.45867622E-09 -3.08730189E-02
  1.36473142E-09  2.21612023E-08  1.37639312E-08 -4.44714962E-04  1.49922639E-07
  2.03525771E-08 -1.92521735E-07  2.24655335E-08 -3.57303382E-01 -1.62700510E-01
 -5.50680700E-09  3.73309776E-09 -6.29891728E-08  3.01505654E-08  3.26911562E-01
 -1.30329464E-09  1.68917335E-08  5.98150684E-10  3.08647804E-02  9.89295969E-10
  1.00215042E-08  2.94764200E-08  3.96088801E-04 -1.63839112E-08  4.09614373E-08
 -2.02235332E-08  1.11069526E-08  3.77635609E-02  3.90796883E-01 -1.58212961E-09
 -7.31564978E-09 -3.38644974E-08 -2.14427478E-08 -3.26880863E-01 -4.93608694E-09
 -2.19209269E-08 -2.81184307E-08 -3.08683824E-02  4.39888149E-09 -1.57511864E-08
  1.20077651E-08 -4.17142846E-04 -6.40407943E-08  8.00280098E-08 -3.35083599E-08
 -4.54682043E-08  3.19604316E-01 -2.28030873E-01 -1.50115823E-09  4.11194223E-09
  7.72419189E-08  2.36750085E-08  3.26838218E-01 -1.29806931E-08  2.30215321E-09
  1.11472296E-08  3.08730189E-02  5.82079475E-09 -1.77766265E-08 -2.50799759E-09
  4.44714962E-04 -3.31370457E-08  8.81841216E-08 -5.25090787E-08 -7.53548430E-08
 -3.57303382E-01 -1.62700510E-01 -9.13988468E-10 -9.17955041E-09 -6.45484101E-08
  3.74762068E-08 -3.26911562E-01 -2.27043584E-09 -1.91350270E-08  4.95958018E-09
 -3.08647804E-02  4.58885474E-09  9.22302142E-09 -2.07348537E-08 -3.96088801E-04
  1.83724549E-08 -1.11914876E-08 -2.73844523E-08 -9.67459986E-08  3.77635609E-02
  3.90796883E-01 -5.48518348E-09 -2.08217057E-09  3.93749226E-08 -6.78538007E-08
  3.26880863E-01  1.39297378E-09  1.85300797E-09 -1.50840893E-08  3.08683824E-02
 -4.54186191E-11  2.75709872E-08 -2.17129800E-08  4.17142846E-04  6.00201628E-08
 -4.49012744E-08 -2.10119437E-08 -9.53909735E-08  3.19604316E-01 -2.28030873E-01
 -1.27251968E-07  1.91121999E-08 -3.49497572E-09 -1.33446070E-08  1.83920992E-09
 -6.16888384E-09 -1.25852200E-08 -7.82482496E-09 -6.08590872E-09 -2.52681330E-09
  3.05376084E-09 -1.91966972E-08 -2.40755571E-09 -1.79123950E-08  1.00082826E-07
  2.25393631E-08  3.73523996E-01  4.74412478E-10  4.49327951E-09 -6.34450267E-09
 -2.01318929E-02 -1.95306836E-08  2.65434859E-08  1.27846863E-08 -2.05698449E-01
 -7.70012364E-08 -1.55523631E-08  5.54826312E-08 -8.97969570E-09  1.18011366E-01
  5.09954312E-02  1.62429799E-09 -2.06034239E-09  2.02583688E-09 -5.92142646E-08
  1.85336390E-01 -2.35737544E-09  4.31557010E-09  1.57216901E-08 -9.99703996E-03
 -1.45412697E-08  3.15610600E-08  2.67973195E-08 -1.02091517E-01  7.35015879E-09
  1.97199992E-08 -2.87513405E-08  5.22533502E-09  5.12754020E-01  1.45272975E-02
 -1.83974953E-09 -1.52706586E-08 -3.39132417E-08  2.88581204E-08 -1.88092273E-01
  3.37796172E-09  5.76458175E-09 -9.25795773E-09  1.01437971E-02 -1.02168019E-09
  7.48338007E-09 -1.40012979E-08  1.03607579E-01 -1.51602917E-08 -2.17252639E-08
  5.13162874E-09  8.25654041E-09  3.46875895E-01  3.74681550E-01  6.75692656E-10
  1.02539418E-08  6.76580828E-08  2.55620410E-08 -3.73523996E-01 -6.80446857E-09
 -1.78242830E-08 -1.09297966E-08  2.01318929E-02 -1.24910924E-08 -3.43142264E-08
 -1.57368820E-08  2.05698449E-01  3.88793288E-08  1.83254178E-08 -3.56629005E-08
  3.98195476E-09  1.18011366E-01  5.09954312E-02 -2.39880410E-09 -1.13642030E-08
  5.06674523E-09 -4.70189817E-08 -1.85336390E-01  1.53669698E-10 -6.85912502E-10
  1.12203714E-08  9.99703996E-03 -5.02653709E-10 -7.59078121E-09  1.73278116E-08
  1.02091517E-01 -3.12145443E-09 -2.30504327E-08  6.88989299E-10  1.23275219E-08
  5.12754020E-01  1.45272975E-02  1.26556185E-09  3.47877939E-09 -6.66695007E-08
  2.48928790E-08  1.88092273E-01 -5.94805055E-09  1.20502069E-08 -4.61797470E-09
 -1.01437971E-02 -1.35294679E-08  3.83059480E-08  9.85226340E-09 -1.03607579E-01
  2.86599354E-08  1.27392969E-08 -3.36925480E-08  2.34683409E-08  3.46875895E-01
  3.74681550E-01  1.29850081E-08  1.31581902E-07  7.63535939E-09 -2.98074749E-08
  5.76556205E-09  2.58191201E-08  1.77450879E-09 -4.42777309E-08  2.45071011E-09
  2.44513737E-08  4.50437292E-09 -2.78271434E-08 -1.02157500E-11 -7.65732442E-11
  4.32841502E-10  9.83792549E-11  1.60803933E-03  2.01985532E-12  2.01099290E-11
 -2.72309022E-11 -8.59208010E-05 -8.35643979E-11  1.13257383E-10  5.45671733E-11
 -8.79272556E-04 -3.31597869E-10 -6.77778267E-11  2.40922081E-10 -3.77938402E-11
 -2.42480920E-01  5.33793143E-01  7.04476739E-12 -8.96627891E-12  8.74619657E-12
 -2.53560726E-10  3.24234949E-01 -1.00529900E-11  1.78673257E-11  6.72970830E-11
 -1.74805514E-02 -6.21915232E-11  1.34910745E-10  1.14117222E-10 -1.78574324E-01
  3.17682124E-11  8.35020484E-11 -1.22694904E-10  2.34219935E-11 -2.78913015E-01
  1.38990197E-01 -7.83526760E-12 -6.51245210E-11 -1.43561365E-10  1.22599073E-10
  3.22667078E-01  1.44629596E-11  2.51236139E-11 -3.92292406E-11 -1.73913712E-02
 -4.41306011E-12  3.22910640E-11 -6.01691902E-11 -1.77695209E-01 -6.42637253E-11
 -9.35703284E-11  2.24238009E-11  3.75620141E-11  8.11743061E-02  3.04868018E-01
  2.90720866E-12  4.37792521E-11  2.86998651E-10  1.08365060E-10 -1.60803933E-03
 -2.89215268E-11 -7.63729400E-11 -4.67723948E-11  8.59208010E-05 -5.35344774E-11
 -1.46482703E-10 -6.73364946E-11  8.79272556E-04  1.67131197E-10  7.66666079E-11
 -1.51731750E-10  1.93200397E-11 -2.42480920E-01  5.33793143E-01 -1.02456731E-11
 -4.84307632E-11  2.30288997E-11 -2.01958917E-10 -3.24234949E-01  6.59996911E-13
 -2.39893298E-12  4.78437302E-11  1.74805514E-02 -2.23757450E-12 -3.27102560E-11
  7.43919023E-11  1.78574324E-01 -1.36729301E-11 -9.82445412E-11  3.29651461E-12
  5.50107425E-11 -2.78913015E-01  1.38990197E-01  5.52444927E-12  1.48206175E-11
 -2.86912572E-10  1.08332474E-10 -3.22667078E-01 -2.54366226E-11  5.13242490E-11
 -1.95943841E-11  1.73913712E-02 -5.78228906E-11  1.63303949E-10  4.25462901E-11
  1.77695209E-01  1.21434156E-10  5.51805395E-11 -1.43713460E-10  1.03542008E-10
  8.11743061E-02  3.04868018E-01  5.91712458E-11  5.61894796E-10  3.28171779E-11
 -1.27233719E-10  2.42800258E-11  1.10557830E-10  8.18304110E-12 -1.89205261E-10
  1.07255694E-11  1.04568129E-10  1.89993026E-11 -1.18562921E-10 -1.65763653E-03
 -1.63910475E-03  3.20242394E-01  1.58820257E-01  4.89358329E-09  4.58994847E-03
  4.91638864E-02 -2.21894085E-02  3.03737873E-09 -1.36951394E-02  1.02979913E-02
  3.29140820E-02 -1.24575852E-09  1.25833609E-01 -1.33708738E-01  6.41632632E-03
  3.51905722E-01 -2.21511567E-07 -1.00882051E-07  9.98868843E-06 -1.36191211E-03
 -1.67371595E-01  1.08001282E-01  4.58311929E-08  3.19237914E-03 -6.69060775E-02
  1.96562724E-02  1.16312397E-08 -7.39220480E-03  3.82366170E-02 -2.19622587E-03
  8.38399378E-10 -4.83436358E-02  3.29911787E-02  1.38272107E-02  2.72721897E-01
 -2.45912085E-08  8.70911368E-08  3.54345298E-03  3.18218047E-03  3.21558140E-01
 -2.87795374E-01 -2.97085807E-08 -4.71101764E-04  3.58518313E-02 -8.15141838E-03
 -2.13067739E-09  5.71899615E-03  2.84321873E-02 -3.58000251E-02 -1.52376881E-09
 -1.06018815E-01  8.66023790E-02  2.53689859E-02  4.38450634E-01  3.48375295E-08
 -2.01107622E-08 -1.65763653E-03 -1.63910475E-03 -3.20242394E-01 -1.58820257E-01
  2.93700302E-08  4.58994847E-03 -4.91638864E-02  2.21894085E-02 -3.24006818E-10
 -1.36951394E-02 -1.02979913E-02 -3.29140820E-02 -3.90158081E-09  1.25833609E-01
 -1.33708738E-01  6.41632632E-03  3.51905722E-01 -2.73491137E-08 -1.24540327E-08
  9.98868842E-06 -1.36191211E-03  1.67371595E-01 -1.08001282E-01 -2.97088925E-08
  3.19237914E-03  6.69060775E-02 -1.96562724E-02 -2.13060346E-09 -7.39220480E-03
 -3.82366170E-02  2.19622587E-03 -1.52350098E-09 -4.83436358E-02  3.29911787E-02
  1.38272107E-02  2.72721897E-01  7.69577235E-09  3.94823119E-08  3.54345298E-03
  3.18218047E-03 -3.21558140E-01  2.87795374E-01  4.58314974E-08 -4.71101764E-04
 -3.58518313E-02  8.15141838E-03  1.16312657E-08  5.71899615E-03 -2.84321873E-02
  3.58000251E-02  8.38603224E-10 -1.06018815E-01  8.66023790E-02  2.53689859E-02
  4.38450634E-01  4.95552895E-08 -7.57244669E-08  1.22837380E-01 -9.27942421E-03
  3.94036403E-02 -6.34800314E-04 -1.16438650E-01  2.30860273E-02  1.22837380E-01
 -9.27942421E-03  3.94036403E-02 -6.34800314E-04 -1.16438650E-01  2.30860273E-02
  3.93447756E-03  6.61804102E-02 -3.78998942E-01 -1.59870851E-01 -1.29123270E-08
 -2.82776774E-02  8.69376833E-02  4.30387628E-02 -3.18193882E-08 -2.06701771E-02
  9.12124870E-02  4.00293855E-02 -1.27412392E-07  1.46527678E-01  1.16716886E-01
 -1.27559429E-01  4.88856784E-03  1.90907232E-07  8.69451786E-08 -4.33259084E-03
 -6.27671411E-02  3.51322799E-02  4.04741190E-01  6.15649090E-08  2.60364735E-02
 -1.05460554E-02 -9.74035516E-02 -5.00570643E-08  2.14604190E-02 -9.29090320E-03
 -1.01787067E-01 -8.63828336E-08 -1.06666340E-01 -1.46447260E-01  1.22964890E-01
 -7.87604135E-04  5.22731163E-08 -5.38288136E-08  3.69263768E-03  6.81246389E-02
  3.42127056E-01 -2.34826898E-01 -5.00894747E-08 -2.96118544E-02 -7.72017562E-02
  5.76372419E-02  2.95357315E-08 -2.01503969E-02 -8.02393842E-02  5.62675835E-02
  5.19763535E-08  1.42681934E-01  1.26582402E-01 -1.30445624E-01 -8.00549116E-03
  3.50125019E-09  4.12301785E-08 -3.93447756E-03 -6.61804102E-02 -3.78998942E-01
 -1.59870851E-01 -1.72232066E-07  2.82776774E-02  8.69376833E-02  4.30387628E-02
  8.01654107E-08  2.06701771E-02  9.12124870E-02  4.00293855E-02  1.37698461E-07
 -1.46527678E-01 -1.16716886E-01  1.27559429E-01 -4.88856784E-03 -1.97164961E-11
 -1.28217093E-11  4.33259084E-03  6.27671411E-02  3.51322799E-02  4.04741190E-01
 -5.00902491E-08 -2.60364735E-02 -1.05460554E-02 -9.74035516E-02  2.95362821E-08
 -2.14604190E-02 -9.29090320E-03 -1.01787067E-01  5.19771469E-08  1.06666340E-01
  1.46447260E-01 -1.22964890E-01  7.87604136E-04  3.34078789E-08 -2.44251000E-08
 -3.69263768E-03 -6.81246389E-02  3.42127056E-01 -2.34826898E-01  6.15636565E-08
  2.96118544E-02 -7.72017562E-02  5.76372419E-02 -5.00560199E-08  2.01503969E-02
 -8.02393842E-02  5.62675835E-02 -8.63817382E-08 -1.42681934E-01 -1.26582402E-01
  1.30445624E-01  8.00549116E-03 -6.28845459E-09  7.47738093E-08 -9.40696956E-02
 -2.06045174E-01  8.84101472E-02  2.05020993E-01 -9.82184323E-02 -2.06873842E-01
  9.40696956E-02  2.06045174E-01 -8.84101472E-02 -2.05020993E-01  9.82184323E-02
  2.06873842E-01  2.08692757E-13  4.48972243E-14  2.28167463E-13 -8.75943872E-15
 -4.19062434E-07 -2.19697319E-13  9.16857978E-13  4.35335189E-13 -1.14849981E-07
 -4.42636828E-13  1.26292202E-12  1.95432558E-13 -1.51343924E-09 -2.24391617E-12
  1.38304375E-13  2.37070010E-12 -2.63427335E-12  2.28922590E-01 -5.02663966E-01
  3.38122131E-14 -7.25155720E-13  1.05430100E-12  1.32371829E-12 -8.14889149E-06
  1.63096893E-13 -3.39349708E-14 -8.20154711E-13 -1.34786293E-06  9.55914554E-14
  8.69131672E-14 -9.81017679E-13 -1.46733665E-07  4.27174322E-13 -2.48808527E-12
  6.69482352E-13 -9.66646592E-13  5.49768710E-01 -5.30868597E-02 -8.76556734E-15
  5.89186330E-13  1.15454971E-12 -2.29580659E-13  8.56797659E-06 -2.69149273E-13
 -5.39622473E-13  7.61557463E-13  1.46268163E-06 -2.75784521E-13 -8.15944136E-13
  3.37002958E-13  1.48262984E-07  2.51696938E-12 -2.09286866E-13 -1.14118556E-12
 -1.63377312E-12  3.20847131E-01  4.49579261E-01 -3.51419431E-15 -5.52376570E-13
 -2.04065531E-12 -7.69176998E-13 -4.19062435E-07  2.33470017E-13  8.66336737E-13
  4.97366302E-14 -1.14849981E-07  3.18293780E-14  4.79886195E-13  4.20686650E-13
 -1.51343871E-09 -9.98975895E-13 -1.20359265E-12  1.13669510E-12 -1.02229522E-12
 -2.28922590E-01  5.02663966E-01  6.98453244E-15  5.85348880E-13  8.52413368E-14
  3.77776837E-12 -8.14889149E-06 -3.05441865E-13 -2.65750194E-13 -7.29395474E-13
 -1.34786293E-06 -1.72839014E-13 -7.05353286E-14 -4.73267787E-13 -1.46733665E-07
  1.43920797E-12  9.40001657E-13 -1.22950302E-12 -3.36853485E-13 -5.49768710E-01
  5.30868597E-02  2.97265080E-14 -7.42618207E-13  3.51184920E-12 -3.06428289E-12
  8.56797659E-06  2.41276167E-13 -4.92522191E-13  4.58500758E-13  1.46268163E-06
 -5.19286844E-14 -1.00388572E-13  7.29057512E-13  1.48262984E-07 -7.99691413E-13
 -1.53384651E-12  9.33467740E-13 -4.44156181E-13 -3.20847131E-01 -4.49579261E-01
  3.22056415E-12 -1.18738929E-12  4.66277388E-13  1.68615438E-12 -1.72153704E-13
 -1.71879580E-12  5.52970315E-13  1.47668881E-12 -1.19401709E-12 -1.64288595E-12
  2.02596502E-12  1.75946380E-12 -2.83952161E-03  2.29544969E-02 -2.64704704E-01
 -1.95465261E-01 -1.02003167E-07 -1.56982464E-02  2.91699654E-02 -5.20180639E-02
  1.18219702E-08  2.46204732E-02 -1.24333155E-01  6.35471333E-02 -1.92815386E-08
 -1.91423801E-01  3.05780124E-01 -7.88238715E-02 -1.03827826E-02  2.32927680E-07
  1.06076369E-07  4.49558624E-03 -3.56435313E-02  6.56342593E-02  4.80945611E-01
 -7.59667157E-09  2.40159047E-02  1.44182019E-02 -7.66552087E-03 -1.94917564E-08
 -3.92422204E-02 -1.51563110E-02  1.32489274E-01 -2.06443620E-08 -3.45110488E-01
  1.68915725E-01  1.21024672E-01  3.43907217E-03  1.25333323E-08 -5.22182557E-08
 -1.34979580E-03  1.11269751E-02  8.23158641E-02 -1.56953149E-01 -3.67981012E-09
 -7.65302735E-03 -4.52642780E-02 -5.88113827E-02  1.00870184E-08  1.16740474E-02
  1.14516300E-01  8.68082353E-02  5.58971602E-09 -2.14688184E-01  2.70236619E-01
 -3.83082317E-02  6.90189284E-03 -1.57156482E-08  2.37939849E-09 -2.83952161E-03
  2.29544969E-02  2.64704704E-01  1.95465261E-01 -4.13427319E-08 -1.56982464E-02
 -2.91699654E-02  5.20180639E-02  2.88754494E-08  2.46204732E-02  1.24333155E-01
 -6.35471333E-02  2.66209230E-08 -1.91423801E-01  3.05780124E-01 -7.88238715E-02
 -1.03827826E-02  9.06143194E-10  4.13856602E-10  4.49558624E-03 -3.56435313E-02
 -6.56342593E-02 -4.80945611E-01 -3.67943674E-09  2.40159047E-02 -1.44182019E-02
  7.66552087E-03  1.00869897E-08 -3.92422204E-02  1.51563110E-02 -1.32489274E-01
  5.58941134E-09 -3.45110488E-01  1.68915725E-01  1.21024672E-01  3.43907217E-03
 -8.52413267E-09 -1.34172359E-08 -1.34979580E-03  1.11269751E-02 -8.23158641E-02
  1.56953149E-01 -7.59625703E-09 -7.65302735E-03  4.52642780E-02  5.88113827E-02
 -1.94914321E-08  1.16740474E-02 -1.14516300E-01 -8.68082353E-02 -2.06444911E-08
 -2.14688184E-01  2.70236619E-01 -3.83082317E-02  6.90189284E-03 -3.11665191E-08
  4.37300633E-08 -2.04183861E-01 -1.46829752E-02  3.13327025E-01  2.34817340E-02
 -9.91261241E-02 -6.86460930E-03 -2.04183861E-01 -1.46829752E-02  3.13327025E-01
  2.34817340E-02 -9.91261241E-02 -6.86460930E-03  3.07739208E-03 -5.00458700E-02
 -1.31431375E-01 -1.67845135E-01 -3.41075553E-08  1.54573160E-02 -3.47436023E-02
 -2.87151471E-02  3.05346793E-09  1.51015295E-02 -9.43213228E-02  7.28834446E-02
  1.32717438E-08 -1.47231134E-01  3.02528991E-02  3.72378570E-02 -1.42639281E-01
  9.16260690E-08  4.17271622E-08  1.33584042E-02 -3.90846781E-02  5.07119342E-02
  4.25307089E-01 -1.11358929E-08  2.03532146E-02  1.10881373E-02 -2.48668708E-02
  9.44262459E-10 -5.48717485E-02 -4.17001992E-02  1.46653841E-01  1.07624393E-08
 -1.52276505E-01 -3.46781626E-02  1.32370816E-01  2.39690676E-02  2.53225218E-09
 -1.79885156E-08  2.35947598E-02 -1.44214922E-01 -1.95213486E-01  5.46357650E-02
  9.83816990E-09  5.70063449E-02  9.90620068E-02 -9.81174340E-02 -4.44184168E-09
 -4.06531881E-02 -2.35332919E-02  6.40473588E-02 -2.20208621E-09 -3.38121820E-01
 -1.35694571E-01  2.54170218E-01  3.54118074E-01 -4.67952485E-09  6.76268669E-10
 -3.07739208E-03  5.00458700E-02 -1.31431375E-01 -1.67845135E-01  1.52722007E-08
 -1.54573160E-02 -3.47436023E-02 -2.87151471E-02 -1.41719524E-08 -1.51015295E-02
 -9.43213228E-02  7.28834446E-02 -1.19094127E-08  1.47231134E-01 -3.02528991E-02
 -3.72378570E-02  1.42639281E-01  3.38491784E-09  1.54181261E-09 -1.33584042E-02
  3.90846781E-02  5.07119342E-02  4.25307089E-01  9.83833463E-09 -2.03532146E-02
  1.10881373E-02 -2.48668708E-02 -4.44186759E-09  5.48717485E-02 -4.17001992E-02
  1.46653841E-01 -2.20221413E-09  1.52276505E-01  3.46781626E-02 -1.32370816E-01
 -2.39690676E-02 -2.56232072E-09 -3.97401571E-09 -2.35947598E-02  1.44214922E-01
 -1.95213486E-01  5.46357650E-02 -1.11355471E-08 -5.70063449E-02  9.90620068E-02
 -9.81174340E-02  9.44244242E-10  4.06531881E-02 -2.35332919E-02  6.40473588E-02
  1.07623022E-08  3.38121820E-01  1.35694571E-01 -2.54170218E-01 -3.54118074E-01
 -1.19083666E-08  1.37178204E-08 -1.05118951E-01  6.79272040E-02  3.88255453E-01
  5.39745424E-02  3.12888448E-01  2.47904114E-01  1.05118951E-01 -6.79272040E-02
 -3.88255453E-01 -5.39745424E-02 -3.12888448E-01 -2.47904114E-01  2.49288180E-02
 -1.22552243E-01  3.48064356E-01  1.40054626E-01  4.03221766E-07  4.78787119E-02
 -1.06538261E-01 -1.08335268E-01 -1.77431417E-07 -6.07820557E-02  1.09397089E-01
  2.49690159E-02  1.35280208E-07 -4.08148787E-01 -3.41268731E-02  2.60184035E-01
 -2.48200423E-01 -4.85296155E-07 -2.21008004E-07  1.08326940E-02 -4.30847916E-02
  7.31139593E-02  2.38115460E-01  6.72592303E-08  1.76839565E-02 -4.92099009E-02
 -3.98349922E-02  4.46845202E-09 -3.53072169E-02  8.80304704E-02  7.36472822E-02
  1.47588712E-07 -5.00542388E-02 -1.20757715E-01  1.08332152E-01 -5.80011877E-02
 -2.69713697E-08  9.97295768E-08 -9.31189235E-03  2.44030995E-02  1.75658710E-01
 -2.24752421E-01  1.34231505E-07 -1.29231566E-02 -1.41409114E-02  5.70393464E-02
 -1.21339004E-07  3.55979224E-02  1.34985362E-01  5.67088560E-02  1.16491209E-08
  1.28025226E-01  1.41564988E-03 -9.60613160E-02 -6.34711894E-02  2.76567213E-08
  8.05337623E-09 -2.49288180E-02  1.22552243E-01  3.48064356E-01  1.40054626E-01
  2.75867040E-07 -4.78787119E-02 -1.06538261E-01 -1.08335268E-01 -2.47019985E-07
  6.07820557E-02  1.09397089E-01  2.49690159E-02 -1.06050149E-07  4.08148787E-01
  3.41268731E-02 -2.60184035E-01  2.48200423E-01  1.53129026E-08  6.97286817E-09
 -1.08326940E-02  4.30847916E-02  7.31139593E-02  2.38115460E-01  1.34231456E-07
 -1.76839565E-02 -4.92099009E-02 -3.98349922E-02 -1.21339167E-07  3.53072169E-02
  8.80304704E-02  7.36472822E-02  1.16497071E-08  5.00542388E-02  1.20757715E-01
 -1.08332152E-01  5.80011877E-02  2.42326668E-08  1.55763906E-08  9.31189235E-03
 -2.44030995E-02  1.75658710E-01 -2.24752421E-01  6.72588971E-08  1.29231566E-02
 -1.41409114E-02  5.70393464E-02  4.46729132E-09 -3.55979224E-02  1.34985362E-01
  5.67088560E-02  1.47588735E-07 -1.28025226E-01 -1.41564988E-03  9.60613160E-02
  6.34711894E-02  5.75295591E-08 -8.58095668E-08  4.37163204E-01  2.41317485E-01
  2.43676983E-01  7.30659767E-02 -2.57647690E-01 -7.92696219E-02 -4.37163204E-01
 -2.41317485E-01 -2.43676983E-01 -7.30659767E-02  2.57647690E-01  7.92696219E-02
  1.20742317E-02 -6.11840052E-02  2.45911406E-01  1.23111817E-01  3.00387050E-07
  7.65003669E-03 -4.50769766E-02 -6.56700855E-02 -1.58735812E-07 -1.35503584E-01
  1.63073268E-01  2.61176531E-02  7.84983303E-08 -1.70146001E-01  5.00886783E-03
  7.87161440E-02 -1.00429444E-01 -3.15254635E-07 -1.43569707E-07  1.13383050E-02
 -7.43436484E-02  2.96822111E-02  2.57393288E-01  1.02760870E-07  9.61836372E-03
 -2.60742975E-02 -5.90700239E-02 -5.19034427E-08 -1.36288954E-01 -2.74835999E-02
  1.67558418E-01  8.89616671E-08 -3.05934314E-02 -1.58090505E-01  7.89645732E-02
 -2.17495490E-02 -1.50812420E-08  6.42209948E-08  2.09009716E-02 -8.68407532E-02
 -3.36691838E-01  2.20181308E-01  1.19539558E-07  1.81217237E-02  7.17698136E-02
 -7.78191440E-02 -1.11049938E-07 -1.53572777E-01 -1.77141765E-01  1.25978255E-01
  3.04894567E-08 -2.28672190E-01 -6.54398941E-02  1.75228093E-01  2.29705296E-01
  1.51629268E-08  5.85173506E-09  1.20742317E-02 -6.11840052E-02 -2.45911406E-01
 -1.23111817E-01  1.86333701E-07  7.65003669E-03  4.50769766E-02  6.56700855E-02
 -1.70891234E-07 -1.35503584E-01 -1.63073268E-01 -2.61176531E-02 -2.29782770E-08
 -1.70146001E-01  5.00886783E-03  7.87161440E-02 -1.00429444E-01  4.23146884E-09
  1.92656103E-09  1.13383050E-02 -7.43436484E-02 -2.96822111E-02 -2.57393288E-01
  1.19539678E-07  9.61836372E-03  2.60742975E-02  5.90700239E-02 -1.11050192E-07
 -1.36288954E-01  2.74835999E-02 -1.67558418E-01  3.04898030E-08 -3.05934314E-02
 -1.58090505E-01  7.89645732E-02 -2.17495490E-02  1.43693678E-08  7.59675374E-09
  2.09009716E-02 -8.68407532E-02  3.36691838E-01 -2.20181308E-01  1.02760235E-07
  1.81217237E-02 -7.17698136E-02  7.78191440E-02 -5.19038557E-08 -1.53572777E-01
  1.77141765E-01 -1.25978255E-01  8.89618573E-08 -2.28672190E-01 -6.54398941E-02
  1.75228093E-01  2.29705296E-01  3.85474898E-08 -5.35319426E-08  3.16492207E-01
  5.84585120E-02  2.94829032E-01  4.04367675E-02  4.89532333E-01  1.17053367E-01
  3.16492207E-01  5.84585120E-02  2.94829032E-01  4.04367675E-02  4.89532333E-01
  1.17053367E-01  5.12896531E-03 -8.37788529E-02 -2.40659379E-01 -1.87693231E-01
 -6.66469972E-08  2.17421632E-02 -5.21242380E-02 -3.10908201E-02  1.33373405E-08
  2.83980855E-02 -7.04752287E-02 -1.02325442E-01  1.39047113E-08 -2.60114075E-01
  6.82629594E-02  6.16430708E-02 -1.21414578E-01  1.49722543E-07  6.81849022E-08
 -2.12071529E-02  1.47810428E-01  3.98751834E-02 -4.18733401E-03 -1.79014948E-08
 -4.32941690E-02  3.04828504E-02  1.75051440E-01  3.31631755E-09  1.90086005E-02
  2.15259427E-02  1.68370593E-02  1.23908703E-08 -1.79400177E-01  6.22959044E-01
 -2.21857977E-01  7.83979630E-02  3.84683555E-09 -2.68679286E-08  1.18639692E-03
 -7.69286521E-02  3.28002705E-01 -2.52469835E-01  9.68263693E-09  1.75740510E-02
  1.14481969E-02 -2.32484069E-02 -3.33202530E-09  4.38614438E-02  7.58345302E-02
 -1.20274077E-01 -2.22365240E-09 -1.42732978E-01  1.26241623E-03  1.98688209E-02
  9.05077777E-02 -6.08811078E-09  1.15796069E-09 -5.12896531E-03  8.37788529E-02
 -2.40659379E-01 -1.87693231E-01  1.70560380E-08 -2.17421632E-02 -5.21242380E-02
 -3.10908201E-02 -1.81051288E-08 -2.83980855E-02 -7.04752287E-02 -1.02325442E-01
 -1.45512795E-08  2.60114075E-01 -6.82629594E-02 -6.16430708E-02  1.21414578E-01
  4.29393815E-09  1.95580393E-09  2.12071529E-02 -1.47810428E-01  3.98751834E-02
 -4.18733401E-03  9.68279305E-09  4.32941690E-02  3.04828504E-02  1.75051440E-01
 -3.33201165E-09 -1.90086005E-02  2.15259427E-02  1.68370593E-02 -2.22381037E-09
  1.79400177E-01 -6.22959044E-01  2.21857977E-01 -7.83979630E-02 -3.12367179E-09
 -5.35281269E-09 -1.18639692E-03  7.69286521E-02  3.28002705E-01 -2.52469835E-01
 -1.79010041E-08 -1.75740510E-02  1.14481969E-02 -2.32484069E-02  3.31632441E-09
 -4.38614438E-02  7.58345302E-02 -1.20274077E-01  1.23906928E-08  1.42732978E-01
 -1.26241623E-03 -1.98688209E-02 -9.05077777E-02 -1.77439364E-08  2.05380670E-08
 -1.85905914E-01  1.14369113E-01 -1.15950743E-01 -2.79146888E-01 -2.91194148E-01
  5.74211951E-02  1.85905914E-01 -1.14369113E-01  1.15950743E-01  2.79146888E-01
  2.91194148E-01 -5.74211951E-02  2.29644617E-07 -8.30727504E-07  2.30312203E-06
 -9.72880700E-08  4.53403801E-01  1.85607080E-07 -1.00842662E-06  2.14791547E-08
 -4.16340069E-01 -5.72156079E-07  8.63004177E-07  1.71238171E-06  1.66125466E-01
 -3.07273307E-06 -2.68231276E-07  2.24912244E-06 -2.04645233E-06  1.25479347E-02
  5.71454714E-03  5.75377640E-08 -2.69161499E-07 -3.45476103E-07  8.44850731E-07
  4.53404145E-01  5.07845604E-08  8.01788760E-07 -4.33605841E-07 -4.16340142E-01
 -2.90809054E-07  1.90940837E-06  3.88496572E-07  1.66125408E-01 -5.91062585E-09
 -8.82978082E-07  5.17026362E-07 -1.35272250E-07  1.32598095E-03  1.37253286E-02
 -2.24825967E-07  8.44076956E-07  1.59601727E-06 -1.45221107E-07  4.53402402E-01
 -2.44457059E-07 -7.51051314E-07  8.09626024E-08 -4.16338634E-01  1.78324561E-07
  3.60422949E-07 -1.16824275E-06  1.66125912E-01  2.27785041E-06  1.27289912E-06
 -2.42305637E-06 -2.41316889E-06 -1.12235954E-02  8.00904681E-03  2.48119067E-07
 -9.35012466E-07 -2.58664739E-06 -3.57626927E-08  4.53403801E-01  2.38132183E-07
  1.13298189E-06  9.10818173E-08 -4.16340069E-01 -6.08032828E-07 -9.25556810E-07
 -1.71571518E-06  1.66125466E-01 -3.35698305E-06 -3.14483710E-07  2.42954096E-06
 -2.22426126E-06 -1.25479347E-02 -5.71454714E-03  6.64542720E-08 -2.90309703E-07
  2.93908743E-07 -9.82052051E-07  4.53404145E-01  5.87951078E-08 -7.49431564E-07
  4.49571824E-07 -4.16340142E-01 -3.18808582E-07 -1.95983519E-06 -4.61497512E-07
  1.66125408E-01 -2.48012490E-08 -9.62544046E-07  5.91957703E-07 -1.85473210E-07
 -1.32598095E-03 -1.37253286E-02 -2.32145705E-07  8.50753265E-07 -1.67731451E-06
  2.95667336E-07  4.53402402E-01 -2.49554065E-07  7.43452951E-07 -1.21773175E-07
 -4.16338634E-01  2.05271837E-07 -4.72870424E-07  1.13524658E-06  1.66125912E-01
  2.35300419E-06  1.26116324E-06 -2.48455848E-06 -2.45606290E-06  1.12235954E-02
 -8.00904681E-03  3.49272014E-06  1.28506460E-06  9.81466826E-07  2.79587005E-07
 -3.22407416E-06 -1.28140626E-06  3.85230109E-06  1.41424379E-06  1.15874198E-06
  3.03219101E-07 -3.40083016E-06 -1.30417988E-06  2.76054277E-02 -1.02673581E-01
  2.91682677E-01  1.68919208E-03 -3.71895929E-06  2.50553477E-02 -1.27839926E-01
 -5.12051967E-03  3.57076640E-06 -7.18943091E-02  1.07276784E-01  1.98722243E-01
 -1.40237445E-06 -3.65796372E-01 -3.70885121E-02  2.67476849E-01 -2.44455530E-01
 -5.46525973E-07 -2.48893951E-07  8.18719755E-03 -3.58803978E-02 -3.63731450E-02
  1.15138381E-01 -4.03423288E-06  6.72278592E-03  8.68099398E-02 -5.62666660E-02
  3.77230030E-06 -4.03070008E-02  2.19909787E-01  5.75941966E-02 -1.37972916E-06
  1.88187675E-03 -1.22270156E-01  7.15921472E-02 -2.06094444E-02 -3.49854357E-08
 -3.96440679E-08 -2.55406711E-02  9.52913389E-02  1.72540168E-01 -1.78295929E-02
 -3.99303622E-06 -2.77944186E-02 -8.02851116E-02  1.08339162E-02  3.67060659E-06
  1.65792525E-02  4.21541421E-02 -1.24627514E-01 -1.48527275E-06  2.62234767E-01
  1.40781555E-01 -2.75998904E-01 -2.72630025E-01  1.23926254E-07 -6.10619832E-08
  2.76054277E-02 -1.02673581E-01 -2.91682677E-01 -1.68919208E-03 -3.87691501E-06
  2.50553477E-02  1.27839926E-01  5.12051967E-03  3.55122300E-06 -7.18943091E-02
 -1.07276784E-01 -1.98722243E-01 -1.58585525E-06 -3.65796372E-01 -3.70885121E-02
  2.67476849E-01 -2.44455530E-01  1.27114129E-07  5.78894317E-08  8.18719755E-03
 -3.58803978E-02  3.63731450E-02 -1.15138381E-01 -3.99305199E-06  6.72278592E-03
 -8.68099398E-02  5.62666660E-02  3.67062015E-06 -4.03070008E-02 -2.19909787E-01
 -5.75941966E-02 -1.48526754E-06  1.88187675E-03 -1.22270156E-01  7.15921472E-02
 -2.06094444E-02  3.52897920E-08  1.33579526E-07 -2.55406711E-02  9.52913389E-02
 -1.72540168E-01  1.78295929E-02 -4.03421744E-06 -2.77944186E-02  8.02851116E-02
 -1.08339162E-02  3.77228557E-06  1.65792525E-02 -4.21541421E-02  1.24627514E-01
 -1.37973358E-06  2.62234767E-01  1.40781555E-01 -2.75998904E-01 -2.72630025E-01
 -5.28636884E-08 -3.70351570E-10  4.31006388E-01  1.50562519E-01  1.37630694E-01
  3.79376579E-02 -3.64358331E-01 -1.45091253E-01  4.31006388E-01  1.50562519E-01
  1.37630694E-01  3.79376579E-02 -3.64358331E-01 -1.45091253E-01  2.10807604E-02
 -7.05776227E-02 -3.88058501E-02  5.50510260E-02  7.07035202E-08  1.08085639E-02
  2.11269293E-02 -1.35498727E-01  1.72313321E-09 -3.65396407E-03  7.94974876E-02
 -1.04750934E-01  2.14599691E-09 -3.74119698E-01  9.60863647E-02  1.92509728E-01
 -1.47954979E-01 -2.20725766E-07 -1.00520777E-07 -3.83787727E-02  1.24274227E-01
  1.54380623E-03 -1.10541365E-01 -1.20914411E-07 -1.58611252E-02  4.76464996E-02
  1.46073388E-01  1.55609122E-07  5.53901868E-02  1.22263006E-02 -1.54179211E-01
  2.36940993E-08 -1.76001243E-01  6.46515124E-01 -3.22865420E-01  7.44300250E-02
 -1.43473276E-08  3.74176266E-08  1.05835160E-02 -3.92478925E-02  1.11220229E-01
  1.01374158E-01 -9.24910450E-08  6.60826346E-03 -9.18105000E-02 -1.34280947E-01
  9.22343448E-08  6.42211985E-03 -8.89839287E-02 -1.27237111E-01 -4.46737613E-08
 -2.43399181E-01  9.12557219E-02  1.02792300E-01  8.60951157E-02  1.49878637E-08
  7.15317103E-09  2.10807604E-02 -7.05776227E-02  3.88058501E-02 -5.50510260E-02
 -1.58352885E-08  1.08085639E-02 -2.11269293E-02  1.35498727E-01 -8.63416400E-10
 -3.65396407E-03 -7.94974876E-02  1.04750934E-01 -1.15882135E-07 -3.74119698E-01
  9.60863647E-02  1.92509728E-01 -1.47954979E-01  1.52553542E-08  6.94736794E-09
 -3.83787727E-02  1.24274227E-01 -1.54380623E-03  1.10541365E-01 -9.24915782E-08
 -1.58611252E-02 -4.76464996E-02 -1.46073388E-01  9.22348592E-08  5.53901868E-02
 -1.22263006E-02  1.54179211E-01 -4.46731413E-08 -1.76001243E-01  6.46515124E-01
 -3.22865420E-01  7.44300250E-02  1.52354247E-08  6.61085941E-09  1.05835160E-02
 -3.92478925E-02 -1.11220229E-01 -1.01374158E-01 -1.20913782E-07  6.60826346E-03
  9.18105000E-02  1.34280947E-01  1.55607810E-07  6.42211985E-03  8.89839287E-02
  1.27237111E-01  2.36940094E-08 -2.43399181E-01  9.12557219E-02  1.02792300E-01
  8.60951157E-02  1.88091834E-08 -3.53848222E-08  2.15863333E-01  1.16488830E-01
 -3.88274882E-01 -1.95963293E-01  1.07693014E-01  5.89229564E-02  2.15863333E-01
  1.16488830E-01 -3.88274882E-01 -1.95963293E-01  1.07693014E-01  5.89229564E-02
  4.90978808E-04  5.12579650E-03  2.13442479E-01 -3.42540848E-01  1.69785020E-08
  8.20749688E-04 -2.03320276E-01  3.91976078E-01 -7.86285578E-09 -6.92767302E-03
 -9.83306409E-02  2.41435701E-01  2.10260678E-09 -1.50115030E-01  1.50631954E-01
  6.89014277E-03  7.76377739E-02 -3.28990375E-08 -1.49825757E-08  6.62543903E-04
 -1.51287655E-03 -3.19495972E-01  4.89578133E-02 -1.72900764E-08  6.87675097E-04
  4.45071340E-01 -5.43514616E-02  2.45263190E-08 -2.99489919E-03  2.71558886E-01
 -2.17454615E-02  7.33009871E-09  4.63639659E-02 -5.49867588E-02  6.63691093E-03
  1.77970158E-01 -2.67345815E-09  5.80605611E-09 -4.94834625E-05 -4.27731768E-03
  2.71960757E-01  3.29432339E-01 -1.15885770E-08 -5.50818021E-04 -2.64522058E-01
 -3.48800238E-01  1.27356936E-08  3.58405882E-03 -1.41901004E-01 -2.06469197E-01
 -5.73102652E-09  1.65022083E-01 -1.68625235E-01 -2.39978518E-03  3.02920967E-02
  2.30150886E-09  1.81508035E-09 -4.90978808E-04 -5.12579650E-03  2.13442479E-01
 -3.42540848E-01  3.62309982E-09 -8.20749688E-04 -2.03320276E-01  3.91976078E-01
 -7.72729267E-09  6.92767302E-03 -9.83306409E-02  2.41435701E-01 -2.03414068E-08
  1.50115030E-01 -1.50631954E-01 -6.89014277E-03 -7.76377739E-02  3.00947982E-09
  1.37054914E-09 -6.62543903E-04  1.51287655E-03 -3.19495972E-01  4.89578133E-02
 -1.15886454E-08 -6.87675097E-04  4.45071340E-01 -5.43514616E-02  1.27357755E-08
  2.99489919E-03  2.71558886E-01 -2.17454615E-02 -5.73091010E-09 -4.63639659E-02
  5.49867588E-02 -6.63691093E-03 -1.77970158E-01  2.88012378E-09  5.44696792E-10
  4.94834625E-05  4.27731768E-03  2.71960757E-01  3.29432339E-01 -1.72899501E-08
  5.50818021E-04 -2.64522058E-01 -3.48800238E-01  2.45260771E-08 -3.58405882E-03
 -1.41901004E-01 -2.06469197E-01  7.33009060E-09 -1.65022083E-01  1.68625235E-01
  2.39978518E-03 -3.02920967E-02  2.62500932E-09 -5.82800914E-09  3.07455925E-02
  2.61574817E-02  1.21897195E-02  1.28967495E-02 -1.58298503E-02 -1.59287236E-02
 -3.07455925E-02 -2.61574817E-02 -1.21897195E-02 -1.28967495E-02  1.58298503E-02
  1.59287236E-02 -1.34004859E-02 -8.08613088E-02 -1.75446110E-01 -1.95872362E-01
  2.31370586E-07  1.07308145E-02  4.07762401E-01  1.87783301E-01 -2.31952652E-07
  8.31987870E-02 -2.78465669E-01 -1.26904300E-01  2.45363592E-08 -1.56809294E-01
  2.69890716E-02 -1.27418563E-02 -1.97695409E-01 -2.65427171E-07 -1.20878451E-07
 -7.54258462E-04 -1.59592938E-01 -7.40887175E-02 -3.37182609E-01 -5.51767776E-08
  6.60123813E-03  4.53069801E-02  4.49314952E-01  1.27224848E-07  8.31649726E-02
 -2.94362941E-02 -3.03768449E-01  6.89604454E-08 -2.81746479E-02 -2.80371933E-01
  7.87247037E-02 -4.85209024E-02 -2.74567683E-08  4.77212811E-08 -2.16438839E-02
 -3.15320697E-02  1.05843955E-01 -1.54617675E-01 -7.52904194E-08  1.37317524E-02
 -3.64244495E-01  2.59922700E-01  1.06536144E-07  8.30705589E-02  2.48917476E-01
 -1.77611754E-01 -2.91480708E-08 -5.62886787E-02  3.95698096E-02 -7.18158221E-02
  2.53497946E-01  1.05224329E-08  1.62375609E-08 -1.34004859E-02 -8.08613088E-02
  1.75446110E-01  1.95872362E-01  2.33290741E-08  1.07308145E-02 -4.07762401E-01
 -1.87783301E-01 -7.05003594E-08  8.31987870E-02  2.78465669E-01  1.26904300E-01
 -1.49640502E-07 -1.56809294E-01  2.69890716E-02 -1.27418563E-02 -1.97695409E-01
  2.00450136E-08  9.12880600E-09 -7.54258462E-04 -1.59592938E-01  7.40887175E-02
  3.37182609E-01 -7.52898776E-08  6.60123813E-03 -4.53069801E-02 -4.49314952E-01
  1.06535446E-07  8.31649726E-02  2.94362941E-02  3.03768449E-01 -2.91463921E-08
 -2.81746479E-02 -2.80371933E-01  7.87247037E-02 -4.85209024E-02  1.91568452E-08
 -2.72129753E-09 -2.16438839E-02 -3.15320697E-02 -1.05843955E-01  1.54617675E-01
 -5.51755812E-08  1.37317524E-02  3.64244495E-01 -2.59922700E-01  1.27222338E-07
  8.30705589E-02 -2.48917476E-01  1.77611754E-01  6.89615481E-08 -5.62886787E-02
  3.95698096E-02 -7.18158221E-02  2.53497946E-01  1.79762549E-08 -5.20379508E-08
  3.27063391E-01 -7.24817876E-03  3.32879293E-01 -1.12108358E-02  3.22601178E-01
 -5.95981610E-03  3.27063391E-01 -7.24817876E-03  3.32879293E-01 -1.12108358E-02
  3.22601178E-01 -5.95981610E-03 -6.19117238E-02  2.14142581E-01  3.49849542E-01
  2.08768742E-01  9.34822687E-08  7.72655725E-02 -2.91089547E-02 -1.29415335E-01
 -1.53402655E-07 -3.26491221E-02  9.39535535E-02  9.67900604E-02  4.59527010E-09
  6.68251848E-02  4.41520363E-01 -3.68224004E-01 -3.26748174E-01 -4.69275513E-08
 -2.13713513E-08  1.00166094E-02 -5.45220093E-02  7.07026373E-01 -1.55974514E-01
 -3.26807089E-08 -1.08707231E-02 -2.37636348E-01  5.87162384E-02  7.26239307E-08
  7.94076427E-03  1.29731621E-01 -4.15499103E-02  4.85273585E-08 -7.38200599E-02
 -4.08936456E-02  6.55744848E-02  3.01054759E-01 -1.67689331E-08  1.39926662E-08
  5.07983508E-02 -1.73586172E-01  1.54562643E-01 -3.69928636E-01 -3.95528534E-08
 -6.61293855E-02 -1.23682169E-03  1.65271219E-01  7.09450177E-08  3.31768790E-02
  5.57921306E-02 -1.43015049E-01 -5.20099064E-09 -1.28626441E-01 -2.86989359E-01
  3.03584444E-01 -2.60173600E-01  2.66458935E-09  1.35385035E-08 -6.19117238E-02
  2.14142581E-01 -3.49849542E-01 -2.08768742E-01  3.53606922E-08  7.72655725E-02
  2.91089547E-02  1.29415335E-01 -8.49531283E-08 -3.26491221E-02 -9.39535535E-02
 -9.67900604E-02 -9.17172308E-08  6.68251848E-02  4.41520363E-01 -3.68224004E-01
 -3.26748174E-01  1.54006461E-08  7.01385459E-09  1.00166094E-02 -5.45220093E-02
 -7.07026373E-01  1.55974514E-01 -3.95517400E-08 -1.08707231E-02  2.37636348E-01
 -5.87162384E-02  7.09434638E-08  7.94076427E-03 -1.29731621E-01  4.15499103E-02
 -5.19903401E-09 -7.38200599E-02 -4.08936456E-02  6.55744848E-02  3.01054759E-01
  1.19621185E-08 -6.87719795E-09  5.07983508E-02 -1.73586172E-01 -1.54562643E-01
  3.69928636E-01 -3.26791399E-08 -6.61293855E-02  1.23682169E-03 -1.65271219E-01
  7.26215150E-08  3.31768790E-02 -5.57921306E-02  1.43015049E-01  4.85290787E-08
 -1.28626441E-01 -2.86989359E-01  3.03584444E-01 -2.60173600E-01 -4.52176684E-10
 -2.18352803E-08  2.71247616E-02  6.90222497E-02  1.09909321E-02 -1.99844461E-02
  1.04406090E-02 -5.03686052E-02  2.71247616E-02  6.90222497E-02  1.09909321E-02
 -1.99844461E-02  1.04406090E-02 -5.03686052E-02  5.67011543E-02 -1.77667048E-01
 -2.11300174E-01  2.39079948E-02  3.47925350E-07 -7.41383283E-02  1.49502191E-01
  3.14819690E-02 -3.90107702E-07 -4.06756849E-02  1.73264677E-01  9.33790138E-02
  2.31627229E-07 -2.60245936E-01 -2.23121983E-01  3.83082796E-01  8.68207565E-02
 -2.90807555E-07 -1.32436172E-07 -5.52274616E-02  1.73459304E-01 -1.08101580E-01
  1.90443548E-01  7.57102580E-08  7.09098619E-02  2.57921127E-02 -1.59096558E-01
 -7.03829250E-08  3.95654044E-02 -2.62503362E-02 -1.94644882E-01  1.19273695E-07
  2.70162872E-01  2.01538680E-01 -3.74171694E-01 -8.88578942E-02 -3.58840902E-08
  4.41144786E-08  4.19064679E-02 -1.57280171E-01  7.09579761E-02 -6.24120862E-02
 -1.20254421E-07 -2.17892611E-02 -8.83536310E-02  6.33098169E-02  1.69847488E-07
 -5.00841767E-02 -1.99830643E-01  1.41315597E-01 -1.31982754E-07 -1.85382503E-01
 -2.24722520E-01  3.04577633E-01 -2.21186034E-02 -7.61755467E-09 -1.30366286E-08
 -5.67011543E-02  1.77667048E-01 -2.11300174E-01  2.39079948E-02 -1.78559425E-07
  7.41383283E-02  1.49502191E-01  3.14819690E-02  2.49020127E-07  4.06756849E-02
  1.73264677E-01  9.33790138E-02 -2.68103028E-07  2.60245936E-01  2.23121983E-01
 -3.83082796E-01 -8.68207565E-02 -1.12108456E-10 -5.03284965E-11  5.52274616E-02
 -1.73459304E-01 -1.08101580E-01  1.90443548E-01 -1.20245316E-07 -7.09098619E-02
  2.57921127E-02 -1.59096558E-01  1.69833815E-07 -3.95654044E-02 -2.62503362E-02
 -1.94644882E-01 -1.31970752E-07 -2.70162872E-01 -2.01538680E-01  3.74171694E-01
  8.88578942E-02 -1.48353942E-08  2.81165000E-09 -4.19064679E-02  1.57280171E-01
  7.09579761E-02 -6.24120862E-02  7.57183776E-08  2.17892611E-02 -8.83536310E-02
  6.33098169E-02 -7.03956493E-08  5.00841767E-02 -1.99830643E-01  1.41315597E-01
  1.19286123E-07  1.85382503E-01  2.24722520E-01 -3.04577633E-01  2.21186034E-02
  9.72402229E-09 -5.60266297E-08  4.59764622E-01 -2.86127088E-01 -4.58520968E-01
  2.90804075E-01  4.10152360E-01 -2.42589348E-01 -4.59764622E-01  2.86127088E-01
  4.58520968E-01 -2.90804075E-01 -4.10152360E-01  2.42589348E-01 -3.18571329E-02
  4.34392224E-02  4.10446796E-01 -3.58878487E-01  1.38161272E-08  1.27814847E-01
 -1.28714284E-01  1.17869065E-01 -3.39904811E-08 -3.56339969E-02  1.94851302E-01
  2.45443228E-02 -1.21300192E-08  2.61690104E-01 -1.11790438E-01 -1.59674336E-01
 -2.94985382E-01  1.41435483E-10  6.43599894E-11  6.14653383E-03 -1.18299255E-02
  7.16656132E-01 -1.54850962E-01 -1.55141252E-08 -3.63459790E-02 -2.56824189E-01
  3.34207029E-02  2.95546575E-08  2.16404199E-02  3.42661870E-02 -1.09785789E-01
  1.03366468E-08  1.53634288E-02 -4.35687583E-02  2.33877307E-02  4.67034750E-01
 -4.02764279E-09  2.48870239E-09  5.85169355E-02 -5.87084740E-02  3.42451148E-01
 -1.23793055E-02 -7.43152543E-09 -2.01564699E-01 -1.80154240E-01  6.35324904E-02
  1.63078997E-08  2.14306966E-02  1.12761809E-01 -4.56331481E-02  6.01292876E-09
 -2.49938302E-01 -1.04110072E-02  3.15171757E-01 -8.08220892E-02  1.30474048E-09
  5.65793611E-09  3.18571329E-02 -4.34392224E-02  4.10446796E-01 -3.58878487E-01
  2.28459271E-08 -1.27814847E-01 -1.28714284E-01  1.17869065E-01 -4.52775559E-08
  3.56339969E-02  1.94851302E-01  2.45443228E-02 -1.72145982E-08 -2.61690104E-01
  1.11790438E-01  1.59674336E-01  2.94985382E-01  5.53253775E-09  2.51962710E-09
 -6.14653383E-03  1.18299255E-02  7.16656132E-01 -1.54850962E-01 -7.43158663E-09
  3.63459790E-02 -2.56824189E-01  3.34207029E-02  1.63080270E-08 -2.16404199E-02
  3.42661870E-02 -1.09785789E-01  6.01300404E-09 -1.53634288E-02  4.35687583E-02
 -2.33877307E-02 -4.67034750E-01  5.12466171E-09 -2.72987914E-09 -5.85169355E-02
  5.87084740E-02  3.42451148E-01 -1.23793055E-02 -1.55139936E-08  2.01564699E-01
 -1.80154240E-01  6.35324904E-02  2.95544720E-08 -2.14306966E-02  1.12761809E-01
 -4.56331481E-02  1.03366334E-08  2.49938302E-01  1.04110072E-02 -3.15171757E-01
  8.08220892E-02 -7.66571648E-10 -4.67209592E-09 -1.64476132E-02  3.82490901E-02
 -7.02705091E-02  2.80003374E-02  3.03971240E-01 -2.29537027E-01  1.64476132E-02
 -3.82490901E-02  7.02705091E-02 -2.80003374E-02 -3.03971240E-01  2.29537027E-01
  1.87345664E-02 -9.90365366E-02 -4.01927620E-01  4.63880846E-01  6.39107243E-08
 -2.70722154E-02  2.18724215E-01 -1.92698448E-01 -7.77032208E-08  2.52940066E-02
 -1.50556168E-01  1.04556211E-01  5.65954878E-08 -1.49304170E-01 -5.67348255E-02
  1.22231263E-01  1.91475358E-01 -4.06898108E-08 -1.85303012E-08 -6.60691381E-02
  1.75008154E-01  1.10411564E-01  3.70955673E-01  1.94093475E-08  9.43394528E-02
 -8.86494006E-02 -4.39083165E-02 -2.34894788E-08 -3.25265743E-02  4.81004138E-02
  1.22746428E-01  2.78614108E-08  6.38389917E-01 -1.98913833E-01 -3.71000932E-01
 -9.91310215E-02 -7.08756023E-09  6.02118542E-09  4.28296934E-02 -1.40169265E-01
  4.74354244E-01  1.43893914E-01 -2.43933898E-08 -6.74749758E-02 -2.38130868E-01
 -5.23015454E-02  3.51400723E-08  4.41211796E-02  2.08464627E-01  4.63941046E-04
 -3.05452692E-08 -1.70255514E-01 -1.62541672E-01  2.53883204E-01 -2.26585655E-01
 -2.62976135E-09 -3.83502895E-09  1.87345664E-02 -9.90365366E-02  4.01927620E-01
 -4.63880846E-01 -4.20511407E-08 -2.70722154E-02 -2.18724215E-01  1.92698448E-01
  6.13135471E-08  2.52940066E-02  1.50556168E-01 -1.04556211E-01 -6.00924016E-08
 -1.49304170E-01 -5.67348255E-02  1.22231263E-01  1.91475358E-01 -6.22831860E-10
 -2.83364852E-10 -6.60691381E-02  1.75008154E-01 -1.10411564E-01 -3.70955673E-01
 -2.43902785E-08  9.43394528E-02  8.86494006E-02  4.39083165E-02  3.51353913E-08
 -3.25265743E-02 -4.81004138E-02 -1.22746428E-01 -3.05410014E-08  6.38389917E-01
 -1.98913833E-01 -3.71000932E-01 -9.91310215E-02 -4.61956890E-09  5.33766149E-10
  4.28296934E-02 -1.40169265E-01 -4.74354244E-01 -1.43893914E-01  1.94122876E-08
 -6.74749758E-02  2.38130868E-01  5.23015454E-02 -2.34939559E-08  4.41211796E-02
 -2.08464627E-01 -4.63941046E-04  2.78657630E-08 -1.70255514E-01 -1.62541672E-01
  2.53883204E-01 -2.26585655E-01 -1.10131389E-10 -9.29878225E-09  6.53751706E-02
 -4.31442769E-02  8.87493917E-02  9.73418174E-02  6.75634677E-02 -6.13182136E-02
  6.53751706E-02 -4.31442769E-02  8.87493917E-02  9.73418174E-02  6.75634677E-02
 -6.13182136E-02 -4.28404980E-02 -4.41637202E-02 -2.14277943E-02  4.76265295E-01
 -1.93101766E-06  1.98122775E-01 -9.34695271E-02 -3.23427713E-01  2.84396382E-06
 -3.28274516E-02  1.28124059E-01  1.30968027E-01 -2.76929508E-06 -1.24777545E-01
  1.69498198E-01 -2.03916665E-01  1.88530549E-01  1.96351847E-07  8.92830286E-08
 -6.03839162E-02  5.80094101E-03  2.05021917E-01  3.08874567E-01 -9.50818799E-07
  2.59679613E-01 -1.24329217E-01 -2.57475368E-01  1.43591618E-06 -6.17136693E-02
  4.61719654E-02  3.08060635E-01 -1.35403337E-06  1.81034534E-01 -1.57302017E-02
 -2.98937545E-01  7.75465656E-02  2.63767820E-07 -2.33706779E-08 -1.45173375E-02
 -3.74802045E-02  3.09334245E-01  5.09737348E-01  9.34904440E-07  7.54415070E-02
 -1.11203553E-01 -3.27847068E-01 -1.40792599E-06 -9.50234136E-03  2.43759692E-02
  1.12392116E-01  1.39464509E-06 -3.06202196E-01  2.86441118E-01 -6.45050695E-02
 -1.62934231E-01  1.68665562E-07  2.10301594E-07  4.28404980E-02  4.41637202E-02
 -2.14277943E-02  4.76265295E-01  1.90562093E-06 -1.98122775E-01 -9.34695271E-02
 -3.23427713E-01 -2.91439284E-06  3.28274516E-02  1.28124059E-01  1.30968027E-01
  2.73270738E-06  1.24777545E-01 -1.69498198E-01  2.03916665E-01 -1.88530549E-01
  4.70213789E-08  2.12764522E-08  6.03839162E-02 -5.80094101E-03  2.05021917E-01
  3.08874567E-01  9.33567046E-07 -2.59679613E-01 -1.24329217E-01 -2.57475368E-01
 -1.40589152E-06  6.17136693E-02  4.61719654E-02  3.08060635E-01  1.39267410E-06
 -1.81034534E-01  1.57302017E-02  2.98937545E-01 -7.75465656E-02  2.69489434E-07
 -1.08570277E-08  1.45173375E-02  3.74802045E-02  3.09334245E-01  5.09737348E-01
 -9.52155121E-07 -7.54415070E-02 -1.11203553E-01 -3.27847068E-01  1.43794912E-06
  9.50234136E-03  2.43759692E-02  1.12392116E-01 -1.35600489E-06  3.06202196E-01
 -2.86441118E-01  6.45050695E-02  1.62934231E-01  1.55468858E-07  2.14198927E-07
 -2.87576841E-01  2.29669741E-01 -2.45931258E-01  2.32890448E-01 -1.48295740E-01
  1.14743283E-01  2.87576841E-01 -2.29669741E-01  2.45931258E-01 -2.32890448E-01
  1.48295740E-01 -1.14743283E-01  1.71816914E-07 -1.42359405E-08  1.03182034E-08
 -1.61291415E-06 -4.61767408E-01 -6.64045419E-07  2.94431519E-07  1.09321020E-06
  7.04134520E-01  7.41693641E-08 -3.49311429E-07 -3.94888752E-07 -6.84751570E-01
  2.66199090E-07 -7.52655978E-07  8.86063929E-07 -6.19936992E-07  2.20261144E-02
 -2.29682256E-02  1.87888219E-07  5.83215463E-08 -7.81614590E-07 -1.00170265E-06
 -7.24415822E-02 -8.85522897E-07  3.96349785E-07  9.09047670E-07  1.10463574E-01
  2.25104714E-07 -9.58432014E-08 -1.18303517E-06 -1.07423151E-01 -4.53411428E-07
  6.64621424E-08  8.97554355E-07 -3.77876149E-07  8.04449343E-02 -6.10768944E-03
  7.42602733E-08  6.80797075E-08 -1.01043080E-06 -1.87696439E-06  3.89327292E-01
 -3.09898019E-07  2.31736535E-07  1.24693101E-06 -5.93672912E-01  3.66397206E-08
 -7.05593850E-08 -4.17381562E-07  5.77330439E-01  1.03406877E-06 -1.13892437E-06
  3.79725946E-07  5.57978998E-07  3.66333581E-02  3.60533693E-02 -1.76535517E-07
 -8.14212369E-08  2.44741431E-08 -1.70194379E-06  4.61767408E-01  7.24793781E-07
  2.61968518E-07  1.16582288E-06 -7.04134520E-01 -9.71194770E-08 -3.50464615E-07
 -4.35026031E-07  6.84751570E-01 -3.93288418E-07  7.41246050E-07 -8.77287323E-07
  5.50490649E-07  2.20261144E-02 -2.29682256E-02 -1.99450553E-07 -6.54113668E-08
 -8.32222944E-07 -9.81886920E-07  7.24415822E-02  9.03876616E-07  4.39672859E-07
  7.65384581E-07 -1.10463574E-01 -2.25336112E-07 -1.86027041E-07 -1.11368130E-06
  1.07423151E-01  5.46305383E-07 -1.49094002E-07 -9.45337927E-07  3.51684420E-07
  8.04449343E-02 -6.10768944E-03 -6.64218135E-08 -8.80092547E-08 -1.12482811E-06
 -1.85753710E-06 -3.89327292E-01  2.89020475E-07  3.95796605E-07  1.15788585E-06
  5.93672912E-01 -1.83627670E-08 -1.45401729E-07 -2.89783887E-07 -5.77330439E-01
 -1.08552720E-06  1.13420788E-06 -3.27904304E-07 -5.52889917E-07  3.66333581E-02
  3.60533693E-02  1.22598034E-06 -8.01422005E-07  7.75600736E-07 -7.12633251E-07
  7.59690255E-07 -5.56893801E-07 -1.05963306E-06  8.86024078E-07 -6.59422253E-07
  6.94470873E-07 -6.40315011E-07  5.15350150E-07  6.80022976E-08 -5.71235693E-09
  4.05493468E-09 -6.38249579E-07 -1.82953123E-01 -2.62765430E-07  1.16495451E-07
  4.32594415E-07  2.78980250E-01  2.93314725E-08 -1.38185205E-07 -1.56239007E-07
 -2.71302834E-01  1.05264648E-07 -2.97920694E-07  3.50716824E-07 -2.45306396E-07
 -2.76203228E-02  7.07107523E-02  7.43420439E-08  2.31147593E-08 -3.09337104E-07
 -3.96365398E-07 -4.91379334E-01 -3.50415085E-07  1.56827321E-07  3.59739494E-07
  7.49291528E-01  8.90837887E-08 -3.78961193E-08 -4.68206568E-07 -7.28666578E-01
 -1.79346092E-07  2.63052077E-08  3.55120609E-07 -1.49586389E-07 -1.07604333E-02
  1.22917923E-02  2.93973494E-08  2.69137802E-08 -3.99823299E-07 -7.42808744E-07
 -3.08424385E-01 -1.22656574E-07  9.16311378E-08  4.93490721E-07  4.70308479E-01
  1.45012027E-08 -2.79137207E-08 -1.65181874E-07 -4.57364283E-01  4.09194098E-07
 -4.50764507E-07  1.50336719E-07  2.20802772E-07  3.14026284E-02  5.61031426E-02
 -6.98718460E-08 -3.21872320E-08  9.66201280E-09 -6.73519786E-07  1.82953123E-01
  2.86834229E-07  1.03635960E-07  4.61362487E-07 -2.78980250E-01 -3.84248970E-08
 -1.38643918E-07 -1.72140935E-07  2.71302834E-01 -1.55616070E-07  2.93398730E-07
 -3.47239813E-07  2.17792380E-07 -2.76203228E-02  7.07107523E-02 -7.89226043E-08
 -2.59244993E-08 -3.29385265E-07 -3.88512882E-07  4.91379334E-01  3.57686266E-07
  1.73991370E-07  3.02820656E-07 -7.49291528E-01 -8.91755882E-08 -7.36267686E-08
 -4.40728248E-07  7.28666578E-01  2.16146531E-07 -5.90420107E-08 -3.74050147E-07
  1.39208536E-07 -1.07604333E-02  1.22917923E-02 -2.62921436E-08 -3.48080604E-08
 -4.45143212E-07 -7.35111696E-07  3.08424385E-01  1.14385515E-07  1.56629312E-07
  4.58211079E-07 -4.70308479E-01 -7.26056372E-09 -5.75641571E-08 -1.14627926E-07
  4.57364283E-01 -4.29580088E-07  4.48897839E-07 -1.29807444E-07 -2.18784348E-07
  3.14026284E-02  5.61031426E-02  4.85249683E-07 -3.17138265E-07  3.06889597E-07
 -2.81962601E-07  3.00739986E-07 -2.20449320E-07 -4.19345639E-07  3.50659083E-07
 -2.60860821E-07  2.74766085E-07 -2.53444449E-07  2.03990306E-07  2.28837477E-08
  2.79401523E-07  1.13529906E-07 -1.74073300E-07  6.09333250E-02 -1.38783205E-07
  1.05150522E-07  1.78798113E-07 -1.43803222E-01  3.46719952E-08 -1.80789360E-07
 -1.15025084E-07 -4.56182222E-02  2.15918403E-07  1.23615578E-07  5.42570004E-08
 -1.13384900E-07  3.89494820E-02 -1.29433138E-01 -1.01461071E-08 -8.88271493E-08
 -8.25877299E-09 -2.52692971E-08  3.63171695E-01  4.84140112E-08  4.98646577E-07
 -1.04164016E-07 -8.57079630E-01 -2.83976645E-08 -1.39973593E-07  8.48394798E-08
 -2.71884436E-01 -1.71138586E-08 -8.70117290E-08 -3.00600792E-08  3.39580766E-07
 -9.25590027E-02 -1.00032496E-01 -2.01490476E-08 -1.69656864E-07  2.17484602E-07
  2.40892631E-07 -4.24107235E-01  9.12968443E-08 -1.59399970E-07 -3.63077934E-07
  1.00088570E+00 -4.88696038E-08 -7.19379611E-08  2.02490600E-07  3.17502244E-01
 -9.70452753E-08 -9.63873774E-08 -6.38428072E-08 -4.59986341E-08 -1.32969446E-01
  3.17287833E-02  2.71746619E-08  2.35531152E-07 -1.50093966E-07  1.64047843E-07
  6.09333250E-02 -1.07295988E-07 -3.19965549E-08 -1.50750356E-07 -1.43803222E-01
  4.18306000E-08  1.90716529E-07  1.18213404E-07 -4.56182222E-02  1.91844318E-07
  7.98212247E-08  8.43704166E-08 -1.08850883E-07 -3.89494820E-02  1.29433138E-01
 -1.08932115E-08 -6.21475667E-08 -1.06655080E-08 -5.27141346E-09  3.63171695E-01
  4.61813913E-08 -4.85395516E-07  9.75240664E-08 -8.57079630E-01 -3.13626436E-08
  1.42340474E-07 -1.08254582E-07 -2.71884436E-01  4.61635640E-08 -1.10252028E-07
 -4.01175040E-08  3.38436999E-07  9.25590027E-02  1.00032496E-01 -1.79757836E-08
 -1.95619680E-07 -2.50834692E-07 -2.30698307E-07 -4.24107235E-01  8.80081428E-08
  1.58323800E-07  3.76429438E-07  1.00088570E+00 -4.65303639E-08  5.33642904E-08
 -1.83198353E-07  3.17502244E-01 -1.06869379E-07 -1.29536665E-07 -4.65492022E-08
 -8.86187999E-08  1.32969446E-01 -3.17287833E-02 -4.92588131E-08  9.13885855E-08
 -4.75768168E-08  3.32293401E-08 -3.29334772E-08 -2.48820984E-09  2.21921071E-08
  1.52393503E-08 -8.97254340E-09  1.15701759E-08 -6.88894149E-08  2.10802911E-08
 -1.71042583E-07 -2.08734823E-06 -8.48852795E-07  1.30067277E-06 -4.54534264E-01
  1.03675867E-06 -7.85121608E-07 -1.33559440E-06  1.07270011E+00 -2.59279876E-07
  1.35105254E-06  8.59505104E-07  3.40283272E-01 -1.61307570E-06 -9.23349559E-07
 -4.05755501E-07  8.47635573E-07  1.30985269E-01  3.99237366E-02  7.58103731E-08
  6.63597768E-07  6.12944128E-08  1.88747161E-07  2.80038200E-01 -3.61664322E-07
 -3.72572750E-06  7.78108409E-07 -6.60889021E-01  2.12057497E-07  1.04589871E-06
 -6.33992501E-07 -2.09647304E-01  1.27545288E-07  6.50302621E-07  2.24640897E-07
 -2.53752355E-06  9.84822876E-02 -9.35332640E-02  1.50520525E-07  1.26774040E-06
 -1.62540218E-06 -1.80002138E-06  1.74496443E-01 -6.82015336E-07  1.19125603E-06
  2.71294809E-06 -4.11812006E-01  3.64965875E-07  5.37233618E-07 -1.51281973E-06
 -1.30635367E-01  7.25300223E-07  7.20191946E-07  4.76857933E-07  3.43997420E-07
 -3.01766772E-02 -1.31995880E-01 -2.03052178E-07 -1.76009665E-06  1.12161072E-06
 -1.22588862E-06 -4.54534264E-01  8.01880790E-07  2.39432434E-07  1.12636596E-06
  1.07270011E+00 -3.12687026E-07 -1.42512805E-06 -8.83295636E-07  3.40283272E-01
 -1.43350155E-06 -5.96658670E-07 -6.30392939E-07  8.13817685E-07 -1.30985269E-01
 -3.99237366E-02  8.13835016E-08  4.64571716E-07  7.98941307E-08  3.90804974E-08
  2.80038200E-01 -3.45008912E-07  3.62689114E-06 -7.28572643E-07 -6.60889021E-01
  2.34176125E-07 -1.06356370E-06  8.08669755E-07 -2.09647304E-01 -3.44502232E-07
  8.23680556E-07  2.99666258E-07 -2.52901021E-06 -9.84822876E-02  9.35332640E-02
  1.34310079E-07  1.46142864E-06  1.87419455E-06  1.72398530E-06  1.74496443E-01
 -6.57494142E-07 -1.18320457E-06 -2.81255648E-06 -4.11812006E-01  3.47518325E-07
 -3.98689034E-07  1.36890559E-06 -1.30635367E-01  7.98600369E-07  9.67474712E-07
  3.47857926E-07  6.61952795E-07  3.01766772E-02  1.31995880E-01  3.66709543E-07
 -6.81649015E-07  3.55127319E-07 -2.48007996E-07  2.46117687E-07  1.85956075E-08
 -1.66307490E-07 -1.13574637E-07  6.71361700E-08 -8.64270502E-08  5.14373468E-07
 -1.57246085E-07  3.96497677E-02  3.64155746E-01  2.29460362E-01 -2.51450751E-01
 -2.36164477E-06 -1.74220413E-01  8.71134846E-02  2.11736958E-01  5.61781791E-06
  7.55300301E-02 -2.85500744E-01 -1.70703003E-01  1.73699198E-06  2.82153650E-01
  1.41808710E-01  1.19443390E-01 -2.14175945E-01  5.85528624E-07  2.66490426E-07
 -1.45055708E-02 -1.14506286E-01  3.84129379E-02 -2.87540331E-02  1.16190554E-06
  5.98891089E-02  7.01262547E-01 -1.26742215E-01 -2.75199600E-06 -2.56841711E-02
 -2.04664193E-01  1.32118279E-01 -9.03862970E-07  1.43310237E-02 -1.43966519E-01
 -4.72012721E-02  5.12316057E-01  5.70305136E-07 -4.01862774E-07 -2.52274884E-02
 -2.52392641E-01  3.56525867E-01  3.57866123E-01  1.19476542E-06  1.13887414E-01
 -2.54659110E-01 -5.29049703E-01 -2.82232841E-06 -4.83456640E-02 -7.02885076E-02
  2.70427715E-01 -8.72424220E-07 -1.61634509E-01 -1.36526836E-01 -7.18229446E-02
 -1.02238251E-01 -5.78156062E-08 -6.94574608E-07  3.96497677E-02  3.64155746E-01
 -2.29460362E-01  2.51450751E-01 -2.34365829E-06 -1.74220413E-01 -8.71134846E-02
 -2.11736958E-01  5.56067526E-06  7.55300301E-02  2.85500744E-01  1.70703003E-01
  1.80698506E-06  2.82153650E-01  1.41808710E-01  1.19443390E-01 -2.14175945E-01
 -6.43386198E-07 -2.92839338E-07 -1.45055708E-02 -1.14506286E-01 -3.84129379E-02
  2.87540331E-02  1.19568566E-06  5.98891089E-02 -7.01262547E-01  1.26742215E-01
 -2.82450109E-06 -2.56841711E-02  2.04664193E-01 -1.32118279E-01 -8.73109220E-07
  1.43310237E-02 -1.43966519E-01 -4.72012721E-02  5.12316057E-01 -5.61739160E-07
  4.12593886E-07 -2.52274884E-02 -2.52392641E-01 -3.56525867E-01 -3.57866123E-01
  1.16098582E-06  1.13887414E-01  2.54659110E-01  5.29049703E-01 -2.74982441E-06
 -4.83456640E-02  7.02885076E-02 -2.70427715E-01 -9.03176744E-07 -1.61634509E-01
 -1.36526836E-01 -7.18229446E-02 -1.02238251E-01  7.15340283E-08  6.93992332E-07
  8.88104740E-02 -1.24907468E-02 -2.51630323E-02  1.41787773E-02 -5.42659213E-02
 -2.46330894E-03  8.88104740E-02 -1.24907468E-02 -2.51630323E-02  1.41787773E-02
 -5.42659213E-02 -2.46330894E-03 -2.18434986E-02 -2.47521843E-01 -1.31908170E-01
  1.45976920E-01 -3.76250732E-08  2.11632808E-01 -4.37987816E-01  8.27668829E-02
 -6.73019421E-08 -4.72042282E-02  2.58418950E-01  2.18288487E-02  1.43346974E-07
 -1.94728496E-01 -9.76994345E-02 -6.03176339E-02  3.54183194E-01  2.42258100E-07
  1.10326296E-07  7.51346893E-03  1.16363253E-01 -2.75614921E-01  7.51357632E-02
  3.88453243E-08 -8.34790172E-02 -3.21363294E-01  1.60177745E-01 -9.48812401E-08
  1.12424440E-02  1.27467440E-01 -8.27145465E-02  9.95230015E-08  1.34259007E-01
  8.42712433E-03  1.52798102E-02 -4.04044149E-01 -1.05534992E-08 -3.25074449E-08
  3.94303792E-02  2.32535004E-01 -3.17853417E-02 -7.93211112E-02 -3.23934833E-08
 -2.88062651E-01 -4.23304183E-01  1.92386487E-01  7.05384283E-08  7.68048290E-02
  3.48200391E-01 -2.08115169E-01 -5.70301887E-08  1.90264860E-01  4.11524026E-02
  1.50289817E-01  1.31299460E-01 -1.39142462E-08 -7.39887480E-09  2.18434986E-02
  2.47521843E-01 -1.31908170E-01  1.45976920E-01 -5.96335032E-08 -2.11632808E-01
 -4.37987816E-01  8.27668829E-02  9.17341463E-08  4.72042282E-02  2.58418950E-01
  2.18288487E-02 -1.66166951E-07  1.94728496E-01  9.76994345E-02  6.03176339E-02
 -3.54183194E-01  3.13406977E-09  1.42770467E-09 -7.51346894E-03 -1.16363253E-01
 -2.75614921E-01  7.51357632E-02 -3.23920940E-08  8.34790172E-02 -3.21363294E-01
  1.60177745E-01  7.05344918E-08 -1.12424440E-02  1.27467440E-01 -8.27145465E-02
 -5.70341183E-08 -1.34259007E-01 -8.42712433E-03 -1.52798102E-02  4.04044149E-01
 -1.47152508E-08 -5.63889764E-09 -3.94303792E-02 -2.32535004E-01 -3.17853417E-02
 -7.93211112E-02  3.88423477E-08  2.88062651E-01 -4.23304183E-01  1.92386487E-01
 -9.48734456E-08 -7.68048290E-02  3.48200391E-01 -2.08115169E-01  9.95226434E-08
 -1.90264860E-01 -4.11524026E-02 -1.50289817E-01 -1.31299460E-01 -3.14502991E-08
  1.33768745E-08 -4.48031794E-01  3.43995730E-01  1.97906718E-01 -1.35460635E-01
  4.65881177E-01 -3.89140637E-01  4.48031794E-01 -3.43995730E-01 -1.97906718E-01
  1.35460635E-01 -4.65881177E-01  3.89140637E-01 -7.57928795E-03 -9.25306817E-02
  4.14574291E-02 -1.84748903E-01 -4.46683445E-08  3.47759226E-02 -3.36678371E-01
  7.19547843E-01  1.13355009E-07 -1.01396025E-02  1.39332701E-01 -1.76527700E-01
  3.07788234E-08 -2.95666711E-01  1.84786498E-01 -1.78461919E-02  2.34117986E-01
  3.80884111E-09  1.73435238E-09  3.19512820E-02  4.25976971E-01 -5.40177327E-02
  1.83156548E-01  1.93994777E-08 -1.75718662E-01  2.82499556E-01  1.53633234E-01
 -4.74721000E-08  7.76312983E-02 -1.00128769E-01 -3.30673599E-01 -1.88099517E-08
  4.64565080E-01  4.69659851E-02  7.29610036E-02  5.92890236E-02  1.14722037E-08
 -6.74950747E-09 -2.50122915E-02 -3.61905119E-01  4.33205456E-02 -2.21072225E-01
  2.47569547E-08  1.35022849E-01  3.79477633E-01  3.79454159E-01 -5.96029933E-08
 -5.13217062E-02 -2.83401631E-01  1.73533038E-02 -1.61109338E-08 -3.60230274E-01
 -7.93419925E-02 -5.02502519E-02 -2.09052579E-01 -3.28284693E-10 -1.33426835E-08
 -7.57928795E-03 -9.25306817E-02 -4.14574291E-02  1.84748903E-01 -4.31697989E-08
  3.47759226E-02  3.36678371E-01 -7.19547843E-01  1.06865870E-07 -1.01396025E-02
 -1.39332701E-01  1.76527700E-01  3.82152169E-08 -2.95666711E-01  1.84786498E-01
 -1.78461919E-02  2.34117986E-01 -1.25646721E-08 -5.72185294E-09  3.19512820E-02
  4.25976971E-01  5.40177327E-02 -1.83156548E-01  2.47588737E-08 -1.75718662E-01
 -2.82499556E-01 -1.53633234E-01 -5.96075524E-08  7.76312983E-02  1.00128769E-01
  3.30673599E-01 -1.61122486E-08  4.64565080E-01  4.69659851E-02  7.29610035E-02
  5.92890236E-02 -1.02804782E-08  8.51162169E-09 -2.50122915E-02 -3.61905119E-01
 -4.33205456E-02  2.21072225E-01  1.93975838E-08  1.35022849E-01 -3.79477633E-01
 -3.79454159E-01 -4.74676146E-08 -5.13217062E-02  2.83401631E-01 -1.73533038E-02
 -1.88085460E-08 -3.60230274E-01 -7.93419925E-02 -5.02502519E-02 -2.09052579E-01
  2.43988646E-09  1.30849736E-08  1.23421966E-02  2.76418347E-03  1.31400595E-01
  6.08675664E-03 -4.57792081E-02 -1.84757370E-02  1.23421966E-02  2.76418346E-03
  1.31400595E-01  6.08675664E-03 -4.57792081E-02 -1.84757370E-02  2.94693873E-02
 -3.56260262E-02 -1.66521324E-01  5.84609079E-02  1.18895249E-07 -1.30666380E-01
  1.13806528E-01  2.16801698E-01 -2.95033456E-07  6.07195906E-02 -2.72007214E-01
 -1.63481124E-01 -9.89886958E-08  3.16353822E-02 -1.41436079E-01  1.51865213E-01
  3.26789496E-01 -3.30169507E-08 -1.50360115E-08  6.62611406E-03  3.83805200E-01
  1.67436861E-01  2.29238841E-01 -4.60079114E-08 -1.90142812E-01  8.14309017E-02
  2.80272275E-01  1.18765566E-07  6.58149690E-03 -5.09004935E-02 -8.80845584E-02
  3.12905708E-08  7.87873648E-01 -2.99392553E-01 -3.43747874E-02  4.63403604E-02
 -2.89830430E-08  2.03077435E-08  2.41426344E-02 -1.71107449E-01  2.90688396E-01
  1.10657898E-01 -6.36226759E-08 -3.51187644E-02  1.62922512E-01  1.44028298E-01
  1.59674332E-07  2.45384161E-02  9.44115901E-02 -1.49198955E-01  5.08802783E-08
 -2.85382257E-01  5.59646048E-03  1.51014575E-01 -4.86647362E-01  6.10731103E-10
  3.56854334E-08 -2.94693873E-02  3.56260262E-02 -1.66521324E-01  5.84609079E-02
  1.15856245E-07  1.30666380E-01  1.13806528E-01  2.16801698E-01 -2.93957637E-07
 -6.07195906E-02 -2.72007214E-01 -1.63481124E-01 -7.47563851E-08 -3.16353822E-02
  1.41436079E-01 -1.51865213E-01 -3.26789496E-01  3.23001317E-08  1.47096293E-08
 -6.62611406E-03 -3.83805200E-01  1.67436861E-01  2.29238841E-01 -6.36253376E-08
  1.90142812E-01  8.14309017E-02  2.80272275E-01  1.59680859E-07 -6.58149690E-03
 -5.09004935E-02 -8.80845584E-02  5.08823216E-08 -7.87873648E-01  2.99392553E-01
  3.43747874E-02 -4.63403604E-02  2.73204914E-08 -2.29655814E-08 -2.41426344E-02
  1.71107449E-01  2.90688396E-01  1.10657898E-01 -4.60050911E-08  3.51187644E-02
  1.62922512E-01  1.44028298E-01  1.18758686E-07 -2.45384161E-02  9.44115901E-02
 -1.49198955E-01  3.12888622E-08  2.85382257E-01 -5.59646048E-03 -1.51014575E-01
  4.86647362E-01 -3.70705350E-09 -3.51947852E-08  2.52717629E-02 -9.75867051E-02
  5.71358612E-01 -3.46755102E-01 -2.23330269E-01  1.17061204E-01 -2.52717629E-02
  9.75867051E-02 -5.71358612E-01  3.46755102E-01  2.23330269E-01 -1.17061204E-01
 -4.38143000E-03 -2.54921424E-01  7.37608173E-02 -5.49591676E-01  8.05867022E-08
  6.66046802E-02 -1.96026799E-02 -3.36249509E-02 -2.34022743E-07 -2.35327756E-02
  1.03796711E-01  5.57386227E-02 -6.35833224E-08  3.19967467E-01 -6.26507409E-01
  2.25615203E-02 -2.07668539E-01  1.31491815E-08  5.98839492E-09  1.66392584E-03
  9.66658690E-02  5.43008023E-01  8.76203377E-03 -2.64473072E-08 -2.52692265E-02
 -3.41181377E-01  4.50676571E-02  7.01054930E-08  8.93000679E-03  4.65661437E-02
 -4.92994070E-02  3.21387949E-08  1.78014996E-01 -6.17818635E-02 -8.54159140E-03
  3.10015007E-01 -2.36482647E-08  1.02416230E-08  2.71749446E-03  1.58260416E-01
  2.23911321E-01  4.85458230E-01 -5.41557936E-08 -4.13400678E-02  1.27046492E-01
  2.11927612E-01  1.40336741E-07  1.46064705E-02  3.40178185E-02 -7.79394302E-02
  3.59879221E-08 -4.98386464E-01  6.88699000E-01 -1.40210826E-02 -1.02922318E-01
 -2.39421255E-09  2.72164255E-08 -4.38143000E-03 -2.54921424E-01 -7.37608173E-02
  5.49591676E-01  8.37909341E-08  6.66046802E-02  1.96026799E-02  3.36249509E-02
 -2.25961192E-07 -2.35327756E-02 -1.03796711E-01 -5.57386227E-02 -7.34140843E-08
  3.19967467E-01 -6.26507409E-01  2.25615203E-02 -2.07668539E-01  2.57573735E-08
  1.17301388E-08  1.66392584E-03  9.66658690E-02 -5.43008023E-01 -8.76203377E-03
 -5.41573577E-08 -2.52692265E-02  3.41181377E-01 -4.50676571E-02  1.40340650E-07
  8.93000679E-03 -4.65661437E-02  4.92994070E-02  3.59889969E-08  1.78014996E-01
 -6.17818635E-02 -8.54159140E-03  3.10015007E-01  1.89592929E-08 -1.96726638E-08
  2.71749446E-03  1.58260416E-01 -2.23911321E-01 -4.85458230E-01 -2.64456186E-08
 -4.13400678E-02 -1.27046492E-01 -2.11927612E-01  7.01014651E-08  1.46064705E-02
 -3.40178185E-02  7.79394302E-02  3.21377744E-08 -4.98386464E-01  6.88699000E-01
 -1.40210826E-02 -1.02922318E-01 -7.79837003E-09 -2.45627003E-08 -4.48054850E-02
 -5.30457219E-02  1.69973503E-02  2.00838968E-02  2.77995817E-02  3.29574993E-02
 -4.48054850E-02 -5.30457219E-02  1.69973503E-02  2.00838968E-02  2.77995817E-02
  3.29574993E-02 -7.57196928E-03  2.86178456E-01  3.86857298E-02  3.99690156E-01
 -1.08533189E-10 -9.33419199E-02  1.68117384E-01  1.70265193E-01  1.77342469E-07
  6.12933355E-03  6.81327991E-03 -8.55722120E-02 -3.89568200E-08 -3.40535753E-01
  7.18011720E-01 -8.55738551E-02 -1.03567482E-01 -2.13727036E-07 -9.73335028E-08
  1.72272446E-02  4.42404089E-02  2.49125756E-02 -4.55259705E-02 -4.49664749E-09
 -1.22559563E-01  6.02020571E-02  3.04280767E-01  1.94166708E-08  7.05614956E-02
 -3.67221547E-02 -3.09743752E-01 -9.15591818E-08 -1.53751633E-01  1.78158202E-01
  7.64197442E-02  6.53264832E-02  2.24849428E-08  2.01995569E-08 -1.43488387E-02
  2.38816643E-01  7.09034719E-02  4.05450733E-01  5.52042480E-08 -4.47221284E-02
 -8.23958780E-02  2.07792489E-01 -1.45303980E-07  2.43236880E-03 -6.35379221E-02
 -5.08839578E-02  3.66789816E-09 -3.06901006E-01  6.39892771E-01 -1.11741970E-01
  2.67930039E-01  1.15295270E-08 -1.56408844E-08  7.57196928E-03 -2.86178456E-01
  3.86857298E-02  3.99690156E-01 -3.22456373E-08  9.33419199E-02  1.68117384E-01
  1.70265193E-01  1.20836998E-07 -6.12933355E-03  6.81327991E-03 -8.55722120E-02
  1.61382820E-07  3.40535753E-01 -7.18011720E-01  8.55738551E-02  1.03567482E-01
 -2.15811783E-08 -9.82843025E-09 -1.72272446E-02 -4.42404089E-02  2.49125756E-02
 -4.55259705E-02  5.52049994E-08  1.22559563E-01  6.02020571E-02  3.04280767E-01
 -1.45305783E-07 -7.05614956E-02 -3.67221547E-02 -3.09743752E-01  3.66827511E-09
  1.53751633E-01 -1.78158202E-01 -7.64197442E-02 -6.53264832E-02 -4.23015330E-09
  1.89650634E-08  1.43488387E-02 -2.38816643E-01  7.09034719E-02  4.05450733E-01
 -4.49738471E-09  4.47221284E-02 -8.23958780E-02  2.07792489E-01  1.94173555E-08
 -2.43236880E-03 -6.35379221E-02 -5.08839578E-02 -9.15581659E-08  3.06901006E-01
 -6.39892771E-01  1.11741970E-01 -2.67930039E-01  2.99988099E-08  3.70302484E-09
  4.19544077E-01 -2.66163328E-01  1.69690588E-01 -2.19883707E-01  3.53421721E-01
 -2.28031357E-01 -4.19544077E-01  2.66163328E-01 -1.69690588E-01  2.19883707E-01
 -3.53421721E-01  2.28031357E-01 -6.27314586E-02 -2.55674471E-01 -7.87678102E-02
 -3.61732309E-02 -1.56928529E-07  5.55198594E-01  1.24545550E-01  6.22835234E-02
  3.72942668E-07 -4.21758775E-01  1.49864477E-02  8.95756717E-03  1.58928531E-07
 -1.34420780E-01 -1.03998568E-01 -1.94763339E-01 -1.56893744E-02  1.11833665E-07
  5.09299470E-08 -6.29131516E-02 -2.52037132E-01 -8.16664230E-03 -8.34946466E-02
  9.06365094E-09  5.55234933E-01  1.50200842E-02  1.35501666E-01 -4.06973564E-08
 -4.21965085E-01  2.42476664E-03  1.73196883E-02  5.09428410E-08 -9.49052085E-02
 -1.40044847E-01 -1.96083910E-01 -3.93983754E-03  3.65566089E-08 -2.77432191E-08
 -6.26185673E-02 -2.57890365E-01  7.18435664E-02 -5.14750218E-02  1.04819684E-07
  5.55163076E-01 -1.12900796E-01  8.44258635E-02 -3.19831962E-07 -4.21625803E-01
 -1.33515018E-02  1.09926147E-02 -9.22826688E-08 -1.27839696E-01 -1.12694922E-01
 -1.93948076E-01  1.97764862E-02  1.03340660E-08 -5.18032563E-08 -6.27314586E-02
 -2.55674471E-01  7.87678102E-02  3.61732309E-02 -1.56389949E-07  5.55198594E-01
 -1.24545550E-01 -6.22835234E-02  4.88782705E-07 -4.21758775E-01 -1.49864477E-02
 -8.95756717E-03  7.00092583E-10 -1.34420780E-01 -1.03998568E-01 -1.94763339E-01
 -1.56893744E-02 -4.57150753E-08 -2.08191963E-08 -6.29131516E-02 -2.52037132E-01
  8.16664230E-03  8.34946466E-02  1.04821372E-07  5.55234933E-01 -1.50200842E-02
 -1.35501666E-01 -3.19836719E-07 -4.21965085E-01 -2.42476664E-03 -1.73196883E-02
 -9.22841730E-08 -9.49052085E-02 -1.40044847E-01 -1.96083910E-01 -3.93983754E-03
 -3.22948588E-08  4.18022442E-08 -6.26185673E-02 -2.57890365E-01 -7.18435664E-02
  5.14750218E-02  9.06176294E-09  5.55163076E-01  1.12900796E-01 -8.44258635E-02
 -4.06913023E-08 -4.21625803E-01  1.33515018E-02 -1.09926147E-02  5.09431282E-08
 -1.27839696E-01 -1.12694922E-01 -1.93948076E-01  1.97764862E-02  3.06900604E-09
  4.57884239E-08 -2.81101534E-01  6.28495177E-01 -2.83982368E-01  6.33966090E-01
 -2.79291960E-01  6.25083897E-01 -2.81101534E-01  6.28495177E-01 -2.83982368E-01
  6.33966090E-01 -2.79291960E-01  6.25083897E-01  8.82337809E-02  5.02827365E-01
  2.19801393E-01  1.43047010E-01 -1.07520930E-07 -5.13372254E-01 -4.64900140E-01
 -4.09120069E-01  1.52437930E-07 -1.51265968E-01 -2.56669561E-01 -2.17692856E-01
  8.03266907E-08  2.79446935E-01  7.82809301E-02  3.62171147E-01  5.57256893E-02
  1.84051362E-07  8.38188677E-08  2.13962388E-02  1.28445974E-01 -1.07366795E-01
  7.78813492E-02  1.51202746E-08 -1.27022593E-01  5.99682753E-01 -2.02474270E-01
 -6.51260127E-08 -3.73694786E-02  2.71629701E-01 -1.05593358E-01  6.58979338E-08
  5.78146141E-02  3.48118850E-02  8.71096846E-02  1.67376454E-01  8.71007589E-09
 -2.90837534E-08 -6.61448092E-02 -3.82110854E-01  1.13282303E-01 -1.80516246E-01
  2.45911475E-08  3.86309648E-01 -1.09174659E-01  6.18299987E-01 -6.74047999E-08
  1.14788627E-01 -7.23660642E-02  3.12422741E-01 -3.41984968E-08 -2.66026437E-01
 -6.84048326E-03 -2.70895088E-01  3.33367778E-02 -3.11814504E-09 -1.66841263E-08
 -8.82337809E-02 -5.02827365E-01  2.19801393E-01  1.43047010E-01 -5.22671966E-08
  5.13372254E-01 -4.64900140E-01 -4.09120069E-01  1.50882995E-07  1.51265968E-01
 -2.56669561E-01 -2.17692856E-01 -7.51611790E-08 -2.79446935E-01 -7.82809301E-02
 -3.62171147E-01 -5.57256893E-02 -1.04097648E-08 -4.74063675E-09 -2.13962388E-02
 -1.28445974E-01 -1.07366795E-01  7.78813492E-02  2.45918394E-08  1.27022593E-01
  5.99682753E-01 -2.02474270E-01 -6.74067113E-08  3.73694786E-02  2.71629701E-01
 -1.05593358E-01 -3.41991152E-08 -5.78146141E-02 -3.48118850E-02 -8.71096846E-02
 -1.67376454E-01 -1.46329697E-08  8.60021574E-09  6.61448092E-02  3.82110854E-01
  1.13282303E-01 -1.80516246E-01  1.51198230E-08 -3.86309648E-01 -1.09174659E-01
  6.18299987E-01 -6.51235236E-08 -1.14788627E-01 -7.23660642E-02  3.12422741E-01
  6.58979689E-08  2.66026437E-01  6.84048326E-03  2.70895088E-01 -3.33367778E-02
 -1.62224809E-08  2.56617264E-08 -3.94059229E-01  4.62912450E-01 -9.10111373E-02
  1.10719755E-01  2.95136838E-01 -3.49512985E-01  3.94059229E-01 -4.62912450E-01
  9.10111373E-02 -1.10719755E-01 -2.95136838E-01  3.49512985E-01  2.40931458E-02
  1.70450940E-01  1.26125101E-01 -5.68445002E-02 -2.88755828E-08 -1.52121968E-01
 -4.06111390E-01  4.82753988E-01  4.88289500E-08 -4.63751165E-02 -1.95442311E-01
  2.20877819E-01  2.38142454E-08 -6.42304934E-02  1.91756695E-01  9.51796770E-02
  1.06802311E-01  4.12781224E-08  1.87984631E-08  9.03483539E-02  4.97459037E-01
  5.40165600E-02  2.51605846E-01  2.88737934E-09 -5.20730070E-01 -2.05270910E-01
 -5.79030411E-01 -1.31122000E-08 -1.50657759E-01 -1.03340763E-01 -3.31418671E-01
  1.60409121E-08  3.52946482E-02  3.14910639E-01  3.72859868E-01 -1.07371417E-02
  3.67697451E-09 -6.95436057E-09  6.12279631E-02  3.83071367E-01 -2.06789844E-01
  5.50089677E-02  1.07877123E-08 -3.68293839E-01  6.09983348E-01  1.29143453E-01
 -3.19895628E-08 -1.10738877E-01  3.05060017E-01  4.61503444E-02 -1.17087405E-08
  3.23270511E-02  2.46549692E-01  2.47460666E-01 -7.87249285E-02  1.23253591E-10
 -6.10323175E-09 -2.40931458E-02 -1.70450940E-01  1.26125101E-01 -5.68445002E-02
 -1.87349281E-08  1.52121968E-01 -4.06111390E-01  4.82753988E-01  5.70236889E-08
  4.63751165E-02 -1.95442311E-01  2.20877819E-01 -1.47967421E-08  6.42304934E-02
 -1.91756695E-01 -9.51796770E-02 -1.06802311E-01 -4.60221753E-09 -2.09588913E-09
 -9.03483539E-02 -4.97459037E-01  5.40165600E-02  2.51605846E-01  1.07879340E-08
  5.20730070E-01 -2.05270910E-01 -5.79030411E-01 -3.19901823E-08  1.50657759E-01
 -1.03340763E-01 -3.31418671E-01 -1.17089371E-08 -3.52946482E-02 -3.14910639E-01
 -3.72859868E-01  1.07371417E-02 -4.52318762E-09  4.09948874E-09 -6.12279631E-02
 -3.83071367E-01 -2.06789844E-01  5.50089677E-02  2.88719270E-09  3.68293839E-01
  6.09983348E-01  1.29143453E-01 -1.31113931E-08  1.10738877E-01  3.05060017E-01
  4.61503444E-02  1.60409256E-08 -3.23270511E-02 -2.46549692E-01 -2.47460666E-01
  7.87249285E-02 -2.83246469E-09  7.33876524E-09 -9.16413697E-02  1.25732798E-01
 -4.09379018E-01  4.68299122E-01 -2.60481889E-01  3.23240531E-01  9.16413697E-02
 -1.25732798E-01  4.09379018E-01 -4.68299122E-01  2.60481889E-01 -3.23240531E-01
  1.39378718E-02  1.29123437E-02 -1.08635903E-01  1.29652361E-01  1.58539246E-07
 -1.11789842E-01  5.25351054E-01 -7.21526384E-02 -2.36109573E-07  5.31394679E-02
 -2.72749680E-02 -3.44317276E-01 -1.17693475E-07 -6.27995563E-02  6.10814204E-02
  7.20192138E-02 -1.09573069E-01 -2.60682363E-07 -1.18717386E-07  3.74927267E-03
  1.59685701E-03  2.07192630E-01 -3.35149367E-02 -1.85989755E-08 -2.95964959E-02
 -3.97170243E-01  1.64049781E-01  8.47218127E-08  1.39157881E-02 -4.45090199E-01
 -3.64403844E-03 -9.88000650E-08  2.00386686E-02 -2.22231051E-02  1.97974648E-02
 -6.53735033E-02 -1.47237737E-08  4.13347987E-08 -1.82200608E-02 -1.85209966E-02
 -9.43954889E-02 -3.37522120E-02 -4.33421675E-08  1.46105407E-01  5.39469264E-01
 -2.23407632E-01  1.24063367E-07 -7.01587440E-02 -9.13492132E-02  2.37988535E-01
  5.29274072E-08  4.56307098E-02 -4.52716200E-02 -9.32205786E-02 -1.52384939E-01
  2.68620879E-09  2.69582838E-08  1.39378718E-02  1.29123437E-02  1.08635903E-01
 -1.29652361E-01  8.31886892E-08 -1.11789842E-01 -5.25351054E-01  7.21526384E-02
 -2.48545531E-07  5.31394679E-02  2.72749680E-02  3.44317276E-01  1.07106156E-07
 -6.27995563E-02  6.10814204E-02  7.20192138E-02 -1.09573069E-01  1.80735939E-08
  8.23081011E-09  3.74927267E-03  1.59685701E-03 -2.07192630E-01  3.35149367E-02
 -4.33432150E-08 -2.95964959E-02  3.97170243E-01 -1.64049781E-01  1.24066295E-07
  1.39157881E-02  4.45090199E-01  3.64403844E-03  5.29283120E-08  2.00386686E-02
 -2.22231051E-02  1.97974648E-02 -6.53735033E-02  2.20999552E-08 -1.56705948E-08
 -1.82200608E-02 -1.85209966E-02  9.43954889E-02  3.37522120E-02 -1.85982539E-08
  1.46105407E-01 -5.39469264E-01  2.23407632E-01  8.47179963E-08 -7.01587440E-02
  9.13492132E-02 -2.37988535E-01 -9.88000923E-08  4.56307098E-02 -4.52716200E-02
 -9.32205786E-02 -1.52384939E-01  2.15167255E-08 -3.82400675E-08  5.68924861E-01
 -7.01809322E-01  1.57852825E-01 -1.93304594E-01 -7.24903140E-01  9.00116567E-01
  5.68924861E-01 -7.01809322E-01  1.57852825E-01 -1.93304594E-01 -7.24903140E-01
  9.00116567E-01  1.25155939E-02  1.14414338E-02  3.27331934E-02 -1.68643991E-01
  1.41509179E-07 -1.01567309E-01  2.27387571E-01  4.54147187E-01 -2.10376236E-07
  4.91205423E-02 -2.70064754E-01  2.42877076E-01 -1.04101969E-07 -1.08078617E-01
  1.06616917E-01  6.43257530E-02 -5.89782512E-02 -2.33259139E-07 -1.06228572E-07
 -1.77256542E-02 -1.05985957E-02  4.58691166E-02  5.70299368E-02 -1.62434148E-08
  1.42921270E-01 -1.42460589E-01 -5.73661870E-01  7.47717421E-08 -6.82454236E-02
 -7.12098629E-02  2.21922216E-01 -8.91121808E-08 -1.61341037E-01  1.68850719E-01
 -9.28415740E-02  1.54813564E-02 -1.30755689E-08  3.68659435E-08  5.98728732E-03
  5.24180253E-03 -1.19568372E-01 -2.00299416E-01 -3.87296783E-08 -4.82647744E-02
  8.85723742E-02  4.38624684E-01  1.11129874E-07  2.36129716E-02  3.01402462E-01
  3.07256298E-01  4.68918901E-08 -5.44998482E-02  5.37903129E-02  3.05346388E-02
  3.82875899E-02  2.32977278E-09  2.40009104E-08  1.25155939E-02  1.14414338E-02
 -3.27331934E-02  1.68643991E-01  7.39373616E-08 -1.01567309E-01 -2.27387571E-01
 -4.54147187E-01 -2.21663467E-07  4.91205423E-02  2.70064754E-01 -2.42877076E-01
  9.66974902E-08 -1.08078617E-01  1.06616917E-01  6.43257530E-02 -5.89782512E-02
  1.60840924E-08  7.32478052E-09 -1.77256542E-02 -1.05985957E-02 -4.58691166E-02
 -5.70299368E-02 -3.87306063E-08  1.42921270E-01  1.42460589E-01  5.73661870E-01
  1.11132472E-07 -6.82454236E-02  7.12098629E-02 -2.21922216E-01  4.68926871E-08
 -1.61341037E-01  1.68850719E-01 -9.28415740E-02  1.54813564E-02  1.96350131E-08
 -1.39980862E-08  5.98728732E-03  5.24180253E-03  1.19568372E-01  2.00299416E-01
 -1.62427816E-08 -4.82647744E-02 -8.85723742E-02 -4.38624684E-01  7.47683521E-08
  2.36129716E-02 -3.01402462E-01 -3.07256298E-01 -8.91121989E-08 -5.44998482E-02
  5.37903129E-02  3.05346388E-02  3.82875899E-02  1.92274779E-08 -3.40632712E-08
  5.10165136E-01 -6.29901727E-01 -7.50183454E-01  9.17418197E-01  2.36811065E-01
 -2.94788273E-01  5.10165136E-01 -6.29901727E-01 -7.50183454E-01  9.17418197E-01
  2.36811065E-01 -2.94788273E-01  9.61384506E-05  4.47994774E-03 -9.58091020E-02
  2.14791952E-01 -9.19254832E-10 -2.42007391E-03  1.92960629E-01 -4.28132748E-01
  2.70314469E-09 -8.63525213E-04 -5.02415771E-01  1.09761486E+00  1.97720015E-10
  4.97792145E-02 -4.78216456E-02  2.08513160E-04 -4.63693703E-02  1.14674341E-09
  5.22241880E-10  3.57473525E-05  1.76611021E-03  2.35736058E-01 -2.20130633E-02
  6.50220523E-10 -9.51247189E-04 -4.65805862E-01  4.42677378E-02 -2.89370806E-09
 -3.27934770E-04  1.20315460E+00 -1.17084211E-01  6.34405331E-11 -1.14119836E-02
  1.21802209E-02  7.32708118E-05 -6.61282760E-02 -5.28827968E-11 -3.82920135E-10
 -6.08161122E-05 -2.70747533E-03 -1.35041690E-01 -1.91085119E-01 -6.44838502E-10
  1.46764084E-03  2.72472582E-01  3.83745605E-01  2.86315039E-09  5.33317496E-04
 -7.01780135E-01 -9.80902140E-01  3.72240803E-10 -6.36763525E-02  6.24895252E-02
 -1.37460256E-04 -2.36586058E-02 -2.63185479E-10  1.73658914E-10 -9.61384506E-05
 -4.47994774E-03 -9.58091020E-02  2.14791952E-01  6.13479839E-10  2.42007391E-03
  1.92960629E-01 -4.28132748E-01 -2.76780914E-09  8.63525213E-04 -5.02415771E-01
  1.09761486E+00 -8.25808070E-10 -4.97792145E-02  4.78216456E-02 -2.08513160E-04
  4.63693703E-02  2.84613041E-10  1.29619513E-10 -3.57473525E-05 -1.76611021E-03
  2.35736058E-01 -2.20130633E-02 -6.44837995E-10  9.51247189E-04 -4.65805862E-01
  4.42677378E-02  2.86314642E-09  3.27934770E-04  1.20315460E+00 -1.17084211E-01
  3.72244124E-10  1.14119836E-02 -1.21802209E-02 -7.32708118E-05  6.61282760E-02
 -4.17649820E-11 -3.12533950E-10  6.08161122E-05  2.70747533E-03 -1.35041690E-01
 -1.91085119E-01  6.50223928E-10 -1.46764084E-03  2.72472582E-01  3.83745605E-01
 -2.89371134E-09 -5.33317496E-04 -7.01780135E-01 -9.80902140E-01  6.34459976E-11
  6.36763525E-02 -6.24895252E-02  1.37460256E-04  2.36586058E-02 -3.23581527E-10
  2.11471846E-10 -1.89783540E-03  1.39022759E-03 -6.74310999E-04  4.74059980E-04
  1.23026546E-03 -9.14278136E-04  1.89783540E-03 -1.39022759E-03  6.74310999E-04
 -4.74059980E-04 -1.23026546E-03  9.14278136E-04  2.55657046E-08 -2.92019450E-07
  3.58916268E-07  1.67703620E-07 -2.92948453E-01  5.59266414E-07 -1.08911588E-06
 -4.93181413E-07  1.32403067E+00 -1.22933840E-08 -2.44335306E-08 -1.25876512E-08
  1.45513848E-01 -1.13806109E-07  1.03347503E-07  1.29444828E-07 -1.27837630E-07
  1.27085816E-01  5.78776440E-02  1.04123323E-09 -4.39620052E-08 -5.72576053E-08
  1.12671054E-08  2.92947739E-01  1.37912035E-07  1.40111308E-07  1.55079139E-07
 -1.32402519E+00 -3.49347370E-08 -7.17005606E-08 -6.97944064E-08 -1.45515503E-01
 -4.81262476E-08  2.45775575E-08  1.69561481E-08  1.01770423E-08 -1.34193005E-02
 -1.38997198E-01 -3.53474530E-08 -1.60410382E-07  9.07239013E-08 -2.69933423E-08
 -2.92948128E-01  2.83494863E-07 -2.93639881E-07  2.34268759E-08  1.32402713E+00
 -8.60288246E-08 -1.03456476E-08 -9.30795323E-08  1.45513155E-01 -4.56576974E-08
 -6.62240791E-08 -1.10706122E-07  4.64563428E-08 -1.13665500E-01  8.11221911E-02
 -3.56396098E-08 -1.25171782E-07  1.09816746E-07  4.73187104E-08  2.92948453E-01
  2.84653004E-07 -2.75548216E-07 -1.24222021E-07 -1.32403067E+00 -9.15440591E-08
  1.06355365E-07  4.68831434E-08 -1.45513848E-01 -7.00277474E-08 -3.28142482E-08
 -1.17447776E-07 -2.13973881E-08  1.27085816E-01  5.78776440E-02 -3.56063355E-08
 -1.61201335E-07  4.30418320E-08  8.60173603E-08 -2.92947739E-01  2.85230937E-07
 -1.76688003E-07 -2.38563564E-07  1.32402519E+00 -8.49701454E-08 -8.29644914E-08
  5.20135992E-08  1.45515503E-01 -1.57596119E-08 -9.69809369E-08 -1.11806927E-07
  1.40209128E-08 -1.34193005E-02 -1.38997198E-01  1.28857025E-09 -5.42543899E-08
 -2.72144306E-08 -4.07034671E-08  2.92948128E-01  1.41547670E-07  2.07739557E-07
 -7.93280779E-10 -1.32402713E+00 -3.40894081E-08 -9.33873944E-08 -5.78431699E-09
 -1.45513155E-01  7.99801574E-09 -3.42866334E-08  1.83898110E-08 -3.65545834E-08
 -1.13665500E-01  8.11221911E-02  4.46690314E-07 -1.08754220E-06  6.06470850E-08
 -6.12609241E-08 -5.80849151E-09  1.75338284E-07 -9.42190935E-08  4.24657063E-07
 -3.89430587E-09  1.75006703E-07  6.19757105E-08 -6.28950603E-08  2.19565114E-02
  3.13302638E-01 -1.03824424E-01 -4.70634692E-02  1.41881818E-08 -3.93098198E-01
  6.93006335E-01  3.15456349E-01  1.93563856E-07  2.65081645E-01 -1.25907487E+00
 -5.73001859E-01  1.44147042E-07 -2.66139903E-02  7.78773821E-03  7.54748654E-02
 -2.14667248E-02 -1.30459286E-07 -5.94124764E-08 -2.21582359E-02 -3.11262967E-01
  1.09066534E-02  1.13707369E-01  2.70406419E-08  3.92818045E-01 -7.31275878E-02
 -7.57961036E-01 -1.42153666E-07 -2.65295797E-01  1.32746468E-01  1.37642207E+00
 -1.18406847E-07 -1.64243604E-02  3.41452068E-02 -7.62115265E-02  5.35505949E-03
  3.08320886E-09 -4.23267031E-09  2.18354321E-02  3.14511028E-01  9.27564324E-02
 -6.60411422E-02 -2.98762887E-08 -3.93266890E-01 -6.19811367E-01  4.42246168E-01
  1.49185437E-07  2.64947655E-01  1.12638053E+00 -8.03607966E-01 -4.08361240E-08
 -1.83532736E-02 -1.13442715E-03  7.50341702E-02  2.71935437E-02 -9.25857876E-09
  8.43935578E-09 -2.19565114E-02 -3.13302638E-01 -1.03824424E-01 -4.70634692E-02
  3.51396983E-08  3.93098198E-01  6.93006335E-01  3.15456349E-01 -1.65459912E-07
 -2.65081645E-01 -1.25907487E+00 -5.73001859E-01  1.42667678E-07  2.66139903E-02
 -7.78773821E-03 -7.54748654E-02  2.14667248E-02  1.22995312E-08  5.60148749E-09
  2.21582359E-02  3.11262967E-01  1.09066534E-02  1.13707369E-01 -2.98761658E-08
 -3.92818045E-01 -7.31275878E-02 -7.57961036E-01  1.49184739E-07  2.65295797E-01
  1.32746468E-01  1.37642207E+00 -4.08351596E-08  1.64243604E-02 -3.41452068E-02
  7.62115265E-02 -5.35505949E-03  2.88777929E-10 -1.25242103E-08 -2.18354321E-02
 -3.14511028E-01  9.27564324E-02 -6.60411422E-02  2.70402461E-08  3.93266890E-01
 -6.19811367E-01  4.42246168E-01 -1.42153405E-07 -2.64947655E-01  1.12638053E+00
 -8.03607966E-01 -1.18407229E-07  1.83532736E-02  1.13442715E-03 -7.50341702E-02
 -2.71935437E-02 -1.16887184E-09  5.10501510E-09  3.14392832E-01 -1.62389898E-01
 -3.14613705E-01  1.62616577E-01  3.14246024E-01 -1.62218678E-01 -3.14392832E-01
  1.62389898E-01  3.14613705E-01 -1.62616577E-01 -3.14246024E-01  1.62218678E-01
 -1.81694991E-01  1.47179309E+00  9.75983952E-03  4.30517417E-03 -4.86400095E-08
 -8.92909999E-02  7.43823273E-02  3.38238579E-02  2.94718716E-07 -3.38764012E-02
  4.99248494E-02  2.28174650E-02 -5.01575145E-08 -6.69071902E-01 -6.26919789E-01
 -6.39099819E-01 -2.75559867E-02 -1.86343452E-08 -8.48622007E-09 -1.82416635E-01
  1.47798203E+00  9.79348597E-04  1.06715599E-02  2.87381404E-08 -8.95995382E-02
  7.87585075E-03  8.17354443E-02 -1.61811604E-07 -3.38826362E-02  5.29279283E-03
  5.45195143E-02  5.01795759E-08 -6.18853707E-01 -6.82785484E-01 -6.41675657E-01
 -7.08658420E-03  8.38237843E-09 -1.76174021E-08 -1.81255375E-01  1.46801385E+00
 -8.69937422E-03  6.11485741E-03 -7.29557187E-09 -8.90996279E-02 -6.63319591E-02
  4.72991166E-02  6.42514224E-08 -3.38725473E-02 -4.47134580E-02  3.19659056E-02
  4.02358894E-08 -6.56621470E-01 -6.35928624E-01 -6.37530148E-01  3.42528101E-02
 -8.57924396E-09 -2.36406445E-09 -1.81694991E-01  1.47179309E+00 -9.75983952E-03
 -4.30517417E-03  2.02471358E-09 -8.92909999E-02 -7.43823273E-02 -3.38238579E-02
 -3.03353726E-08 -3.38764012E-02 -4.99248494E-02 -2.28174650E-02 -1.10443175E-07
 -6.69071902E-01 -6.26919789E-01 -6.39099819E-01 -2.75559867E-02  4.70619206E-09
  2.14337893E-09 -1.82416635E-01  1.47798203E+00 -9.79348598E-04 -1.06715599E-02
 -7.29526231E-09 -8.95995382E-02 -7.87585075E-03 -8.17354443E-02  6.42501121E-08
 -3.38826362E-02 -5.29279283E-03 -5.45195143E-02  4.02373415E-08 -6.18853707E-01
 -6.82785484E-01 -6.41675657E-01 -7.08658420E-03 -7.41512668E-09 -4.91983621E-09
 -1.81255375E-01  1.46801385E+00  8.69937422E-03 -6.11485741E-03  2.87377669E-08
 -8.90996279E-02  6.63319591E-02 -4.72991166E-02 -1.61810441E-07 -3.38725473E-02
  4.47134580E-02 -3.19659056E-02  5.01784893E-08 -6.56621470E-01 -6.35928624E-01
 -6.37530148E-01  3.42528101E-02 -7.78751200E-09  1.78884166E-08  3.25768899E-02
  1.86655980E-01  3.33019064E-02  1.86832753E-01  3.21420794E-02  1.86541661E-01
  3.25768899E-02  1.86655980E-01  3.33019064E-02  1.86832753E-01  3.21420794E-02
  1.86541661E-01  2.14948054E-01 -1.49853806E+00  9.17132632E-02 -7.71638170E-02
  4.53116265E-08 -1.28253873E-01 -1.84196054E-01 -8.86233169E-02 -2.99455808E-07
 -1.56842040E-02 -7.74410640E-02 -5.70190464E-02  4.10929073E-08  8.20562855E-01
  7.11670250E-01  7.51621718E-01 -3.97876340E-02  2.91211433E-08  1.32620234E-08
 -5.25904031E-02  3.67159207E-01  1.62221716E-01 -2.83359232E-02 -2.90857820E-08
  3.11311319E-02  1.00710066E-02  4.91998724E-02  1.64560477E-07  3.80305148E-03
  3.30285541E-02  1.99650337E-02 -4.21255977E-08 -1.66323661E-01 -2.08818479E-01
 -1.83942264E-01  1.06838044E-01 -8.53493040E-09  1.70539258E-08 -2.66494928E-01
  1.85642929E+00  8.37604165E-02  7.68065461E-03  8.24597696E-09  1.59714962E-01
 -2.04850024E-01  1.49156204E-01 -6.89193540E-08  1.95880722E-02 -8.92535940E-02
  7.57744912E-02 -3.68886094E-08 -9.83555424E-01 -9.15397936E-01 -9.31732446E-01
 -1.47770245E-03  8.67176175E-09  2.01535325E-09 -2.14948054E-01  1.49853806E+00
  9.17132632E-02 -7.71638170E-02 -3.44075679E-09  1.28253873E-01 -1.84196054E-01
 -8.86233169E-02  3.66618582E-08  1.56842040E-02 -7.74410640E-02 -5.70190464E-02
  9.93980660E-08 -8.20562855E-01 -7.11670250E-01 -7.51621718E-01  3.97876340E-02
 -5.05275819E-09 -2.30121357E-09  5.25904031E-02 -3.67159207E-01  1.62221716E-01
 -2.83359232E-02  8.24564858E-09 -3.11311319E-02  1.00710066E-02  4.91998724E-02
 -6.89179636E-08 -3.80305148E-03  3.30285541E-02  1.99650337E-02 -3.68903149E-08
  1.66323661E-01  2.08818479E-01  1.83942264E-01 -1.06838044E-01  7.21278749E-09
  5.21853084E-09  2.66494928E-01 -1.85642929E+00  8.37604165E-02  7.68065461E-03
 -2.90853698E-08 -1.59714962E-01 -2.04850024E-01  1.49156204E-01  1.64559250E-07
 -1.95880722E-02 -8.92535940E-02  7.57744912E-02 -4.21242760E-08  9.83555424E-01
  9.15397936E-01  9.31732446E-01  1.47770245E-03  7.26227796E-09 -1.76336467E-08
 -5.68512032E-02 -1.71417951E-01  1.43094618E-02  4.17732178E-02  6.93785266E-02
  2.12776653E-01  5.68512032E-02  1.71417951E-01 -1.43094618E-02 -4.17732178E-02
 -6.93785266E-02 -2.12776653E-01 -1.83762012E-01  1.27718889E+00  1.16464450E-02
 -1.35595150E-01 -3.99828645E-08  1.11696050E-01  1.63263572E-01  7.19737836E-02
  2.60524048E-07  1.32203337E-02  8.29210803E-02  1.25260767E-02 -3.91602812E-08
 -6.01307590E-01 -7.07561399E-01 -6.42341813E-01 -6.14207420E-02 -2.39543044E-08
 -1.09089979E-08 -2.78633246E-01  1.93924294E+00 -3.79112448E-02 -6.59465573E-02
  2.52679659E-08  1.68088160E-01  2.57012095E-02  2.69117216E-01 -1.42893242E-07
  1.98269722E-02  5.99774574E-03  1.22344584E-01  3.89542009E-08 -9.84691966E-01
 -1.00122545E+00 -9.74209089E-01 -2.30586971E-02  7.45662539E-09 -1.49158762E-08
 -9.32273954E-02  6.47448548E-01 -7.35411004E-02 -1.42784258E-01 -6.89278618E-09
  5.69085775E-02 -7.56159781E-02  4.98226252E-02  5.87110425E-08  6.76554617E-03
 -4.95169069E-02  1.07418247E-03  3.35371965E-08 -2.43653139E-01 -4.20125467E-01
 -3.25830009E-01  3.73551887E-02 -7.51718147E-09 -1.86877920E-09  1.83762012E-01
 -1.27718889E+00  1.16464450E-02 -1.35595150E-01  2.57709222E-09 -1.11696050E-01
  1.63263572E-01  7.19737836E-02 -3.00961141E-08 -1.32203337E-02  8.29210803E-02
  1.25260767E-02 -9.01324537E-08  6.01307590E-01  7.07561399E-01  6.42341813E-01
  6.14207420E-02  4.29102602E-09  1.95429500E-09  2.78633246E-01 -1.93924294E+00
 -3.79112448E-02 -6.59465573E-02 -6.89250302E-09 -1.68088160E-01  2.57012095E-02
  2.69117216E-01  5.87098377E-08 -1.98269722E-02  5.99774574E-03  1.22344584E-01
  3.35386775E-08  9.84691966E-01  1.00122545E+00  9.74209089E-01  2.30586971E-02
 -6.34431005E-09 -4.44379709E-09  9.32273954E-02 -6.47448548E-01 -7.35411004E-02
 -1.42784258E-01  2.52676101E-08 -5.69085775E-02 -7.56159781E-02  4.98226252E-02
 -1.42892174E-07 -6.76554617E-03 -4.95169069E-02  1.07418247E-03  3.89530491E-08
  2.43653139E-01  4.20125467E-01  3.25830009E-01 -3.73551887E-02 -6.35724529E-09
  1.54166622E-08  4.61697575E-02  1.51731859E-01  7.20290450E-02  2.29407509E-01
  2.30545791E-02  7.70216901E-02 -4.61697575E-02 -1.51731859E-01 -7.20290450E-02
 -2.29407509E-01 -2.30545791E-02 -7.70216901E-02  1.51893012E-01 -1.16445758E+00
  2.28103690E-02  1.71510549E-01  1.15281233E-08 -2.18174751E-02 -1.01808941E-01
  7.89483133E-02 -1.19098259E-07  5.32582934E-03 -2.69475317E-02 -2.38734777E-02
 -1.25894084E-08  5.50980612E-01  7.88762126E-01  5.25205881E-01  3.36304573E-02
  2.72101509E-08  1.23917883E-08  1.11886587E-01 -8.57885593E-01  1.63800041E-01
  5.22252969E-02 -1.12201441E-08 -1.60147553E-02  1.24103966E-01 -5.63099059E-02
  6.56624982E-08  3.90687668E-03 -1.40730706E-02 -2.41917076E-02  3.13920483E-09
  5.55987472E-01  4.31014804E-01  3.86878978E-01  1.21052428E-01 -3.28699921E-09
  5.63303166E-09 -2.64964040E-01  2.02971271E+00  1.19761898E-01 -1.06949022E-01
  5.04911405E-09  3.87593776E-02 -9.24483287E-02  5.26555008E-02 -3.54291954E-08
 -9.46614905E-03 -4.76479778E-02  3.54122478E-02 -2.04360342E-09 -1.12406078E+00
 -1.21157355E+00 -9.16102298E-01 -9.80936394E-02  3.40221636E-09  2.95965028E-12
  1.51893012E-01 -1.16445758E+00 -2.28103690E-02 -1.71510549E-01 -4.37445032E-09
 -2.18174751E-02  1.01808941E-01 -7.89483133E-02  2.73775447E-08  5.32582934E-03
  2.69475317E-02  2.38734777E-02  7.57064077E-09  5.50980612E-01  7.88762126E-01
  5.25205881E-01  3.36304573E-02 -2.63913572E-09 -1.20196069E-09  1.11886587E-01
 -8.57885593E-01 -1.63800041E-01 -5.22252969E-02  5.04892575E-09 -1.60147553E-02
 -1.24103966E-01  5.63099059E-02 -3.54283915E-08  3.90687668E-03  1.40730706E-02
  2.41917076E-02 -2.04512999E-09  5.55987472E-01  4.31014804E-01  3.86878978E-01
  1.21052428E-01  2.23554546E-09  2.56448396E-09 -2.64964040E-01  2.02971271E+00
 -1.19761898E-01  1.06949022E-01 -1.12198899E-08  3.87593776E-02  9.24483287E-02
 -5.26555008E-02  6.56617786E-08 -9.46614905E-03  4.76479778E-02 -3.54122478E-02
  3.14055520E-09 -1.12406078E+00 -1.21157355E+00 -9.16102298E-01 -9.80936394E-02
  2.09161996E-09 -6.17752136E-09 -5.85018913E-02 -4.40808553E-02 -4.30957597E-02
 -3.24139038E-02  1.03867766E-01  7.70019925E-02 -5.85018913E-02 -4.40808553E-02
 -4.30957597E-02 -3.24139038E-02  1.03867766E-01  7.70019925E-02  2.17944278E-01
 -1.66935366E+00  1.60481565E-01 -3.55031724E-02  1.65260280E-08 -3.19712915E-02
 -4.52458721E-02 -1.11122196E-01 -1.72558087E-07  7.79576111E-03 -4.74900678E-02
 -1.35768855E-02 -1.97552548E-08  9.64069584E-01  9.57092501E-01  7.53516772E-01
 -1.21768063E-01  3.98393431E-08  1.81432564E-08 -2.40313824E-01  1.84178903E+00
  5.81319199E-02 -1.51550444E-01 -1.62566846E-08  3.47703525E-02  6.99206580E-02
  8.90853042E-02  9.52027125E-08 -8.47159306E-03 -1.76475274E-04  5.46342002E-02
  5.45493541E-09 -1.13516433E+00 -9.84191976E-01 -8.30905691E-01  7.83107640E-02
 -4.74890769E-09  8.14204890E-09  2.34720142E-02 -1.79301807E-01 -1.14642642E-01
 -1.36593582E-01  7.41208790E-09 -3.65702319E-03 -7.27917900E-02 -1.18896674E-01
 -5.17724329E-08  8.93050622E-04  1.15382888E-02  7.45882011E-03 -2.28652532E-09
  2.25972389E-01 -1.95030896E-02  8.11288569E-02  5.75279022E-02  4.93652196E-09
 -3.60006922E-11  2.17944278E-01 -1.66935366E+00 -1.60481565E-01  3.55031724E-02
 -6.48974197E-09 -3.19712915E-02  4.52458721E-02  1.11122196E-01  4.03212175E-08
  7.79576111E-03  4.74900678E-02  1.35768855E-02  9.42863053E-09  9.64069584E-01
  9.57092501E-01  7.53516772E-01 -1.21768063E-01 -3.86086196E-09 -1.75838054E-09
 -2.40313824E-01  1.84178903E+00 -5.81319199E-02  1.51550444E-01  7.41181717E-09
  3.47703525E-02 -6.99206580E-02 -8.90853042E-02 -5.17712646E-08 -8.47159306E-03
  1.76475274E-04 -5.46342002E-02 -2.28876000E-09 -1.13516433E+00 -9.84191976E-01
 -8.30905691E-01  7.83107640E-02  3.21331763E-09  3.74744717E-09  2.34720142E-02
 -1.79301807E-01  1.14642642E-01  1.36593582E-01 -1.62563144E-08 -3.65702319E-03
  7.27917900E-02  1.18896674E-01  9.52016648E-08  8.93050622E-04 -1.15382888E-02
 -7.45882011E-03  5.45691590E-09  2.25972389E-01 -1.95030896E-02  8.11288569E-02
  5.75279022E-02  3.02466798E-09 -8.92743334E-09 -8.57178512E-02 -6.32694563E-02
  9.34529948E-02  6.96239696E-02 -9.84362784E-03 -6.82965340E-03 -8.57178512E-02
 -6.32694563E-02  9.34529948E-02  6.96239696E-02 -9.84362784E-03 -6.82965340E-03
  4.03595418E-02  3.56816004E-01  2.78136718E-01  1.96015175E-01  5.15382223E-07
 -2.04597781E-01 -1.23849556E+00 -4.31981551E-01 -2.47975688E-06  3.17150448E-01
  2.97742547E-01  7.39700290E-01  3.45237944E-06 -8.17192347E-04 -9.26714506E-03
  1.13060756E-01  8.90387112E-02 -3.84759811E-08 -1.75240135E-08 -1.05793062E-02
 -8.81926398E-02 -1.02008628E-01 -7.58280674E-02 -2.44789819E-07  5.20844372E-02
 -1.46939348E-01  3.47775617E-01  1.24690634E-06 -8.07206531E-02 -8.31748131E-01
 -6.67750647E-02 -1.95329698E-06  1.17149235E-03 -1.75028063E-03 -2.98404425E-02
 -8.38033090E-02 -1.05242707E-07  1.28745117E-07 -4.96492892E-02 -4.55189259E-01
  3.22547934E-01 -2.68532609E-01 -1.00856300E-07  2.56359160E-01 -1.36803134E+00
  9.03344084E-01  2.18573563E-07 -3.97528905E-01  4.32836141E-01 -6.42833993E-01
 -1.75490361E-06  8.23828564E-03  1.39692547E-02 -1.38461266E-01  9.28295264E-02
  5.50117848E-08  8.58114292E-08 -4.03595418E-02 -3.56816004E-01  2.78136718E-01
  1.96015175E-01  2.41662323E-07  2.04597781E-01 -1.23849556E+00 -4.31981551E-01
 -8.65092264E-07 -3.17150448E-01  2.97742547E-01  7.39700290E-01  3.79488346E-06
  8.17192346E-04  9.26714506E-03 -1.13060756E-01 -8.90387112E-02  2.71575043E-08
  1.23686240E-08  1.05793062E-02  8.81926398E-02 -1.02008628E-01 -7.58280674E-02
 -1.00853371E-07 -5.20844372E-02 -1.46939348E-01  3.47775617E-01  2.18561900E-07
  8.07206531E-02 -8.31748131E-01 -6.67750647E-02 -1.75484942E-06 -1.17149235E-03
  1.75028063E-03  2.98404425E-02  8.38033090E-02  1.00846844E-07 -1.48314455E-08
  4.96492892E-02  4.55189259E-01  3.22547934E-01 -2.68532609E-01 -2.44792573E-07
 -2.56359160E-01 -1.36803134E+00  9.03344084E-01  1.24691830E-06  3.97528905E-01
  4.32836141E-01 -6.42833993E-01 -1.95335270E-06 -8.23828564E-03 -1.39692547E-02
  1.38461266E-01 -9.28295264E-02  2.80372966E-08 -1.63906264E-07  1.08700340E-01
 -1.41376672E+00 -2.75667795E-02  3.59646952E-01 -1.36543795E-01  1.77252353E+00
 -1.08700340E-01  1.41376672E+00  2.75667795E-02 -3.59646952E-01  1.36543795E-01
 -1.77252353E+00 -3.36800004E-02 -3.21363811E-01 -2.94346434E-01 -5.12237151E-02
 -4.50498976E-07  1.76297598E-01  9.78656900E-01  5.93563767E-01  2.16617229E-06
 -2.77303802E-01 -7.25542671E-01  3.66115300E-01 -3.03942387E-06 -6.78593263E-02
  9.04912907E-02 -9.33282524E-02 -4.27585054E-03  3.35715670E-08  1.52903090E-08
 -5.17403921E-02 -4.69121856E-01 -2.25724456E-02 -4.33076038E-01  2.14081360E-07
  2.63827400E-01  1.97288556E-01  1.68730377E+00 -1.08907072E-06 -4.14772170E-01
  8.75777255E-02 -7.69943568E-01  1.71703529E-06  9.23114703E-02 -7.23849878E-02
 -1.44319970E-01 -1.39152418E-03  9.21946076E-08 -1.12207672E-07 -1.63624337E-02
 -1.61136880E-01  1.71066530E-01 -5.90922385E-03  8.90520297E-08  8.70855217E-02
 -3.59381385E-01  4.63793145E-01 -1.95566880E-07 -1.37009342E-01  6.66841145E-01
  5.00886981E-01  1.54458086E-06 -6.97597495E-02  8.37837451E-02 -4.51487951E-02
  2.77851532E-03 -4.79955379E-08 -7.53605605E-08  3.36800004E-02  3.21363811E-01
 -2.94346434E-01 -5.12237151E-02 -2.12786603E-07 -1.76297598E-01  9.78656900E-01
  5.93563767E-01  7.62920322E-07  2.77303802E-01 -7.25542671E-01  3.66115300E-01
 -3.33688048E-06  6.78593263E-02 -9.04912907E-02  9.33282524E-02  4.27585054E-03
 -2.41363985E-08 -1.09927056E-08  5.17403921E-02  4.69121856E-01 -2.25724456E-02
 -4.33076038E-01  8.90493567E-08 -2.63827400E-01  1.97288556E-01  1.68730377E+00
 -1.95556229E-07  4.14772170E-01  8.75777255E-02 -7.69943568E-01  1.54453201E-06
 -9.23114703E-02  7.23849878E-02  1.44319970E-01  1.39152418E-03 -8.83571331E-08
  1.32638209E-08  1.63624337E-02  1.61136880E-01  1.71066530E-01 -5.90922385E-03
  2.14083880E-07 -8.70855217E-02 -3.59381385E-01  4.63793145E-01 -1.08908164E-06
  1.37009342E-01  6.66841145E-01  5.00886981E-01  1.71708547E-06  6.97597495E-02
 -8.37837451E-02  4.51487951E-02 -2.77851532E-03 -2.41270908E-08  1.43207215E-07
 -9.36459473E-02  1.22832725E+00 -1.39653376E-01  1.83654482E+00 -4.63573968E-02
  6.07048541E-01  9.36459473E-02 -1.22832725E+00  1.39653376E-01 -1.83654482E+00
  4.63573968E-02 -6.07048541E-01 -1.84078826E-01  1.44306702E+00 -1.48043203E-01
 -6.87941202E-02 -4.73094312E-08  5.21050480E-02 -2.13637782E-02 -6.68266258E-03
  2.61222533E-07 -5.01782031E-02  2.40457081E-01  1.10520520E-01 -2.99275213E-07
 -8.24888745E-01 -1.00619435E+00 -6.31356579E-01  1.15534650E-01 -1.20529788E-08
 -5.48890866E-09  1.82875982E-01 -1.43948018E+00  1.58507342E-02  1.59614906E-01
  2.55580029E-08 -4.88521726E-02  1.90415793E-03  3.09887246E-02 -1.33382605E-07
  5.00411921E-02 -2.58663707E-02 -2.62156572E-01  1.68361093E-07  1.04593116E+00
  7.77006912E-01  6.27333489E-01 -2.90877643E-02  1.05308030E-08 -1.28386012E-08
 -1.84842738E-01  1.44492892E+00  1.34034696E-01 -9.66548128E-02  6.86602912E-09
  5.42482446E-02  1.37770024E-02 -7.75414406E-03 -5.73483617E-09 -5.05491571E-02
 -2.15352999E-01  1.54148094E-01  1.55841334E-07 -8.72886355E-01 -9.63115640E-01
 -6.33893307E-01 -1.45484250E-01 -6.01958072E-09 -7.45504220E-09  1.84078826E-01
 -1.44306702E+00 -1.48043203E-01 -6.87941202E-02 -1.93925524E-08 -5.21050480E-02
 -2.13637782E-02 -6.68266258E-03  6.50068081E-08  5.01782031E-02  2.40457081E-01
  1.10520520E-01 -3.35053351E-07  8.24888745E-01  1.00619435E+00  6.31356579E-01
 -1.15534650E-01 -1.40523550E-09 -6.40008992E-10 -1.82875982E-01  1.43948018E+00
  1.58507342E-02  1.59614906E-01  6.86581648E-09  4.88521726E-02  1.90415793E-03
  3.09887246E-02 -5.73402183E-09 -5.00411921E-02 -2.58663707E-02 -2.62156572E-01
  1.55836889E-07 -1.04593116E+00 -7.77006912E-01 -6.27333489E-01  2.90877643E-02
 -9.57545860E-09  3.52883734E-10  1.84842738E-01 -1.44492892E+00  1.34034696E-01
 -9.66548128E-02  2.55581633E-08 -5.42482446E-02  1.37770024E-02 -7.75414406E-03
 -1.33383480E-07  5.05491571E-02 -2.15352999E-01  1.54148094E-01  1.68365741E-07
  8.72886355E-01  9.63115640E-01  6.33893307E-01  1.45484250E-01 -2.77231221E-09
  1.63720445E-08  2.50308780E-02  1.28883047E-01 -2.45659170E-02 -1.20361416E-01
  2.52349884E-02  1.35275156E-01 -2.50308780E-02 -1.28883047E-01  2.45659170E-02
  1.20361416E-01 -2.52349884E-02 -1.35275156E-01  5.30299206E-08  1.28521727E-07
  1.31954593E-07  5.94187536E-08 -4.48938133E-02 -4.05253883E-07 -3.92293321E-07
 -1.78215654E-07  1.79717318E-01  1.98573164E-07  4.00709029E-07  1.80217665E-07
 -6.35814587E-01  1.02074124E-07  7.78006786E-08  1.61226401E-07  1.52780993E-08
 -1.78116260E-02  6.17633140E-02  2.03963455E-08  1.12617407E-07 -1.25745731E-08
  7.93952790E-08 -1.52283402E-01 -1.99138691E-07 -9.99502702E-08 -3.88323522E-07
  6.09611245E-01  1.01080381E-07 -3.25801845E-07  2.78813829E-07 -2.15673104E+00
 -1.04405033E-08  3.53671624E-08  5.59808910E-08 -1.75249868E-08  4.69059179E-02
  2.74665165E-02  7.93364245E-09 -1.16138861E-07  5.18072561E-08 -9.14969483E-08
  1.97177161E-01 -1.33090493E-07 -3.13027535E-07  2.24985632E-07 -7.89328156E-01
 -1.05332895E-07 -8.25666953E-08 -3.70375100E-07  2.79254734E+00  6.61162102E-08
  4.31686784E-08  3.05162102E-08  2.82100788E-08  4.49165412E-02 -8.04896122E-03
 -1.67131917E-08 -1.42603612E-07  1.82461958E-07  8.23222015E-08 -4.48938133E-02
 -7.07323780E-08 -7.07521038E-07 -3.21811264E-07  1.79717318E-01 -2.10704998E-07
  3.21694139E-07  1.44216721E-07 -6.35814587E-01 -2.09468189E-08  1.63136641E-08
 -4.35142700E-08 -2.35744978E-08  1.78116260E-02 -6.17633140E-02  7.90407416E-09
 -1.18582667E-07 -3.41846773E-08  9.99908822E-08 -1.52283402E-01 -1.32776483E-07
 -3.67959999E-08 -3.88979196E-07  6.09611245E-01 -1.07214507E-07 -3.31090367E-07
  1.84773111E-07 -2.15673104E+00  7.86893838E-08  3.20368080E-08  3.05571831E-08
  1.62733882E-08 -4.69059179E-02 -2.74665165E-02  2.02590386E-08  1.10884947E-07
  5.03804473E-08 -6.15360260E-08  1.97177161E-01 -1.98721695E-07 -3.54032019E-07
  1.76746876E-07 -7.89328156E-01  9.91921309E-08 -8.09568268E-09 -4.28178369E-07
  2.79254734E+00  9.03099492E-11  2.52284793E-08  5.56627853E-08 -2.79479268E-08
 -4.49165412E-02  8.04896122E-03  9.88425017E-08 -5.14287108E-07 -4.53500099E-09
 -2.93804547E-07 -5.17348838E-08  5.20241497E-07 -6.52527878E-08  9.00413082E-07
 -5.16558468E-08  5.25356327E-07 -4.41132630E-09 -2.88678758E-07 -2.38329873E-07
 -5.77563055E-07 -5.92989304E-07 -2.67021390E-07  2.01760686E-01  1.82135720E-06
  1.76286946E-06  8.00856933E-07 -8.07679844E-01 -8.92398759E-07 -1.80085396E-06
 -8.09929817E-07  2.85747738E+00 -4.58756903E-07 -3.49674382E-07 -7.24593208E-07
 -6.86584590E-08 -4.42646596E-02 -4.61119866E-03 -9.16683078E-08 -5.06101188E-07
  5.65055136E-08 -3.56797556E-07 -1.39759511E-01  8.95012037E-07  4.49177000E-07
  1.74514009E-06  5.59479016E-01 -4.54262404E-07  1.46417634E-06 -1.25302853E-06
 -1.97937278E+00  4.69017131E-08 -1.58955494E-07 -2.51599123E-07  7.87546203E-08
 -4.49659239E-02  3.37054901E-02 -3.56602055E-08  5.21921223E-07 -2.32824987E-07
  4.11195817E-07 -6.20010267E-02  5.98202327E-07  1.40675076E-06 -1.01112189E-06
  2.48201238E-01  4.73380156E-07  3.71082945E-07  1.66448290E-06 -8.78104122E-01
 -2.97137814E-07 -1.94016259E-07 -1.37160070E-07 -1.26775465E-07  2.55471769E-02
  5.81173485E-02  7.51037472E-08  6.40860175E-07 -8.19995146E-07 -3.69961185E-07
  2.01760686E-01  3.17966191E-07  3.17964922E-06  1.44624232E-06 -8.07679844E-01
  9.46928361E-07 -1.44571919E-06 -6.48122488E-07  2.85747738E+00  9.41228058E-08
 -7.33258286E-08  1.95535054E-07  1.05943981E-07  4.42646596E-02  4.61119866E-03
 -3.55273815E-08  5.32902760E-07  1.53630479E-07 -4.49366413E-07 -1.39759511E-01
  5.96791522E-07  1.65336891E-07  1.74809770E-06  5.59479016E-01  4.81835540E-07
  1.48795245E-06 -8.30359217E-07 -1.97937278E+00 -3.53643498E-07 -1.43987505E-07
 -1.37344298E-07 -7.31300404E-08  4.49659239E-02 -3.37054901E-02 -9.10512874E-08
 -4.98316464E-07 -2.26409689E-07  2.76536484E-07 -6.20010267E-02  8.93138415E-07
  1.59103291E-06 -7.94311049E-07  2.48201238E-01 -4.45777258E-07  3.63659731E-08
  1.92427668E-06 -8.78104122E-01 -4.24684189E-10 -1.13390956E-07 -2.50169641E-07
  1.25596380E-07 -2.55471769E-02 -5.81173485E-02 -4.44198574E-07  2.31108014E-06
  2.03944530E-08  1.32031236E-06  2.32509057E-07 -2.33804936E-06  2.93251853E-07
 -4.04654519E-06  2.32153681E-07 -2.36103269E-06  1.98385008E-08  1.29727979E-06
 -1.16114418E-01 -7.45379939E-02  1.35981662E-01  6.17807180E-02  8.98091248E-08
  1.68598790E+00 -4.85731254E-01 -2.21313196E-01 -7.14911789E-07  1.03580963E-01
 -3.95147516E-01 -1.80015044E-01 -2.08670485E-06 -2.55438371E-01 -2.74215776E-01
 -3.55607019E-01  1.21420197E-02  1.27097187E-08  5.78766263E-09 -1.16202193E-01
 -7.40395936E-02  1.42877509E-02  1.48508655E-01 -1.81314139E-08  1.68617203E+00
 -5.13325861E-02 -5.31322025E-01  3.18258052E-07  1.03573971E-01 -4.17351787E-02
 -4.32079907E-01  7.89263665E-07 -2.79411572E-01 -2.51179910E-01 -3.55890764E-01
  3.09613129E-03  2.04347582E-09  6.45558648E-08 -1.16059487E-01 -7.48417747E-02
 -1.21704011E-01  8.67534461E-02  7.80284334E-08  1.68586495E+00  4.34442071E-01
 -3.10112197E-01 -4.70785548E-07  1.03583469E-01  3.53477593E-01 -2.52311405E-01
  1.08301014E-06 -2.59904358E-01 -2.69172017E-01 -3.55429110E-01 -1.51712657E-02
  1.62983307E-08 -2.28610334E-08 -1.16114418E-01 -7.45379939E-02 -1.35981662E-01
 -6.17807180E-02 -1.37927779E-07  1.68598790E+00  4.85731254E-01  2.21313196E-01
  6.28546975E-07  1.03580963E-01  3.95147516E-01  1.80015044E-01 -1.83415541E-06
 -2.55438371E-01 -2.74215776E-01 -3.55607019E-01  1.21420197E-02 -3.99714928E-08
 -1.82035715E-08 -1.16202193E-01 -7.40395936E-02 -1.42877509E-02 -1.48508655E-01
  7.80306490E-08  1.68617203E+00  5.13325861E-02  5.31322025E-01 -4.70793773E-07
  1.03573971E-01  4.17351787E-02  4.32079907E-01  1.08306055E-06 -2.79411572E-01
 -2.51179910E-01 -3.55890764E-01  3.09613129E-03 -6.54648454E-09  2.73016745E-08
 -1.16059487E-01 -7.48417747E-02  1.21704011E-01 -8.67534461E-02 -1.81334981E-08
  1.68586495E+00 -4.34442071E-01  3.10112197E-01  3.18266248E-07  1.03583469E-01
 -3.53477593E-01  2.52311405E-01  7.89212200E-07 -2.59904358E-01 -2.69172017E-01
 -3.55429110E-01 -1.51712657E-02  5.00417424E-08 -4.08356657E-08  1.89910405E-01
 -1.43451187E+00  1.89836712E-01 -1.43452071E+00  1.89952652E-01 -1.43450123E+00
  1.89910405E-01 -1.43451187E+00  1.89836712E-01 -1.43452071E+00  1.89952652E-01
 -1.43450123E+00  5.45677625E-02 -2.10477695E-02 -7.23278443E-02  2.38973364E-02
 -6.91971786E-08  3.70043199E-02  1.00983202E+00 -8.72167550E-01  4.38498791E-07
  6.96170751E-01  1.22157809E+00  1.69943606E+00  6.39394157E-07  2.76107592E-01
  1.23823651E-01  1.14734482E-01 -1.34108606E-01  9.48749359E-09  4.32079236E-09
 -1.35822529E-02  4.75523656E-03 -7.53263288E-02  2.14913313E-02  1.70341904E-08
 -9.39746522E-03  1.79528300E+00 -3.13422523E-01 -1.89406537E-07 -1.74318875E-01
 -1.59590333E+00 -3.02884675E-01 -1.75527904E-07 -1.99184415E-02 -7.91086606E-02
 -2.84857255E-02  2.28203279E-01  5.28687775E-09 -3.43262657E-08 -6.84853468E-02
  2.78449302E-02 -7.15997324E-02  1.92389379E-02 -2.17358603E-08 -4.57995356E-02
  9.19609395E-01  8.77287547E-02  1.62065254E-07 -8.70540956E-01  1.54633082E+00
 -1.74201481E+00 -3.73510819E-07 -2.99097490E-01 -2.04367341E-01 -1.44220403E-01
 -7.86363622E-02 -8.33421401E-09  3.04234082E-09 -5.45677625E-02  2.10477695E-02
 -7.23278443E-02  2.38973364E-02  3.89478109E-08 -3.70043199E-02  1.00983202E+00
 -8.72167550E-01 -1.88996573E-07 -6.96170751E-01  1.22157809E+00  1.69943606E+00
  5.52491993E-07 -2.76107592E-01 -1.23823651E-01 -1.14734482E-01  1.34108606E-01
  1.33636512E-08  6.08612434E-09  1.35822529E-02 -4.75523656E-03 -7.53263288E-02
  2.14913313E-02 -2.17360364E-08  9.39746523E-03  1.79528300E+00 -3.13422523E-01
  1.62065645E-07  1.74318875E-01 -1.59590333E+00 -3.02884675E-01 -3.73521906E-07
  1.99184415E-02  7.91086606E-02  2.84857255E-02 -2.28203279E-01 -3.17587924E-09
 -8.28389966E-09  6.84853468E-02 -2.78449302E-02 -7.15997324E-02  1.92389379E-02
  1.70343167E-08  4.57995356E-02  9.19609395E-01  8.77287547E-02 -1.89406828E-07
  8.70540956E-01  1.54633082E+00 -1.74201481E+00 -1.75516403E-07  2.99097490E-01
  2.04367341E-01  1.44220403E-01  7.86363622E-02 -2.24245863E-08  2.65214492E-08
 -1.28649651E-01  7.50696981E-01  3.24180937E-02 -1.87957266E-01  1.60278636E-01
 -9.38677682E-01  1.28649651E-01 -7.50696981E-01 -3.24180937E-02  1.87957266E-01
 -1.60278636E-01  9.38677682E-01  4.77141765E-02 -2.10191874E-02 -1.98317962E-02
 -7.14900885E-02 -6.02965452E-08  2.99716339E-02 -1.36407298E-01  1.47396939E+00
  3.83679806E-07  6.02795169E-01  1.92767885E+00 -4.39611449E-01  5.54449255E-07
  3.45615888E-02  3.18007889E-01  1.00740090E-01  8.72719781E-02  7.44198166E-09
  3.38923336E-09  7.11082656E-02 -2.88791042E-02 -2.10119274E-02 -7.05966901E-02
  1.50054928E-08  4.57534404E-02  4.18381430E-01  6.92084172E-01 -1.65852531E-07
  9.03813911E-01 -7.21981033E-02  2.37556626E+00 -1.51831682E-07  3.18549082E-01
  2.04258053E-01  1.49753723E-01  3.30643998E-02  4.69048777E-09 -2.99107828E-08
  2.39182718E-02 -1.10247319E-02 -2.22095517E-02 -7.18358176E-02 -1.88938370E-08
  1.48150831E-02  8.17654300E-01  1.56444859E+00  1.41130702E-07  3.01074324E-01
 -1.51016929E+00 -7.64479643E-01 -3.24042284E-07 -1.02976617E-01  2.80239895E-01
  5.05745518E-02 -5.32729465E-02 -7.29144083E-09  2.60572056E-09 -4.77141765E-02
  2.10191874E-02 -1.98317962E-02 -7.14900885E-02  3.38024069E-08 -2.99716339E-02
 -1.36407298E-01  1.47396939E+00 -1.64214144E-07 -6.02795169E-01  1.92767885E+00
 -4.39611449E-01  4.78848736E-07 -3.45615888E-02 -3.18007889E-01 -1.00740090E-01
 -8.72719781E-02  1.16273065E-08  5.29535283E-09 -7.11082656E-02  2.88791042E-02
 -2.10119274E-02 -7.05966901E-02 -1.88939859E-08 -4.57534404E-02  4.18381430E-01
  6.92084172E-01  1.41131027E-07 -9.03813911E-01 -7.21981033E-02  2.37556626E+00
 -3.24051893E-07 -3.18549082E-01 -2.04258053E-01 -1.49753723E-01 -3.30643998E-02
 -2.82073187E-09 -7.21068649E-09 -2.39182718E-02  1.10247319E-02 -2.22095517E-02
 -7.18358176E-02  1.50056010E-08 -1.48150831E-02  8.17654300E-01  1.56444859E+00
 -1.65852777E-07 -3.01074324E-01 -1.51016929E+00 -7.64479643E-01 -1.51821708E-07
  1.02976617E-01 -2.80239895E-01 -5.05745518E-02  5.32729465E-02 -1.94851187E-08
  2.31730488E-08 -1.10075651E-01  6.53113289E-01 -1.66070773E-01  9.79219444E-01
 -5.47804657E-02  3.26213021E-01  1.10075651E-01 -6.53113289E-01  1.66070773E-01
 -9.79219444E-01  5.47804657E-02 -3.26213021E-01  3.37957929E-02 -5.65289178E-03
 -2.98864163E-01  1.00738642E-01 -1.54327195E-07 -1.09322202E+00  2.05538690E+00
  1.23611103E-01  1.32604782E-06  2.83614612E-02 -1.26401345E+00  6.95881993E-01
  7.89756468E-07  1.26949409E-01  6.86526856E-02  1.19968301E-01  1.36263387E-02
 -1.47718343E-07 -6.72724100E-08  1.47278618E-02 -2.48063181E-03  2.70063390E-01
 -1.26843164E-01  6.69040078E-08 -4.76289995E-01 -8.78605719E-01  9.25970485E-01
 -5.82161288E-07  1.23616199E-02  1.46304624E+00 -5.18545097E-01 -6.70819081E-08
  2.71387679E-02  5.81280885E-02  5.22792814E-02 -1.76883161E-02  2.98082496E-08
 -7.67331822E-08 -4.85080625E-02  8.07143427E-03 -3.06745265E-01  1.39224837E-01
 -3.37709043E-08  1.56959817E+00  2.37519902E+00 -1.42165898E+00  3.24093037E-07
 -4.07073023E-02 -1.20996186E+00  4.34840022E-01 -6.15690257E-07 -1.57612350E-01
 -1.23078986E-01 -1.72197823E-01  4.21066844E-02 -2.28981401E-08 -4.39986109E-09
  3.37957929E-02 -5.65289178E-03  2.98864163E-01 -1.00738642E-01  5.43701586E-08
 -1.09322202E+00 -2.05538690E+00 -1.23611103E-01 -3.02708302E-07  2.83614612E-02
  1.26401345E+00 -6.95881993E-01  7.57975502E-07  1.26949409E-01  6.86526856E-02
  1.19968301E-01  1.36263387E-02  2.45173606E-08  1.11659323E-08  1.47278618E-02
 -2.48063181E-03 -2.70063390E-01  1.26843164E-01 -3.37706030E-08 -4.76289995E-01
  8.78605719E-01 -9.25970485E-01  3.24090853E-07  1.23616199E-02 -1.46304624E+00
  5.18545097E-01 -6.15704264E-07  2.71387679E-02  5.81280885E-02  5.22792814E-02
 -1.76883161E-02 -1.83502302E-08 -1.43844891E-08 -4.85080626E-02  8.07143427E-03
  3.06745265E-01 -1.39224837E-01  6.69031821E-08  1.56959817E+00 -2.37519902E+00
  1.42165898E+00 -5.82158950E-07 -4.07073023E-02  1.20996186E+00 -4.34840022E-01
 -6.70669057E-08 -1.57612350E-01 -1.23078986E-01 -1.72197823E-01  4.21066844E-02
 -3.83182942E-08  7.28579296E-08  1.09982748E-01  1.55368002E+00  4.78774205E-02
  6.76892703E-01 -1.58006094E-01 -2.23070513E+00  1.09982748E-01  1.55368002E+00
  4.78774205E-02  6.76892703E-01 -1.58006094E-01 -2.23070513E+00 -3.65070433E-02
  6.07253178E-03  1.43574277E-01  2.84917868E-01  1.66750706E-07  1.18127565E+00
 -1.60572046E+00 -1.48415260E+00 -1.43284081E-06 -3.06376661E-02  4.03672142E-01
  1.36071098E+00 -8.53320405E-07 -1.15905396E-01 -9.53477753E-02 -1.29593373E-01
 -3.59697146E-02  1.59630202E-07  7.26971881E-08  4.75348241E-02 -7.95320438E-03
 -1.17858154E-01 -3.13860134E-01 -7.22931435E-08 -1.53747645E+00  5.57071740E-01
  2.66117036E+00  6.29047233E-07  3.98862298E-02 -5.80979489E-01 -1.16167201E+00
  7.24763148E-08  9.97508658E-02  1.75392229E-01  1.68732951E-01  1.49023256E-02
 -3.22095130E-08  8.29111480E-08 -1.10083884E-02  1.81241056E-03  1.05350615E-01
  2.76742504E-01  3.64900758E-08  3.56309179E-01 -6.12211370E-02 -1.16368558E+00
 -3.50190097E-07 -9.22720609E-03  6.64698150E-01  1.41476352E+00  6.65248130E-07
 -1.70839338E-02 -4.65941404E-02 -3.90781452E-02  1.69407952E-02  2.47422507E-08
  4.75448175E-09 -3.65070433E-02  6.07253178E-03 -1.43574277E-01 -2.84917868E-01
 -5.87470875E-08  1.18127565E+00  1.60572046E+00  1.48415260E+00  3.27079767E-07
 -3.06376661E-02 -4.03672142E-01 -1.36071098E+00 -8.18981054E-07 -1.15905396E-01
 -9.53477753E-02 -1.29593373E-01 -3.59697146E-02 -2.64914319E-08 -1.20649820E-08
  4.75348241E-02 -7.95320438E-03  1.17858154E-01  3.13860134E-01  3.64897519E-08
 -1.53747645E+00 -5.57071740E-01 -2.66117036E+00 -3.50187735E-07  3.98862298E-02
  5.80979489E-01  1.16167201E+00  6.65263257E-07  9.97508658E-02  1.75392229E-01
  1.68732951E-01  1.49023256E-02  1.98282798E-08  1.55427672E-08 -1.10083884E-02
  1.81241056E-03 -1.05350615E-01 -2.76742504E-01 -7.22922472E-08  3.56309179E-01
  6.12211371E-02  1.16368558E+00  6.29044700E-07 -9.22720609E-03 -6.64698150E-01
 -1.41476352E+00  7.24601154E-08 -1.70839338E-02 -4.65941404E-02 -3.90781452E-02
  1.69407952E-02  4.14025117E-08 -7.87248963E-08 -1.18881992E-01 -1.67875438E+00
  1.54583883E-01  2.18486349E+00 -3.58775924E-02 -5.06280903E-01 -1.18881992E-01
 -1.67875438E+00  1.54583883E-01  2.18486349E+00 -3.58775924E-02 -5.06280903E-01
 -9.70852913E-02 -1.09044518E-01  1.37587745E-01  6.27284059E-02  2.15652985E-07
  1.68335576E+00 -1.63205136E+00 -7.43137169E-01 -1.68111507E-06  2.32619316E-01
 -1.09931742E+00 -5.00909752E-01 -9.32016461E-07 -2.71664921E-01 -2.33241121E-01
 -3.00312341E-01 -2.51000419E-02  1.23620545E-07  5.62980263E-08  9.71271295E-02
  1.09036881E-01 -1.45550883E-02 -1.50482827E-01 -7.90900471E-08 -1.68375920E+00
  1.72305718E-01  1.78511650E+00  7.24886812E-07 -2.32457003E-01  1.16224866E-01
  1.20290300E+00 -5.17449753E-08  2.24040115E-01  2.81203732E-01  3.00426762E-01
  6.33290382E-03 -3.60568614E-08  1.02385895E-07 -9.70641813E-02 -1.09057407E-01
 -1.23078802E-01  8.78911521E-02  3.90076986E-08  1.68322355E+00  1.45966081E+00
 -1.04166983E+00 -3.98567879E-07  2.32700479E-01  9.83054633E-01 -7.01810627E-01
  9.42492964E-07 -2.61901015E-01 -2.42816256E-01 -3.00255301E-01  3.15624792E-02
  2.77265081E-08  6.71375369E-09  9.70852913E-02  1.09044518E-01  1.37587745E-01
  6.27284059E-02 -6.71849303E-08 -1.68335576E+00 -1.63205136E+00 -7.43137169E-01
  3.73952271E-07 -2.32619316E-01 -1.09931742E+00 -5.00909752E-01 -1.11199334E-06
  2.71664921E-01  2.33241121E-01  3.00312341E-01  2.51000419E-02 -3.02713264E-08
 -1.37864974E-08 -9.71271295E-02 -1.09036881E-01 -1.45550883E-02 -1.50482827E-01
  3.90072206E-08  1.68375920E+00  1.72305718E-01  1.78511650E+00 -3.98564698E-07
  2.32457003E-01  1.16224866E-01  1.20290300E+00  9.42509956E-07 -2.24040115E-01
 -2.81203732E-01 -3.00426762E-01 -6.33290382E-03  2.32652591E-08  1.65076470E-08
  9.70641813E-02  1.09057407E-01 -1.23078802E-01  8.78911521E-02 -7.90889995E-08
 -1.68322355E+00  1.45966081E+00 -1.04166983E+00  7.24883194E-07 -2.32700479E-01
  9.83054633E-01 -7.01810627E-01 -5.17628209E-08  2.61901015E-01  2.42816256E-01
  3.00255301E-01 -3.15624792E-02  5.35683216E-08 -9.44111186E-08  3.50824470E-02
 -2.17700541E+00 -3.51623670E-02  2.17726347E+00  3.50319113E-02 -2.17690427E+00
 -3.50824470E-02  2.17700541E+00  3.51623670E-02 -2.17726347E+00 -3.50319113E-02
  2.17690427E+00 -3.65465106E-03 -9.38211395E-03  3.67314251E-02 -7.65512397E-02
  3.82318170E-09  1.03910804E-01  1.93821301E-01 -4.26493915E-01 -2.90794302E-08
  1.25816895E-02  1.20584861E+00 -2.90238309E+00 -3.42717120E-09  2.73478434E-03
 -1.52901450E-02 -1.10318841E-02 -9.69294440E-03  1.66355298E-09  7.57600547E-10
  1.15816652E-01  2.97013843E-01 -4.53819141E-02 -4.98054082E-02 -1.37998355E-09
 -3.29153214E+00 -2.20984663E-01  3.35834104E-02  1.27757253E-08 -3.98232745E-01
 -1.16703106E+00  3.46853860E+00 -1.25281833E-08  1.84416305E-01  2.13894140E-01
  3.49620768E-01 -3.57620243E-03 -6.05889785E-10  1.76162900E-09 -1.12156458E-01
 -2.87646833E-01 -6.83607449E-02 -5.85817255E-03  6.48309348E-10  3.18762930E+00
 -1.33083381E-01 -2.06895425E-01 -6.93882398E-09  3.85655110E-01  1.67671849E+00
 -3.21909372E+00  2.56270791E-08 -1.91100554E-01 -1.94591398E-01 -3.38571984E-01
  1.70264847E-02  4.71675472E-10  1.30574948E-10 -3.65465106E-03 -9.38211395E-03
 -3.67314251E-02  7.65512397E-02 -1.09209283E-09  1.03910804E-01 -1.93821301E-01
  4.26493915E-01  6.36079617E-09  1.25816895E-02 -1.20584861E+00  2.90238309E+00
 -2.74129627E-08  2.73478434E-03 -1.52901450E-02 -1.10318841E-02 -9.69294440E-03
 -5.02872345E-10 -2.29025740E-10  1.15816652E-01  2.97013843E-01  4.53819141E-02
  4.98054082E-02  6.48301829E-10 -3.29153214E+00  2.20984663E-01 -3.35834104E-02
 -6.93876753E-09 -3.98232745E-01  1.16703106E+00 -3.46853860E+00  2.56273371E-08
  1.84416305E-01  2.13894140E-01  3.49620768E-01 -3.57620243E-03  4.08126766E-10
  2.70077395E-10 -1.12156458E-01 -2.87646833E-01  6.83607449E-02  5.85817255E-03
 -1.37996606E-09  3.18762930E+00  1.33083381E-01  2.06895425E-01  1.27756521E-08
  3.85655110E-01 -1.67671849E+00  3.21909372E+00 -1.25284276E-08 -1.91100554E-01
 -1.94591398E-01 -3.38571984E-01  1.70264847E-02  9.31206519E-10 -1.61348115E-09
  1.70286524E-03 -3.80026593E-02 -5.43388335E-02  1.20395715E+00  5.25810933E-02
 -1.16597740E+00  1.70286524E-03 -3.80026593E-02 -5.43388335E-02  1.20395715E+00
  5.25810933E-02 -1.16597740E+00 -1.31619727E-01 -3.37551948E-01  5.47908932E-02
  2.76097751E-02  1.37665155E-07  3.74076209E+00 -1.78826383E-02  5.61620448E-03
 -1.04667261E-06  4.52576539E-01 -3.49096460E+00 -1.49388281E+00 -1.23346693E-07
 -2.36950003E-01 -2.15692982E-01 -3.97326433E-01 -1.33960552E-02  5.97147703E-08
  2.71947128E-08  6.26448622E-02  1.60658455E-01  7.14705179E-02 -3.62126975E-02
 -4.96630546E-08 -1.78042444E+00  4.11563771E-01 -3.30933871E-02  4.59836263E-07
 -2.15399028E-01  2.92481122E+00  1.53270595E+00 -4.51166409E-07  1.02422830E-01
  1.13014912E-01  1.89109215E-01  1.38662761E-02 -2.18020766E-08  6.34232304E-08
  6.89760474E-02  1.76892407E-01 -1.58994150E-02 -7.75885596E-02  2.33373594E-08
 -1.96035223E+00 -2.37669824E-01 -3.20392442E-01 -2.49777428E-07 -2.37180092E-01
 -3.17425955E+00 -1.02298526E+00  9.22837844E-07  1.31259679E-01  1.05956065E-01
  2.08220781E-01 -5.04061176E-03  1.69771101E-08  4.69869324E-09 -1.31619727E-01
 -3.37551948E-01 -5.47908932E-02 -2.76097751E-02 -3.93186045E-08  3.74076209E+00
  1.78826383E-02 -5.61620448E-03  2.28991947E-07  4.52576539E-01  3.49096460E+00
  1.49388281E+00 -9.87161958E-07 -2.36950003E-01 -2.15692982E-01 -3.97326433E-01
 -1.33960552E-02 -1.81028047E-08 -8.24459664E-09  6.26448622E-02  1.60658455E-01
 -7.14705179E-02  3.62126975E-02  2.33370236E-08 -1.78042444E+00 -4.11563771E-01
  3.30933871E-02 -2.49775211E-07 -2.15399028E-01 -2.92481122E+00 -1.53270595E+00
  9.22846786E-07  1.02422830E-01  1.13014912E-01  1.89109215E-01  1.38662761E-02
  1.46888900E-08  9.72184633E-09  6.89760474E-02  1.76892407E-01  1.58994150E-02
  7.75885596E-02 -4.96623092E-08 -1.96035223E+00  2.37669824E-01  3.20392442E-01
  4.59833468E-07 -2.37180092E-01  3.17425955E+00  1.02298526E+00 -4.51174879E-07
  1.31259679E-01  1.05956065E-01  2.08220781E-01 -5.04061176E-03  3.35332368E-08
 -5.80807582E-08  6.17232402E-02 -1.36832179E+00 -2.93821995E-02  6.51238629E-01
 -3.23485886E-02  7.17098997E-01  6.17232402E-02 -1.36832179E+00 -2.93821995E-02
  6.51238629E-01 -3.23485886E-02  7.17098997E-01  9.30059769E-02  2.93713927E-01
 -1.48323800E-01 -1.61878047E-01 -1.11819702E-07 -4.25374405E+00 -3.16814253E-01
  2.46342654E+00  1.07330251E-06  2.50640039E-01  7.59308821E-01  9.77401664E-01
 -2.18334878E-07  5.12781275E-02  1.67212838E-01  2.71054981E-01  9.15431436E-02
 -1.43825243E-07 -6.54995120E-08 -1.79534197E-02 -5.66233563E-02  1.38810863E-01
  2.57362924E-02  5.76242094E-08  8.20748057E-01 -3.75131284E+00  2.20127968E-01
 -4.91749296E-07 -4.83783260E-02 -9.25706869E-01 -1.23106180E-01  6.66186767E-07
 -4.61576599E-02  3.83629387E-03 -5.23185794E-02 -1.72477284E-01  2.47752507E-08
 -5.62601326E-08 -1.10935780E-01 -3.50489250E-01 -1.67243132E-01  1.80761305E-01
 -2.59252604E-08  5.07448897E+00 -9.13506219E-02 -1.63275409E+00  2.63516586E-07
 -2.99006524E-01  8.70005634E-01 -1.03208764E+00 -1.01775617E-06 -8.58907467E-02
 -1.74419292E-01 -3.23318010E-01  4.96840015E-02 -1.81849212E-08 -4.53553922E-09
 -9.30059769E-02 -2.93713927E-01 -1.48323800E-01 -1.61878047E-01  3.75172988E-08
  4.25374405E+00 -3.16814253E-01  2.46342654E+00 -2.31387489E-07 -2.50640039E-01
  7.59308821E-01  9.77401664E-01  1.05100434E-06 -5.12781275E-02 -1.67212838E-01
 -2.71054981E-01 -9.15431436E-02  1.80009378E-08  8.19818131E-09  1.79534197E-02
  5.66233563E-02  1.38810863E-01  2.57362924E-02 -2.59249581E-08 -8.20748057E-01
 -3.75131284E+00  2.20127968E-01  2.63514427E-07  4.83783260E-02 -9.25706869E-01
 -1.23106180E-01 -1.01776389E-06  4.61576599E-02 -3.83629387E-03  5.23185794E-02
  1.72477284E-01 -1.53586264E-08 -1.07400972E-08  1.10935780E-01  3.50489250E-01
 -1.67243132E-01  1.80761305E-01  5.76232705E-08 -5.07448897E+00 -9.13506219E-02
 -1.63275409E+00 -4.91746564E-07  2.99006524E-01  8.70005634E-01 -1.03208764E+00
  6.66193623E-07  8.58907467E-02  1.74419292E-01  3.23318010E-01 -4.96840015E-02
 -2.61777116E-08  5.56217920E-08  1.65579198E-01  1.11784341E+00 -3.20034942E-02
 -2.15681771E-01 -1.97420229E-01 -1.33368842E+00 -1.65579198E-01 -1.11784341E+00
  3.20034942E-02  2.15681771E-01  1.97420229E-01  1.33368842E+00 -7.43639029E-02
 -2.35225318E-01  1.91580463E-01 -3.00934063E-02  8.94586471E-08  3.40360952E+00
 -1.76272257E+00  2.45698611E+00 -8.58448262E-07 -2.00295092E-01 -1.09549007E+00
  2.90143099E-01  1.75109640E-07 -1.89495992E-01  1.55412200E-02 -2.16752386E-01
  7.53505846E-02  1.14962948E-07  5.23553247E-08 -1.17701594E-01 -3.71974045E-01
  4.13527433E-03  2.56765275E-01 -4.60904713E-08  5.38557457E+00  4.80634061E-01
 -9.77520889E-01  3.93332337E-07 -3.16985005E-01  4.61103777E-03 -1.39396614E+00
 -5.33369313E-07 -1.06241410E-01 -1.69759176E-01 -3.43047562E-01  2.01274654E-02
 -1.98121035E-08  4.50040617E-08 -4.33036645E-02 -1.37012847E-01 -1.50768084E-01
 -4.89513677E-02  2.07418729E-08  1.98213638E+00  2.33363474E+00  2.68243175E+00
 -2.10807548E-07 -1.16648999E-01  9.13214219E-01  4.00606677E-01  8.14606515E-07
 -1.89764759E-01  8.85399698E-02 -1.26221796E-01 -4.22640640E-02  1.45459079E-08
  3.62553678E-09  7.43639029E-02  2.35225318E-01  1.91580463E-01 -3.00934063E-02
 -3.00156477E-08 -3.40360952E+00 -1.76272257E+00  2.45698611E+00  1.85117971E-07
  2.00295092E-01 -1.09549007E+00  2.90143099E-01 -8.41207293E-07  1.89495992E-01
 -1.55412200E-02  2.16752386E-01 -7.53505846E-02 -1.43999667E-08 -6.55818972E-09
  1.17701594E-01  3.71974045E-01  4.13527433E-03  2.56765275E-01  2.07416316E-08
 -5.38557457E+00  4.80634061E-01 -9.77520889E-01 -2.10805826E-07  3.16985005E-01
  4.61103777E-03 -1.39396614E+00  8.14612687E-07  1.06241410E-01  1.69759176E-01
  3.43047562E-01 -2.01274654E-02  1.22833895E-08  8.59244624E-09  4.33036645E-02
  1.37012847E-01 -1.50768084E-01 -4.89513677E-02 -4.60897205E-08 -1.98213638E+00
  2.33363474E+00  2.68243175E+00  3.93330151E-07  1.16648999E-01  9.13214219E-01
  4.00606677E-01 -5.33374789E-07  1.89764759E-01 -8.85399698E-02  1.26221796E-01
  4.22640640E-02  2.09444404E-08 -4.44886661E-08 -1.32259822E-01 -8.94206340E-01
 -2.09512595E-01 -1.41456630E+00 -7.69934394E-02 -5.20819315E-01  1.32259822E-01
  8.94206340E-01  2.09512595E-01  1.41456630E+00  7.69934394E-02  5.20819315E-01
 -2.22317546E-04 -4.28968276E-04 -3.82350882E-02  8.23226155E-02 -3.60541682E-10
  6.28891917E-03  2.36420769E+00 -5.17713203E+00  2.69657445E-09 -9.02778713E-05
  4.41630427E-02 -8.78399508E-02 -4.63846576E-09  1.77271530E-01 -1.78370831E-01
 -6.50933596E-04 -1.77769778E-01 -1.06103233E-10 -4.83176636E-11  8.46001124E-05
  1.59565438E-04 -9.03369115E-02  8.96991175E-03  1.79009938E-10 -2.42362728E-03
  5.66598583E+00 -5.49164412E-01 -1.45667517E-09  2.32566107E-05  9.42625691E-02
 -1.04340412E-02  5.79963129E-09  4.53837244E-02 -4.49617016E-02  2.48671351E-04
  2.66243249E-01  4.36356132E-11 -1.60495967E-10  1.38471366E-04  2.73849885E-04
 -5.30656306E-02 -7.36151298E-02 -1.21157520E-10 -3.88477475E-03  3.30884286E+00
  4.62985866E+00  1.00102770E-09  6.55001434E-05  6.01409111E-02  8.00440759E-02
 -6.70324014E-09 -2.22361147E-01  2.23037092E-01  4.04872908E-04 -8.79472374E-02
 -5.86404044E-11  5.86420888E-12 -2.22317546E-04 -4.28968276E-04  3.82350882E-02
 -8.23226155E-02  1.53075967E-10  6.28891917E-03 -2.36420769E+00  5.17713203E+00
 -9.50368315E-10 -9.02778710E-05 -4.41630427E-02  8.78399508E-02  6.79684248E-09
  1.77271530E-01 -1.78370831E-01 -6.50933596E-04 -1.77769778E-01  6.32006738E-11
  2.87816019E-11  8.46001124E-05  1.59565438E-04  9.03369115E-02 -8.96991175E-03
 -1.21157557E-10 -2.42362728E-03 -5.66598583E+00  5.49164412E-01  1.00102124E-09
  2.32566103E-05 -9.42625691E-02  1.04340412E-02 -6.70323520E-09  4.53837244E-02
 -4.49617016E-02  2.48671351E-04  2.66243249E-01 -3.40723080E-11 -4.80849124E-11
  1.38471366E-04  2.73849885E-04  5.30656306E-02  7.36151298E-02  1.79000551E-10
 -3.88477475E-03 -3.30884286E+00 -4.62985866E+00 -1.45666035E-09  6.55001431E-05
 -6.01409111E-02 -8.00440759E-02  5.79961311E-09 -2.22361147E-01  2.23037092E-01
  4.04872908E-04 -8.79472374E-02 -9.24305930E-11  1.38273786E-10 -1.15395685E-04
  2.87024544E-03  5.40267668E-05 -1.00246354E-03  7.00604831E-05 -1.85221698E-03
 -1.15395685E-04  2.87024544E-03  5.40267668E-05 -1.00246354E-03  7.00604831E-05
 -1.85221698E-03  1.37603940E-06  6.07407977E-06  1.95774435E-06  8.85769789E-07
  1.00991826E-01 -5.71974318E-05 -3.96444889E-05 -1.81597901E-05 -6.54846789E-01
  8.56190765E-07 -2.45365907E-05 -1.11140894E-05  6.19937770E+00  6.04070555E-07
  3.60415785E-08  4.07022620E-06  3.61547634E-07 -3.56904581E-02 -1.62541303E-02
 -6.57251939E-07 -2.96188205E-06 -1.50559168E-06 -1.06483296E-06 -1.00992296E-01
  2.72283851E-05 -9.04881864E-06  2.32468438E-05  6.54846260E-01 -3.25823317E-07
  2.17227103E-05  1.17915213E-05 -6.19936603E+00 -1.60891562E-07 -5.64296677E-08
 -1.94812314E-06 -1.62512025E-06  3.76854278E-03  3.90355001E-02 -6.43674722E-07
 -2.94426104E-06  1.78210326E-06  5.14144283E-07  1.00991510E-01  2.73411056E-05
 -1.22352873E-05  2.09917529E-05 -6.54844336E-01 -5.35705499E-07 -2.34773396E-05
 -8.80148554E-06  6.19935852E+00 -1.42720798E-06  1.29589008E-06 -1.91062362E-06
 -3.01024876E-07  3.19215216E-02 -2.27821616E-02  1.27623212E-06  5.83623202E-06
 -2.23291763E-06 -1.01113455E-06 -1.00991826E-01 -5.29722258E-05  4.07678308E-05
  1.86709513E-05  6.54846789E-01  6.71965553E-07  2.58643289E-05  1.17187235E-05
 -6.19937770E+00  4.00489962E-07 -1.34343705E-07  3.79450287E-06  3.39698816E-07
 -3.56904581E-02 -1.62541303E-02 -6.38471350E-07 -2.92091539E-06  1.55921021E-06
  9.96750348E-07  1.00992296E-01  2.71255993E-05  7.71332244E-06 -2.28205993E-05
 -6.54846260E-01 -5.32354065E-07 -2.20988822E-05 -1.18138282E-05  6.19936603E+00
 -1.36671669E-07  7.33115018E-09 -1.89521094E-06 -1.58842005E-06  3.76854278E-03
  3.90355001E-02 -6.62455403E-07 -2.98529336E-06 -1.79821938E-06 -4.29061229E-07
 -1.00991510E-01  2.74446037E-05  1.16798822E-05 -2.22793316E-05  6.54844336E-01
 -3.29146508E-07  2.32135265E-05  8.53238478E-06 -6.19935852E+00 -1.50547327E-06
  1.28631379E-06 -1.96354054E-06 -2.83540400E-07  3.19215216E-02 -2.27821616E-02
 -7.50663354E-07 -1.75500958E-05  3.10272474E-07  9.60793907E-06  2.55866804E-07
  9.74074728E-06 -6.26068245E-07 -1.99267686E-05  2.52495222E-07  9.66184332E-06
  3.13598535E-07  9.68675466E-06  1.00419576E-01  4.58895169E-01  2.21139849E-01
 -3.39848988E-02 -5.64408230E-07 -4.21110997E+00 -2.82396898E+00 -2.25496992E+00
  3.35125769E-06  6.46688480E-02 -2.73884173E+00  6.88313571E-01 -4.38235653E-05
  1.19215036E-01 -9.73759366E-02  2.97540049E-01 -6.17313604E-02  3.73061781E-07
  1.69898529E-07  3.11180857E-02  1.42189736E-01 -1.68221116E-01  7.45148695E-02
  6.52846406E-07 -1.30481275E+00 -1.34272655E+00 -9.61440237E-01 -4.06990862E-06
  2.00457866E-02  2.43496111E+00 -9.22287989E-01  4.32102162E-05 -3.76330659E-02
  4.44220939E-02  9.22018398E-02 -1.85334423E-01 -5.52132467E-08 -2.04343062E-07
 -1.31526498E-01 -6.01114347E-01  2.29924123E-01 -9.98610004E-02 -6.88947039E-07
  5.51594350E+00 -3.51644700E+00  2.97507948E+00  4.34339317E-06 -8.47069995E-02
 -2.78934127E+00  1.06874990E+00 -4.27427602E-05 -7.46067782E-02  4.61124410E-02
 -3.89707680E-01  2.50519464E-02 -2.05798311E-07  1.68091862E-07  1.00419576E-01
  4.58895169E-01 -2.21139849E-01  3.39848988E-02  6.72474077E-07 -4.21110997E+00
  2.82396898E+00  2.25496992E+00 -4.37819958E-06  6.46688480E-02  2.73884173E+00
 -6.88313571E-01  4.27031984E-05  1.19215036E-01 -9.73759366E-02  2.97540049E-01
 -6.17313604E-02  2.32130881E-07  1.05716661E-07  3.11180857E-02  1.42189736E-01
  1.68221116E-01 -7.45148695E-02 -6.88953035E-07 -1.30481275E+00  1.34272655E+00
  9.61440237E-01  4.34340966E-06  2.00457866E-02 -2.43496111E+00  9.22287989E-01
 -4.27428041E-05 -3.76330659E-02  4.44220939E-02  9.22018398E-02 -1.85334423E-01
 -8.29208743E-09 -2.65589380E-07 -1.31526498E-01 -6.01114347E-01 -2.29924123E-01
  9.98610004E-02  6.52841896E-07  5.51594350E+00  3.51644700E+00 -2.97507948E+00
 -4.06989860E-06 -8.47069995E-02  2.78934127E+00 -1.06874990E+00  4.32101546E-05
 -7.46067782E-02  4.61124410E-02 -3.89707680E-01  2.50519464E-02 -1.90397540E-07
  9.24911951E-08 -4.73698884E-02 -1.54512432E+00 -1.47060764E-02 -4.78848039E-01
  6.19519225E-02  2.02391959E+00 -4.73698884E-02 -1.54512432E+00 -1.47060764E-02
 -4.78848039E-01  6.19519225E-02  2.02391959E+00  9.38919493E-02  4.29167654E-01
  1.05033950E-01  1.91620553E-01 -5.24809619E-07 -3.93795108E+00 -3.36942227E+00
 -5.08949460E-01  3.11465323E-06  6.04797717E-02 -1.09780318E+00 -2.56993384E+00
 -4.07983906E-05 -6.48667940E-02  8.51077896E-02  2.78198654E-01  1.18896954E-01
  3.47744591E-07  1.58368658E-07 -1.33910742E-01 -6.11995776E-01 -6.43102694E-02
 -2.44531696E-01  6.07531324E-07  5.61582696E+00  1.63884961E-01  4.67973131E+00
 -3.78666020E-06 -8.62508323E-02  8.64021735E-01  2.87389894E+00  4.02247762E-05
  1.81923735E-02 -4.72136040E-02 -3.96773359E-01 -5.23480409E-02 -5.15173882E-08
 -1.89936253E-07  4.00032235E-02  1.82872844E-01  3.89675051E-02  1.82952845E-01
 -6.41285507E-07 -1.67789463E+00  1.85176820E+00  1.90960707E-01  4.04238318E-06
  2.57620420E-02 -7.17521952E-01 -2.51929650E+00 -3.97876015E-05 -1.46302219E-01
  1.54888271E-01  1.18527217E-01 -7.45035005E-02 -1.91510255E-07  1.56517168E-07
  9.38919493E-02  4.29167654E-01 -1.05033950E-01 -1.91620553E-01  6.25879138E-07
 -3.93795108E+00  3.36942227E+00  5.08949460E-01 -4.07492396E-06  6.04797717E-02
  1.09780318E+00  2.56993384E+00  3.97505964E-05 -6.48667940E-02  8.51077896E-02
  2.78198654E-01  1.18896954E-01  2.16022934E-07  9.83808062E-08 -1.33910742E-01
 -6.11995776E-01  6.43102694E-02  2.44531696E-01 -6.41291093E-07  5.61582696E+00
 -1.63884961E-01 -4.67973131E+00  4.04239855E-06 -8.62508323E-02 -8.64021735E-01
 -2.87389894E+00 -3.97876423E-05  1.81923735E-02 -4.72136040E-02 -3.96773359E-01
 -5.23480409E-02 -7.64434980E-09 -2.47212872E-07  4.00032235E-02  1.82872844E-01
 -3.89675051E-02 -1.82952845E-01  6.07527134E-07 -1.67789463E+00 -1.85176820E+00
 -1.90960707E-01 -3.78665090E-06  2.57620420E-02  7.17521952E-01  2.51929650E+00
  4.02247188E-05 -1.46302219E-01  1.54888271E-01  1.18527217E-01 -7.45035005E-02
 -1.77103156E-07  8.58217950E-08 -4.41297243E-02 -1.44500938E+00  6.30663526E-02
  2.06072015E+00 -1.87625220E-02 -6.15648351E-01 -4.41297243E-02 -1.44500938E+00
  6.30663526E-02  2.06072015E+00 -1.87625220E-02 -6.15648351E-01 -1.98932596E-01
 -1.01621258E+00 -8.60181827E-02 -3.91658623E-02 -2.39746923E-07  1.55126356E+01
  9.44005225E+00  4.29918313E+00  2.38686775E-06  2.76214573E-02  6.81171917E-01
  3.10224464E-01  2.96182630E-06 -1.24821118E-02  3.03128542E-02 -4.22348346E-01
 -2.83796438E-02 -3.39612681E-07 -1.54663424E-07  1.98933133E-01  1.01621222E+00
  9.08797508E-03  9.40801030E-02  7.66947704E-08 -1.55125999E+01 -9.96885422E-01
 -1.03248436E+01 -8.47234302E-07 -2.75276370E-02 -7.19372068E-02 -7.45017101E-01
 -1.76141764E-06 -4.09050892E-02  2.30820426E-02  4.22348873E-01  7.19703634E-03
  6.51906233E-08 -1.24498942E-07 -1.98932829E-01 -1.01621759E+00  7.69320112E-02
 -5.49015872E-02  4.15753858E-09  1.55126079E+01 -8.44320341E+00  6.02576263E+00
  2.43744705E-07  2.75951092E-02 -6.09220041E-01  4.34837382E-01  9.01980484E-07
 -1.67788007E-03  1.95154894E-02 -4.22348546E-01  3.55795381E-02 -2.41113701E-08
 -2.85581878E-08  1.98932596E-01  1.01621258E+00 -8.60181827E-02 -3.91658623E-02
  2.77350493E-08 -1.55126356E+01  9.44005225E+00  4.29918313E+00 -1.59069208E-07
 -2.76214573E-02  6.81171917E-01  3.10224464E-01 -8.68191347E-07  1.24821118E-02
 -3.03128542E-02  4.22348346E-01  2.83796438E-02  2.18427024E-08  9.94814876E-09
 -1.98933133E-01 -1.01621222E+00  9.08797508E-03  9.40801030E-02  4.15891217E-09
  1.55125999E+01 -9.96885422E-01 -1.03248436E+01  2.43737353E-07  2.75276370E-02
 -7.19372068E-02 -7.45017101E-01  9.01966998E-07  4.09050892E-02 -2.30820426E-02
 -4.22348873E-01 -7.19703634E-03 -3.73705949E-08  5.59656225E-10  1.98932829E-01
  1.01621759E+00  7.69320112E-02 -5.49015872E-02  7.66927610E-08 -1.55126079E+01
 -8.44320341E+00  6.02576263E+00 -8.47227408E-07 -2.75951092E-02 -6.09220041E-01
  4.34837382E-01 -1.76139797E-06  1.67788007E-03 -1.95154894E-02  4.22348546E-01
 -3.55795381E-02 -5.11249158E-08  1.30905068E-07  2.59368145E-01  3.15281613E+00
 -2.59368327E-01 -3.15278170E+00  2.59365729E-01  3.15282298E+00 -2.59368145E-01
 -3.15281613E+00  2.59368327E-01  3.15278170E+00 -2.59365729E-01 -3.15282298E+00
 -1.25998485E-02 -3.67682512E-02  3.17346906E-02 -5.70221855E-02 -8.64701157E-09
  2.83259633E-01 -8.72754346E-03  3.18413468E-02  4.09896343E-08 -1.00847926E+01
 -4.23452814E+00  4.88340440E+00  9.55743231E-08 -3.87419744E-02 -1.08281519E-02
 -2.84365713E-02  2.04235601E-02  7.09834465E-09  3.23265801E-09  6.99481813E-02
  2.04121274E-01 -2.55590400E-02 -2.67920591E-02  2.06596599E-10 -1.57256765E+00
  8.57055467E-03 -3.01941319E-02 -1.09838235E-08  5.59862220E+01  3.14662367E+00
  9.90105924E+00 -5.63451853E-08  1.61864191E-01  1.13321261E-01  1.57864912E-01
  3.69082621E-03  7.90392461E-10 -3.40005061E-09 -5.73488266E-02 -1.67354584E-01
 -4.39398867E-02 -2.04625713E-02  7.10480889E-10  1.28931277E+00 -7.24743291E-03
  3.11117026E-02  1.41520622E-09 -4.59014296E+01  9.11488676E+00 -1.56437200E+00
  2.77292835E-08 -1.20197927E-01 -1.05418563E-01 -1.29429938E-01 -2.61690283E-02
 -2.30497513E-10 -6.51224775E-10 -1.25998485E-02 -3.67682512E-02 -3.17346906E-02
  5.70221855E-02  4.39649537E-10  2.83259633E-01  8.72754345E-03 -3.18413468E-02
 -1.05130646E-09 -1.00847926E+01  4.23452814E+00 -4.88340440E+00 -2.52809829E-08
 -3.87419744E-02 -1.08281519E-02 -2.84365713E-02  2.04235601E-02  3.30993871E-10
  1.50762107E-10  6.99481813E-02  2.04121274E-01  2.55590400E-02  2.67920591E-02
  7.10504831E-10 -1.57256765E+00 -8.57055467E-03  3.01941319E-02  1.41500765E-09
  5.59862220E+01 -3.14662367E+00 -9.90105924E+00  2.77290827E-08  1.61864191E-01
  1.13321261E-01  1.57864912E-01  3.69082621E-03 -6.42563234E-10  2.53634877E-10
 -5.73488266E-02 -1.67354584E-01  4.39398867E-02  2.04625713E-02  2.06580161E-10
  1.28931277E+00  7.24743292E-03 -3.11117026E-02 -1.09836211E-08 -4.59014296E+01
 -9.11488676E+00  1.56437200E+00 -5.63448183E-08 -1.20197927E-01 -1.05418563E-01
 -1.29429938E-01 -2.61690283E-02 -2.04607940E-09  2.82814772E-09 -3.17312640E-02
  9.89586662E-02  1.76155879E-01 -5.49392998E-01 -1.44425358E-01  4.50439017E-01
 -3.17312640E-02  9.89586662E-02  1.76155879E-01 -5.49392998E-01 -1.44425358E-01
  4.50439017E-01  7.34948223E-02  2.14471318E-01 -2.32270669E-02 -2.28300052E-02
  5.04405338E-08 -1.65230419E+00 -3.02706534E-02 -7.65229103E-03 -2.39114571E-07
  5.88253496E+01  9.27211968E+00  5.39123346E+00 -5.57515057E-07  1.25695068E-01
  1.63443462E-01  1.65869350E-01 -1.83661270E-02 -4.14021063E-08 -1.88549306E-08
 -2.58355904E-02 -7.53930177E-02 -6.05893381E-02  1.66562801E-02 -1.20568507E-09
  5.80836142E-01  3.19078016E-02  7.77348164E-03  6.40760332E-08 -2.06789194E+01
  5.51276980E+00 -4.30148804E+00  3.28679906E-07 -5.52050411E-02 -4.64359042E-02
 -5.83078933E-02  2.57730398E-02 -4.61107014E-09  1.98336054E-08 -4.76589421E-02
 -1.39077093E-01  1.33328120E-02  5.28408088E-02 -4.14436305E-09  1.07146493E+00
 -3.09786955E-02 -9.12079589E-03 -8.25666678E-09 -3.81464305E+01  2.82261364E+00
 -7.95888615E+00 -1.61754999E-07 -7.22695546E-02 -1.15228030E-01 -1.07560722E-01
 -1.07847160E-02  1.34461490E-09  3.79877247E-09  7.34948223E-02  2.14471318E-01
  2.32270669E-02  2.28300052E-02 -2.56465999E-09 -1.65230419E+00  3.02706534E-02
  7.65229103E-03  6.13344425E-09  5.88253496E+01 -9.27211968E+00 -5.39123346E+00
  1.47473393E-07  1.25695068E-01  1.63443462E-01  1.65869350E-01 -1.83661270E-02
 -1.93095223E-09 -8.79469307E-10 -2.58355904E-02 -7.53930177E-02  6.05893381E-02
 -1.66562801E-02 -4.14460371E-09  5.80836142E-01 -3.19078016E-02 -7.77348165E-03
 -8.25572111E-09 -2.06789194E+01 -5.51276980E+00  4.30148804E+00 -1.61753037E-07
 -5.52050411E-02 -4.64359042E-02 -5.83078933E-02  2.57730398E-02  3.74832616E-09
 -1.47954251E-09 -4.76589421E-02 -1.39077093E-01 -1.33328120E-02 -5.28408088E-02
 -1.20558606E-09  1.07146493E+00  3.09786955E-02  9.12079589E-03  6.40750794E-08
 -3.81464305E+01 -2.82261364E+00  7.95888615E+00  3.28677045E-07 -7.22695546E-02
 -1.15228030E-01 -1.07560722E-01 -1.07847160E-02  1.19351983E-08 -1.64978389E-08
  1.85087917E-01 -5.77257271E-01 -6.50644946E-02  2.02928476E-01 -1.20023901E-01
  3.74331644E-01  1.85087917E-01 -5.77257271E-01 -6.50644946E-02  2.02928476E-01
 -1.20023901E-01  3.74331644E-01  2.00699942E-02  1.00286910E-01  1.63789718E-02
  1.98361288E-02  4.32548958E-08 -1.19222267E+00 -1.24879823E-01 -4.69043254E-01
 -2.69646337E-07  5.81929557E+01 -3.69339795E+00  8.44858108E+00 -4.85399849E-07
  3.41354017E-02 -4.01776352E-02  4.62104917E-02  1.32268444E-02 -7.90447377E-09
 -3.59977838E-09  1.50539181E-02  7.52204539E-02  2.96851496E-02  1.45607003E-02
 -4.76341848E-09 -8.94181020E-01 -9.55102592E-01 -1.39840319E-01  8.33782779E-08
  4.36515833E+01  2.29399931E+01 -2.10887889E+00  2.83862588E-07 -3.63882964E-02
  3.18594244E-02  3.46615223E-02 -5.26039513E-02 -6.16739519E-09  1.85619489E-08
 -5.01449249E-03 -2.50549836E-02  2.75983068E-02  2.87207298E-02 -2.66723758E-09
  2.97825126E-01 -8.24959568E-01 -1.02351591E+00 -1.81621317E-08 -1.45419538E+01
  1.87664923E+01  2.62347274E+01 -1.37969534E-07  6.59271883E-02 -6.44210816E-02
 -1.15457834E-02  3.59463923E-02  2.08572297E-09  3.77508005E-09 -2.00699942E-02
 -1.00286910E-01  1.63789718E-02  1.98361288E-02 -3.07386491E-09  1.19222267E+00
 -1.24879823E-01 -4.69043254E-01  1.24916731E-08 -5.81929557E+01 -3.69339795E+00
  8.44858108E+00  1.27706344E-07 -3.41354017E-02  4.01776352E-02 -4.62104917E-02
 -1.32268444E-02 -2.33161954E-09 -1.06195414E-09 -1.50539181E-02 -7.52204539E-02
  2.96851496E-02  1.45607003E-02 -2.66741075E-09  8.94181020E-01 -9.55102592E-01
 -1.39840319E-01 -1.81611429E-08 -4.36515833E+01  2.29399931E+01 -2.10887889E+00
 -1.37967766E-07  3.63882964E-02 -3.18594244E-02 -3.46615223E-02  5.26039513E-02
  4.21692127E-09 -9.04926788E-10  5.01449249E-03  2.50549836E-02  2.75983068E-02
  2.87207298E-02 -4.76325046E-09 -2.97825126E-01 -8.24959568E-01 -1.02351591E+00
  8.33772851E-08  1.45419538E+01  1.87664923E+01  2.62347274E+01  2.83859934E-07
 -6.59271883E-02  6.44210816E-02  1.15457834E-02 -3.59463923E-02  9.95419883E-09
 -1.68373023E-08  9.99431062E-02 -5.15392044E-01  7.49702098E-02 -3.86572122E-01
 -2.49771763E-02  1.28775474E-01 -9.99431062E-02  5.15392044E-01 -7.49702098E-02
  3.86572122E-01  2.49771763E-02 -1.28775474E-01 -5.79585061E-03 -2.89587969E-02
 -2.22440369E-02  3.27281961E-02 -1.24909300E-08  3.44260997E-01  6.19225817E-01
 -1.14513695E+00  7.78629742E-08 -1.68066557E+01 -1.32678863E+01  2.90354887E+01
  1.40171593E-07  4.81791216E-02 -4.64384981E-02 -1.33448538E-02 -6.21347529E-02
  2.28435358E-09  1.04032558E-09  1.44822332E-02  7.23647666E-02 -2.75196854E-02
  1.94243314E-02  1.37531982E-09 -8.60252415E-01  9.48370383E-01 -3.14838624E-01
 -2.40757075E-08  4.19939822E+01 -2.38254748E+01  2.40214904E+00 -8.19730958E-08
 -1.53848037E-02  1.10262762E-02  3.33452230E-02  6.56340462E-02  1.78083523E-09
 -5.36012108E-09  2.02790873E-02  1.01330699E-01 -1.33603067E-02  2.15073097E-02
  7.70280000E-10 -1.20461719E+00  6.47970574E-02 -4.44981530E-01  5.24402832E-09
  5.88005173E+01  4.51844953E+00  6.57568134E+00  3.98429509E-08  2.45820549E-02
 -3.06849807E-02  4.66919503E-02 -2.97847184E-02 -6.02235301E-10 -1.09011346E-09
  5.79585061E-03  2.89587969E-02 -2.22440369E-02  3.27281961E-02  8.87605183E-10
 -3.44260997E-01  6.19225817E-01 -1.14513695E+00 -3.60678523E-09  1.68066557E+01
 -1.32678863E+01  2.90354887E+01 -3.68789386E-08 -4.81791216E-02  4.64384981E-02
  1.33448538E-02  6.21347529E-02  6.73273964E-10  3.06653066E-10 -1.44822332E-02
 -7.23647666E-02 -2.75196854E-02  1.94243314E-02  7.70336992E-10  8.60252415E-01
  9.48370383E-01 -3.14838624E-01  5.24372772E-09 -4.19939822E+01 -2.38254748E+01
  2.40214904E+00  3.98422425E-08  1.53848037E-02 -1.10262762E-02 -3.33452230E-02
 -6.56340462E-02 -1.21768433E-09  2.61323123E-10 -2.02790873E-02 -1.01330699E-01
 -1.33603067E-02  2.15073097E-02  1.37529125E-09  1.20461719E+00  6.47970574E-02
 -4.44981530E-01 -2.40754529E-08 -5.88005173E+01  4.51844953E+00  6.57568134E+00
 -8.19721221E-08 -2.45820549E-02  3.06849807E-02 -4.66919503E-02  2.97847184E-02
 -2.87454521E-09  4.86202702E-09 -2.88647252E-02  1.48830996E-01  7.21250441E-02
 -3.71911928E-01  1.00986136E-01 -5.20760608E-01  2.88647252E-02 -1.48830996E-01
 -7.21250441E-02  3.71911928E-01 -1.00986136E-01  5.20760608E-01  9.39770315E-07
  3.03839915E-06  1.02594376E-02 -2.25279739E-02  6.43582120E-13 -3.35244979E-05
 -7.01469956E-01  1.54024998E+00 -4.74606701E-12  1.93137784E-03  4.09589238E+01
 -8.99362051E+01 -8.18994181E-12 -4.26609526E-02  4.26641028E-02  2.11388729E-06
  4.28666923E-02  3.16071676E-13  9.66585385E-14 -9.17880811E-07 -3.37956143E-06
  2.46417302E-02 -2.37933765E-03 -9.16767906E-14  4.49650374E-05 -1.68462939E+00
  1.62662084E-01  1.49931140E-12 -3.39691838E-03  9.83663257E+01 -9.49744112E+00
  5.18374146E-12 -1.08209153E-02  1.08187518E-02 -2.09057817E-06 -6.40953374E-02
 -5.03413910E-14  3.06009893E-13  2.88153163E-07  7.27624503E-07  1.43813023E-02
  2.01500896E-02 -4.63950548E-14 -1.77331410E-05 -9.83163683E-01 -1.37759652E+00
 -3.46650445E-13  1.46402455E-03  5.74074356E+01  8.04385692E+01 -2.86239714E-12
  5.34818777E-02 -5.34811787E-02  8.35961053E-07  2.12283489E-02  7.04077901E-14
  3.95105876E-14  9.39770820E-07  3.03840154E-06 -1.02594376E-02  2.25279739E-02
 -9.70508917E-14 -3.35245304E-05  7.01469956E-01 -1.54024998E+00  2.73827857E-13
  1.93137825E-03 -4.09589238E+01  8.99362051E+01  2.52492803E-12 -4.26609526E-02
  4.26641028E-02  2.11388829E-06  4.28666923E-02 -2.35189570E-14 -5.37576161E-14
 -9.17881480E-07 -3.37956425E-06 -2.46417302E-02  2.37933765E-03 -4.36780631E-14
  4.49650798E-05  1.68462939E+00 -1.62662084E-01 -3.33150226E-13 -3.39691920E-03
 -9.83663257E+01  9.49744112E+00 -2.73491872E-12 -1.08209153E-02  1.08187518E-02
 -2.09057963E-06 -6.40953374E-02  7.72765732E-14 -6.71970201E-14  2.88153852E-07
  7.27628377E-07 -1.43813023E-02 -2.01500896E-02 -1.31034189E-13 -1.77331876E-05
  9.83163683E-01  1.37759652E+00  1.53713184E-12  1.46402569E-03 -5.74074356E+01
 -8.04385692E+01  5.03893655E-12  5.34818777E-02 -5.34811787E-02  8.35962453E-07
  2.12283489E-02  9.57557537E-14 -2.99026740E-13  6.29190038E-07 -7.76451664E-06
 -4.12553650E-06  1.78575998E-05  6.21043667E-07 -1.60494968E-06  6.29189670E-07
 -7.76452476E-06 -4.12553692E-06  1.78576116E-05  6.21044550E-07 -1.60496567E-06
  4.03336853E-02  1.34912982E-01 -3.51437208E-02 -1.60057568E-02  7.83281421E-08
 -1.33100373E+00 -2.96640565E-01 -1.35090412E-01 -4.97247835E-07  1.56805876E+02
  2.77012929E+01  1.26159182E+01 -8.72805092E-07  5.67998551E-02  7.82919479E-02
  8.53177466E-02 -1.42590758E-02 -1.05551833E-08 -4.80686064E-09 -4.03340371E-02
 -1.34913832E-01  3.71043466E-03  3.84384083E-02 -9.20540301E-09  1.33101541E+00
  3.13272579E-02  3.24439573E-01  1.55275574E-07 -1.56804277E+02 -2.92507259E+00
 -3.02978271E+01  5.07637434E-07 -8.36133287E-02 -5.14795451E-02 -8.53184357E-02
  3.61686729E-03 -1.14583197E-08  3.38201692E-08  4.03333821E-02  1.34911949E-01
  3.14339751E-02 -2.24326549E-02 -4.63479164E-09 -1.33099533E+00  2.65313469E-01
 -1.89349293E-01 -3.48594726E-08  1.56804905E+02 -2.47759474E+01  1.76825415E+01
 -2.43698620E-07  6.22234037E-02  7.28670105E-02  8.53171397E-02  1.78753257E-02
  3.92307553E-09  6.88662926E-09 -4.03336853E-02 -1.34912982E-01 -3.51437208E-02
 -1.60057568E-02 -5.74505933E-09  1.33100373E+00 -2.96640565E-01 -1.35090412E-01
  2.40492661E-08 -1.56805876E+02  2.77012929E+01  1.26159182E+01  2.25592769E-07
 -5.67998551E-02 -7.82919479E-02 -8.53177466E-02  1.42590758E-02 -4.33433848E-09
 -1.97412225E-09  4.03340371E-02  1.34913832E-01  3.71043466E-03  3.84384083E-02
 -4.63520216E-09 -1.33101541E+00  3.13272579E-02  3.24439573E-01 -3.48575845E-08
  1.56804277E+02 -2.92507259E+00 -3.02978271E+01 -2.43695324E-07  8.36133287E-02
  5.14795451E-02  8.53184357E-02 -3.61686729E-03  7.77022200E-09 -1.56177280E-09
 -4.03333821E-02 -1.34911949E-01  3.14339751E-02 -2.24326549E-02 -9.20508638E-09
  1.33099533E+00  2.65313469E-01 -1.89349293E-01  1.55273706E-07 -1.56804905E+02
 -2.47759474E+01  1.76825415E+01  5.07632687E-07 -6.22234037E-02 -7.28670105E-02
 -8.53171397E-02 -1.78753257E-02  1.79914822E-08 -3.08445854E-08  1.72812448E-01
 -9.35323032E-01 -1.72810650E-01  9.35307863E-01  1.72812067E-01 -9.35322775E-01
 -1.72812448E-01  9.35323032E-01  1.72810650E-01 -9.35307863E-01 -1.72812067E-01
  9.35322775E-01
Total SCF Density                          R   N=        8001
  2.05332874E+00 -6.27414017E-02  3.29896055E-01  7.35670482E-04  4.81663492E-03
  4.23771758E-01  3.35064794E-04  2.19321981E-03  7.03992165E-04  4.22546436E-01
 -1.02300551E-09  1.79423388E-08  2.75609879E-08  1.25523102E-08  3.32456982E-01
 -1.75533320E-01  2.62438017E-01 -1.64770239E-02 -7.50320101E-03 -6.38300798E-08
  2.30174716E-01  6.38429078E-03 -3.02703195E-02  1.35724098E-01  4.42180824E-03
 -1.11434694E-07 -2.87690561E-02  4.88449095E-02  2.90754970E-03 -1.37857667E-02
  4.42024455E-03  1.28031673E-01 -5.07474503E-08 -1.31016793E-02  2.88249870E-03
  4.38292956E-02 -3.01191063E-09  1.46332864E-08 -4.96912747E-08 -2.26291104E-08
  2.04142079E-01 -3.23800895E-08 -9.24509786E-08 -4.21023330E-08  1.26381702E-01
  1.37855460E-01 -6.23740308E-02  1.48351751E-01  6.75400457E-02  4.04749205E-08
 -8.93268365E-02  4.88215066E-02  2.22270205E-02  7.49327638E-09  1.58482613E-01
  3.21130940E-02 -2.32160920E-02  5.27674208E-02  1.73004089E-02 -5.50270787E-08
 -2.91303199E-02  1.77481348E-02  5.24772424E-03 -4.49735041E-08  4.68283578E-02
  1.50832354E-02  1.46235076E-02 -1.05706368E-02  1.73068691E-02  2.26512930E-02
 -2.42870416E-08 -1.32643649E-02  5.24974242E-03  8.61277020E-03 -1.99448412E-08
  2.13253822E-02  6.03870176E-03  4.57327854E-03  7.29834367E-09 -1.14587975E-08
 -3.01316672E-08 -1.37218583E-08  4.59266436E-02 -1.90577499E-08 -2.72998504E-08
 -1.24319067E-08  2.92040071E-02  8.41208837E-09 -1.18031105E-08 -5.20825673E-09
  7.32134461E-03 -1.94982350E-02  1.66254570E-03 -9.26140672E-03 -1.64038288E-02
 -7.87439358E-09  3.93415902E-03 -3.11632436E-03 -4.28857517E-03 -1.50445278E-09
 -1.07191060E-02 -3.46745046E-03 -1.50811189E-03  5.83676437E-10  1.47626332E-03
 -1.66032731E-02 -3.22004747E-03  1.82576590E-03  1.30175220E-02  3.19292823E-09
 -3.29103504E-03  1.19334683E-03  3.41282149E-03  3.51118275E-10  6.91448632E-03
  2.08257230E-03  8.77365609E-04 -2.54328182E-10 -7.42025007E-04  1.09640725E-03
 -1.06835419E-02 -1.62576881E-02  5.80619156E-04  2.64337127E-04 -5.51040214E-10
 -1.18564389E-02  1.60640763E-03  7.31576288E-04 -8.35548941E-10  2.52831704E-03
  1.14867367E-03  5.23028507E-04  3.48033111E-10 -4.94915020E-05  2.53541512E-04
  9.38318466E-04 -1.92063721E-03  3.23924606E-03 -1.80736159E-02  4.01324807E-03
 -7.34276330E-09  4.79356376E-03 -5.38284809E-03  4.31600773E-04 -1.23101938E-09
 -1.17000633E-02 -3.61984770E-03 -1.72006423E-03  5.56221851E-10  4.03165590E-04
 -1.51145976E-04 -2.01054622E-04  1.44150175E-03 -7.66985657E-09  1.66059321E-08
 -3.01189847E-08 -1.18886186E-08  7.21556126E-03  1.42349797E-08 -1.31919630E-08
 -5.19802209E-09  4.20755991E-03 -2.11573960E-08 -7.51152110E-09 -3.42670384E-09
  7.79529371E-04  1.23386620E-09 -6.68070941E-10 -8.70945484E-10  1.34645270E-09
  3.32644433E-04 -3.49300283E-09  7.56251988E-09 -1.18885483E-08 -9.42866789E-09
  3.28615280E-03  6.48419218E-09 -5.19732588E-09 -4.14520357E-09  1.91621792E-03
 -9.65819770E-09 -3.43388393E-09 -1.54272867E-09  3.55029589E-04  6.58090406E-10
 -4.00423623E-10 -3.96670634E-10  5.16558111E-10 -1.87139295E-04  6.58343852E-04
  1.72706801E-02 -3.35648040E-02 -6.51899887E-02  4.56888495E-02 -4.13308219E-09
  2.63931627E-05 -8.16429917E-03  7.13201721E-03  3.19512893E-09 -9.44836276E-02
 -1.79808076E-02 -2.93996163E-03  3.71169176E-09 -3.10910782E-03 -4.81711023E-05
  2.18566015E-03  5.56048994E-03  1.49988473E-09  4.48310224E-11  2.05332866E+00
 -3.35647946E-02  5.79117069E-02  1.32575465E-01 -9.82565069E-02 -1.76949279E-09
  2.94323523E-02  3.74413856E-02 -1.37489669E-02 -8.59122332E-09  5.07690917E-02
  9.46739105E-03  4.98241241E-03 -3.77341367E-09  5.47178989E-03 -1.16519124E-03
 -4.51230199E-03 -1.06788077E-02 -3.93756430E-09 -4.19256178E-10 -6.27414441E-02
  3.29896240E-01  6.43995105E-02 -1.36018005E-01 -2.06517436E-01  1.61778991E-01
 -2.30312536E-08 -9.05089124E-02 -4.55543171E-02  7.02067122E-02  1.85820038E-08
 -7.33474498E-02 -3.19692381E-02  5.13888039E-03  2.31540254E-08  6.12192789E-03
 -6.86520078E-04  4.67162574E-03  1.01073686E-02  5.06921465E-09 -4.16401265E-10
  7.78396381E-05  5.08410436E-04  4.22241670E-01 -4.67966645E-02  9.34335021E-02
  1.55710880E-01 -9.73798965E-02 -6.61447925E-09  9.67048722E-02  4.25452300E-02
 -2.06698280E-02 -8.64802067E-09 -7.88846085E-02 -2.27027048E-02 -3.69791458E-03
 -6.75447710E-09  9.87123790E-03 -1.30466310E-02 -4.31320141E-03 -2.25950419E-03
 -1.27233171E-09  6.94100627E-10  8.04682463E-04  5.26796211E-03  1.78010872E-04
  4.24075093E-01 -1.67320555E-08  4.12135959E-08 -9.26213099E-08 -4.34595867E-08
  2.16212541E-01 -3.49421409E-09 -9.96818381E-08 -3.66822307E-08  1.28520341E-01
 -1.18510742E-07 -6.15666601E-08 -3.10251980E-08  2.57361834E-02  8.00051868E-10
 -8.92039281E-10 -2.29423619E-09  7.70958630E-10  1.03307633E-02 -7.80692827E-03
  4.07788240E-09 -1.35266358E-08  2.46934955E-08 -5.56759123E-09  3.32456873E-01
  2.61224432E-05  2.94327964E-02  1.20874936E-01 -5.41579288E-02  1.01613291E-07
  3.54804142E-03  3.31467806E-02  1.79316362E-04  5.21645599E-08  7.55335342E-02
  1.62199685E-02  9.29340481E-03  1.04188555E-08  2.26135107E-03  4.98024906E-04
 -2.72143997E-03 -1.07253492E-02 -4.31523549E-09 -1.47533039E-09 -1.75533429E-01
  2.62438661E-01 -1.74029514E-03 -1.80207478E-02  4.04928628E-08  2.30175235E-01
  9.39873597E-03 -2.51738491E-02 -5.79622272E-02  6.59413275E-02 -1.51096520E-08
 -1.06053066E-02 -1.23075284E-02  2.51119157E-02 -1.42349785E-10 -2.81230941E-02
 -1.17466899E-02  1.77511585E-04  4.65703433E-09  1.30833857E-03  1.06606603E-04
  7.50569557E-04  4.02140841E-03  1.41442066E-09 -1.18786049E-11  6.74155622E-04
 -3.19630249E-03  1.26126046E-01  1.12085114E-03 -2.84468572E-09 -3.03792796E-03
  4.25870340E-02 -5.40278563E-03  3.09389117E-02  3.82810327E-02 -8.26408217E-03
  7.02115071E-08  3.14054405E-02  8.85391794E-03 -6.32555393E-04  4.29321317E-08
 -2.64626425E-02 -7.31600696E-03 -4.10741199E-04  9.01455345E-09  2.06376403E-03
 -3.87491682E-03 -1.28108045E-03  2.08934539E-04  9.45928409E-10  4.55818224E-10
  6.98252171E-03 -3.31072495E-02  1.12016210E-03  1.37630212E-01  3.81052287E-08
 -3.14651965E-02  7.30534650E-04  5.00876400E-02 -1.43597485E-08  3.33836549E-08
 -6.92588664E-08 -2.96495758E-08  1.28520222E-01  5.58221358E-09 -6.74375115E-08
 -2.42354825E-08  7.71865809E-02 -6.42677842E-08 -3.85267413E-08 -1.93307698E-08
  1.60692445E-02  1.01781308E-09 -9.10747759E-10 -1.76970141E-09  1.18931303E-09
  6.23414995E-03 -5.30032500E-03  3.34462052E-09 -1.23580806E-08  1.67072459E-08
 -2.70152913E-09  2.04142806E-01  2.15654974E-08 -8.06320858E-10  2.48831338E-08
  1.26382640E-01 -9.44842622E-02  5.07720441E-02 -5.07760017E-02 -9.49749782E-02
 -5.94712433E-08  7.55372058E-02 -1.58892802E-02 -3.51869363E-02 -3.08584422E-08
 -1.15651755E-01 -3.14220054E-02 -1.41486040E-02 -1.44150447E-08  8.34494621E-03
 -7.57269619E-03 -1.64323708E-03  5.45641672E-03  1.15742755E-08  7.33893948E-09
  1.37851709E-01 -6.23668888E-02  1.56861145E-02  1.62242085E-01  3.59487001E-08
 -8.93199437E-02  5.16258180E-03  5.33920819E-02  1.50476353E-08  1.58476374E-01
  3.06676403E-03  1.63149156E-03 -1.29083107E-03  1.56905758E-02  1.72101263E-08
  3.51398009E-03  5.84852372E-04  4.41843053E-03  1.19549772E-08 -3.16894615E-03
 -1.25108163E-03  2.70348044E-04  3.84241814E-09 -2.64639954E-04  8.33542898E-05
 -8.72355683E-05  4.75354483E-04 -1.01766597E-10 -3.29302438E-10  3.39078428E-03
 -2.45090636E-03  1.52002199E-02  4.38664808E-03  5.36293701E-09 -3.07523781E-03
  6.35280855E-03  1.33051610E-03  4.65095686E-09  4.94509778E-03  1.97127185E-03
 -1.79603298E-02  1.05738859E-02 -1.21588328E-02 -3.43761258E-02  6.22090958E-09
  1.83612454E-02 -3.07784981E-03 -1.27415059E-02  7.54436285E-09 -3.43138659E-02
 -9.45588044E-03 -4.40774279E-03  1.09130218E-09  2.70762648E-03 -2.61275194E-03
 -3.41097227E-04  1.62526832E-03  3.41752515E-09  2.13823651E-09  3.51220584E-02
 -2.53900295E-02  4.39158016E-03  6.02230929E-02  2.04962780E-08 -3.18588576E-02
  1.33218911E-03  2.00095025E-02  1.16650481E-08  5.12157166E-02  1.53115723E-03
  1.76851681E-02 -8.90790612E-09  1.80486730E-08 -8.82237289E-09 -1.38191668E-09
  2.57381722E-02  9.62838082E-09 -1.54100134E-08 -4.57193401E-09  1.60706266E-02
 -4.70778921E-10 -6.69449301E-09 -3.33788467E-09  3.81485563E-03 -1.28481580E-10
 -1.58938578E-10 -7.83655476E-10  5.52808236E-11  1.32066184E-03 -1.57179370E-03
 -2.20008774E-10 -3.30690498E-09 -4.80193166E-09  3.20492655E-09  4.59287611E-02
  5.82726329E-09 -1.85739234E-09  7.97183374E-09  2.92055382E-02 -5.53605830E-09
  2.20985532E-09  7.30325809E-10  7.32216394E-03 -3.33253147E-03  5.22253323E-03
 -7.17069702E-03 -8.12134205E-03  1.39111679E-09  6.39548561E-03 -2.55591027E-03
 -2.89592018E-03  2.99252244E-09 -8.79583711E-03 -2.69034573E-03 -1.14318810E-03
  1.04928312E-09  7.77260106E-04 -6.63725615E-04 -2.41615410E-04  4.92570585E-04
  1.14827312E-09  5.51663866E-10 -1.58865643E-02 -4.42873910E-03  4.00777585E-03
  1.22460549E-02  4.86612635E-09 -5.07976419E-03  1.06870612E-03  4.17858353E-03
  3.49712129E-09  1.12808790E-02  3.44380672E-04  3.73859220E-03  7.57577576E-10
  1.26042393E-03  1.75218106E-04 -9.15858977E-04  2.40106838E-03  1.22292263E-02
 -1.28143757E-09 -3.63609805E-03  3.83217697E-04  3.64520920E-03 -2.63259900E-09
  9.56785616E-03  2.83899610E-03  1.00249147E-03 -1.09412990E-09 -9.58331120E-04
  9.48892062E-04  4.04438392E-05 -2.62790622E-04 -7.56125248E-10 -4.18271836E-10
 -2.02149419E-02  2.87133798E-03 -4.79314328E-03 -2.03785438E-02 -4.24554967E-09
  5.72298993E-03 -1.27180679E-03 -6.28176711E-03 -2.90877101E-09 -1.50854307E-02
 -4.90596786E-04 -5.25328905E-03 -4.94698696E-10 -1.00009718E-03  1.82838512E-03
  2.18567150E-03 -4.51232281E-03 -5.59764734E-03  3.01575827E-03 -1.29343767E-09
 -2.72141170E-03 -1.45547691E-03  2.93377498E-04 -5.23726199E-10 -1.64305625E-03
 -2.94137243E-04 -1.93449485E-04 -1.75436158E-11 -2.03927992E-04  2.76141564E-06
  3.09945541E-04  4.17918342E-04  8.08326056E-11 -2.03723238E-11 -1.06835236E-02
 -1.62576583E-02  6.13742630E-05  6.35052164E-04 -1.11814604E-10 -1.18564512E-02
  1.69650423E-04  1.75695393E-03  7.72122098E-11  2.52800788E-03  1.21270445E-04
  1.25625044E-03 -2.28309152E-12  3.28569107E-04 -1.24526516E-04  9.38315969E-04
  5.47182924E-03 -1.07777926E-02 -1.11844218E-02  2.02848971E-03 -6.64028364E-10
 -9.08442861E-03 -2.73010289E-03  1.96399669E-03  1.45256075E-09 -1.34786492E-03
 -7.35912213E-04  2.73749429E-04  1.52840753E-09  3.41417808E-04  5.31558099E-06
  4.02960565E-04  3.07763764E-04  2.24395351E-10  2.60384931E-11 -4.87132431E-04
  8.21566383E-04  1.62239882E-02 -5.33380751E-03  1.59968749E-09  1.21577866E-03
  3.78994304E-03 -1.56860370E-03  9.54777536E-10 -2.96699067E-03 -1.94179921E-04
 -1.00220118E-03 -4.38105704E-10 -7.31524969E-05  1.37063412E-04 -5.09944902E-05
  1.09739327E-03  5.93670805E-10 -1.74597336E-09 -8.49948017E-11  5.91747453E-10
 -1.07413288E-02  1.54900218E-09  5.29712624E-09  2.92932074E-09 -7.03905254E-03
 -9.01187559E-09  1.49133072E-09  5.54442298E-10 -1.91567247E-03  2.28372875E-10
 -6.07284298E-11  5.96886699E-11  2.06544414E-10  2.31547672E-05 -4.14314131E-04
  1.30836417E-10  2.93871498E-10  1.63377809E-09  1.93648819E-10  7.61795265E-04
 -3.82734997E-09  5.24785885E-10 -3.08465811E-09  4.44240238E-04  6.74379212E-09
 -1.19569182E-09  5.32944197E-10  8.22327713E-05 -1.00900078E-10  6.05218157E-11
  5.49725752E-11  5.85645045E-11  7.38979479E-04 -6.50423607E-10  1.43942861E-09
 -1.31224793E-09 -1.12800315E-09  7.23174539E-03 -6.02421186E-11 -2.32898589E-09
 -1.09197960E-09  4.17248473E-03 -5.46840544E-09 -1.93760766E-09 -9.27502308E-10
  7.37937033E-04 -3.50599316E-11 -7.73625238E-13 -7.41934273E-11 -6.42476525E-11
  2.71431053E-04 -2.59537781E-05 -1.69541858E-10 -2.06372798E-11 -2.19304096E-10
  1.96698276E-10  7.89185200E-03  1.41773241E-09 -3.52767572E-10  1.11003434E-09
  4.60192539E-03  2.96595174E-09 -7.88376470E-11  9.60834702E-10  8.52620046E-04
  1.14710413E-10 -1.04688050E-10 -1.98949007E-11  2.32501910E-12 -4.74630546E-05
  2.51999322E-04 -3.12075729E-03  8.59987123E-03  1.45663645E-02 -3.38957014E-03
  1.43118968E-09 -4.50796794E-03 -1.41389877E-03 -8.58137323E-03 -4.70121070E-09
  4.42775866E-02  9.04253936E-03 -4.81186607E-05 -4.75387955E-09 -2.04343749E-03
  1.36137787E-03  1.50407939E-04 -4.50121812E-04 -6.45788154E-10 -1.32617797E-10
  1.72705320E-02 -3.35643379E-02 -7.21621955E-02 -3.36111521E-02 -4.24504978E-09
  2.59307477E-05 -1.02585337E-02 -3.50502153E-03 -2.21622037E-09 -9.44791991E-02
 -6.44537690E-03 -1.70410862E-02  1.42624066E-09 -4.98377235E-03  1.82652483E-03
  2.18568003E-03 -4.31064854E-03 -1.64088680E-10 -2.36617465E-11  2.05332871E+00
  8.59993498E-03 -2.02504570E-02 -3.87370077E-02  1.06038932E-02  3.30254357E-09
 -1.15069373E-02 -1.05719129E-02  1.32405791E-02  1.23964408E-08 -3.53752468E-02
 -9.48688154E-03  1.90999327E-03  9.05583925E-09  4.53078856E-03 -2.69436539E-03
  2.84135047E-05  1.34268847E-03  2.15752314E-09  5.86196774E-10 -3.35642903E-02
  5.79104704E-02  1.51379005E-01  6.56836619E-02  1.34677337E-08  2.94328364E-02
  3.06274271E-02  2.55515079E-02  8.52721279E-09  5.07631147E-02  4.20895487E-04
  1.06892617E-02 -9.87279495E-10  8.50315362E-03 -4.19661630E-03 -4.51233044E-03
  8.65772651E-03  2.78282038E-11  2.59179289E-10 -6.27412518E-02  3.29895391E-01
 -1.49458336E-02  4.00501576E-02  5.11158502E-02 -1.53428487E-02  1.09737310E-08
  3.78584166E-02  1.31248899E-02 -3.62081693E-02 -1.65334420E-08  4.09350786E-02
  2.53034122E-02 -5.48187054E-03 -1.63304076E-08 -1.15069336E-02  5.48856233E-03
  5.19568096E-04 -1.33810002E-03 -3.17145012E-09 -7.15325674E-10  7.27264368E-02
 -1.48923831E-01 -2.62140926E-01 -1.23594890E-01 -2.04712527E-08 -1.29002668E-01
 -7.57140629E-02 -2.51330731E-02 -1.23782478E-08  3.16363331E-02 -3.16631450E-03
  6.06935934E-03  3.06192299E-09  1.58660116E-03  3.88107881E-03  6.07116388E-03
 -1.17266190E-02 -8.93116823E-10 -1.55624123E-10 -6.58336452E-04 -4.30648396E-03
  4.23460994E-01 -5.40244226E-04  2.99720929E-03  6.57946783E-03  6.15569142E-03
  2.71510037E-09 -3.26380305E-02 -1.54910944E-02  9.57672294E-03 -5.06001262E-09
  4.28105669E-02  1.61854109E-02  4.51101174E-03 -4.17964476E-09 -3.54786462E-03
  2.14615192E-03 -2.21293344E-07 -1.01601785E-03 -1.54158312E-09 -6.71729518E-10
  3.23732210E-02 -7.10788122E-02 -1.29665033E-01 -4.17563655E-02 -8.98635347E-09
 -3.00311267E-02 -5.27941185E-02  9.49050428E-03 -6.00958146E-09 -1.02968100E-01
 -2.17713643E-02 -3.25067923E-02 -2.63257892E-10 -8.49661320E-03  1.16160658E-02
  1.88898736E-03  4.86596443E-03 -2.59722223E-10 -8.64118971E-11  4.69347465E-04
  3.07466119E-03 -8.82786909E-04  4.22855896E-01  1.51097874E-09 -5.01417442E-09
  2.28103431E-09 -1.55318193E-10 -1.62768308E-02  1.37099343E-08  4.41801846E-08
  2.86996658E-08 -2.27239623E-02 -2.38665099E-07 -1.02281391E-08 -8.82373580E-09
 -1.46446255E-02  9.02722446E-10  6.94723370E-11 -8.18233104E-11  3.06563129E-10
  7.12265756E-03 -9.26797688E-03  1.86320882E-12  2.86102015E-09  1.41065723E-09
  1.09282732E-09  2.16211795E-01 -2.69562167E-08 -5.80240079E-09 -2.63135700E-08
  1.28520484E-01  1.53510254E-07 -2.04171661E-08  2.41867144E-08  2.57360575E-02
 -4.85749144E-10 -7.23674735E-11  5.58326014E-10  1.04877655E-10  1.19262916E-02
  5.04321246E-03  4.99452820E-10 -3.32737175E-09  2.88968091E-10  5.72006140E-10
  3.32457066E-01 -4.50824603E-03 -1.15063271E-02 -4.34033478E-02 -2.47898447E-02
 -6.25293213E-08 -5.39211445E-05 -1.41360594E-02  3.12788150E-04 -2.92818493E-08
 -4.48467509E-02 -1.11059273E-02  6.26598662E-04 -2.73680108E-09  5.05556037E-03
 -3.93661555E-03  1.55179849E-04  6.93139860E-04  2.64347173E-09  1.12281553E-09
  2.55098627E-05  2.94335760E-02  1.07340872E-01  7.76030368E-02 -1.85223180E-08
  3.54976751E-03  1.64184909E-02  2.87969590E-02 -1.10361734E-08  7.55285331E-02
  6.28600479E-05  1.86929882E-02 -5.27055814E-09  8.98289127E-03 -6.22361870E-03
 -2.72154765E-03  6.24425566E-03  2.76721064E-09 -5.63210993E-10 -1.75534114E-01
  2.62439432E-01  1.47342022E-02 -1.05182672E-02  2.29929793E-08  2.30177077E-01
 -2.53796674E-04  1.29094808E-02  2.27033021E-02  1.29314135E-02  4.40949124E-08
  1.39343311E-02  6.67051059E-03 -4.01184403E-03  1.89754850E-08  1.50150392E-02
  8.41103485E-03 -5.25195641E-04  7.57415126E-10 -4.09273950E-03  2.01206827E-03
  1.08100717E-04 -5.81617438E-04 -1.26196235E-09 -4.63937010E-10  9.37873658E-03
 -3.93816153E-02 -6.58193304E-02 -3.37470858E-02  1.18961359E-08 -3.25011629E-02
 -1.82592518E-02 -5.41863739E-03  7.41381072E-09  8.85332748E-03 -1.55039579E-04
  6.22336990E-04  3.96703879E-09  9.01116962E-04  1.37490542E-03  1.48478906E-03
 -3.18595737E-03 -1.99145173E-09  4.81953519E-10 -5.70955710E-03  2.70729916E-02
  1.33785487E-01 -5.54120343E-03 -1.54649330E-08  2.57293430E-02  4.75808282E-02
 -8.69354515E-03  1.09739623E-02  3.36498212E-02 -1.47191006E-07 -3.46738703E-08
 -2.39819027E-03  3.47736605E-03  3.93193756E-03 -2.94601173E-08  2.36571410E-02
  8.25660564E-03  3.11795946E-03 -1.03056494E-08 -1.60749601E-03  5.62896774E-04
 -2.89623028E-04 -2.09579309E-03 -2.94416151E-09 -1.06635965E-09  5.43794174E-03
 -6.33132916E-03 -6.14056917E-02 -4.07495032E-04 -3.23883088E-08  6.51839937E-03
 -2.16759197E-02  5.31915879E-03 -2.08955849E-08 -3.75874310E-02 -6.87063952E-03
 -1.20036797E-02 -3.50005825E-09 -3.53291309E-03  3.85271263E-03  9.41307191E-06
  2.11522509E-04  1.34109671E-09 -7.37815782E-10  4.07476218E-03 -1.93213687E-02
 -5.54264987E-03  1.29973271E-01  9.44546572E-09 -1.83634453E-02 -3.61332171E-03
  4.50952478E-02  2.52957580E-09 -6.98089298E-09  5.05660287E-09  2.75137500E-10
 -2.27239688E-02  7.22009822E-09  3.13630133E-08  1.94801631E-08 -2.12042261E-02
 -1.34820581E-07 -2.57578830E-09 -3.91983017E-09 -1.02001606E-02  6.82759513E-10
  9.73007735E-12  1.30012376E-10  2.33776023E-10  4.14713974E-03 -6.25080933E-03
 -4.10266250E-10  3.36917296E-09  1.44039944E-09  8.93508121E-10  1.28520493E-01
 -1.72791423E-08 -3.18729147E-09 -1.78962780E-08  7.71871620E-02  8.63103951E-08
 -1.22095381E-08  1.26420094E-08  1.60693580E-02 -5.17868037E-10  1.05484729E-10
  3.17889864E-10  1.06413867E-10  7.70721280E-03  2.74876014E-03  1.93377795E-10
 -2.20778785E-09 -8.54602891E-10  4.61798817E-10  2.04142806E-01  1.49853051E-08
 -1.07009571E-08  6.93535449E-09  1.26382605E-01  4.42788295E-02 -3.53775508E-02
 -3.19692548E-02  4.98267660E-02  1.27852205E-07 -4.48476435E-02 -1.02049839E-02
  2.60838883E-02  9.25789994E-08  4.31102047E-02  4.74574009E-03  4.72745461E-03
  3.18411352E-08 -9.18173332E-04  3.41846464E-03  6.79928936E-04 -4.21339693E-06
 -3.02729690E-10 -1.52737307E-09 -9.44803689E-02  5.07626528E-02  5.68609102E-02
 -9.14625820E-02  4.86014443E-08  7.55289644E-02  2.25289954E-02 -3.13539972E-02
  3.71983170E-08 -1.15645118E-01 -3.45460742E-03 -3.42850582E-02  1.29233825E-08
 -7.68542932E-03  8.45760259E-03 -1.64279158E-03  5.23026302E-03 -8.32840145E-09
 -1.42394648E-10  1.37853219E-01 -6.23712981E-02 -1.32652472E-01  9.46993806E-02
 -1.33869530E-07 -8.93240084E-02 -4.36548061E-02  3.11646983E-02 -7.98752294E-08
  1.58471619E-01 -8.88517116E-03  9.67832632E-03  2.25298540E-02 -1.96906499E-02
 -2.50265096E-08  1.10215705E-02  6.76431712E-03 -8.96514539E-03 -2.02465104E-08
 -3.75047696E-03  1.19718675E-03 -6.84779019E-04 -7.42701790E-09 -6.21096812E-05
 -8.65857234E-04 -1.48992265E-04 -8.93475713E-04 -8.57708514E-10  3.07160824E-11
  1.70862406E-02 -8.33923651E-03 -2.76301380E-02  2.73674545E-02 -1.44363565E-08
 -1.41420063E-02 -9.98906997E-03  9.18308426E-03 -1.02466294E-08  2.81296054E-02
  3.58223346E-04  8.52573928E-03 -2.51571070E-09  1.98628568E-03 -2.15907298E-03
  2.51687197E-04 -1.80574047E-03  1.45868254E-09 -1.09291538E-10 -2.87210649E-02
  2.07631745E-02  4.51620188E-02 -2.16936297E-02  2.17910631E-08  2.60526211E-02
  1.54413239E-02 -6.58031259E-03  1.32287029E-08 -4.18786263E-02  1.24292497E-02
  1.68279802E-03  6.02867339E-05  1.97211971E-03  7.28414536E-03  1.72310246E-08
 -1.50935703E-03 -1.85046914E-04  4.76396311E-03  1.20347642E-08  5.55111394E-03
  5.16692047E-04  3.29641469E-04  3.91949239E-09 -2.23255761E-04  4.54329827E-04
 -9.23451124E-05 -1.03474624E-05 -2.92793010E-10 -2.88009968E-10 -6.32509797E-03
  6.70060369E-03 -4.76911458E-04 -8.03351492E-03  4.11351567E-09  1.22248195E-02
  1.68910969E-03 -2.16653830E-03  3.81268186E-09 -1.99016238E-02 -1.19894256E-03
 -6.01795010E-03  1.98980281E-09 -1.56274676E-03  1.45317060E-03 -2.46120792E-04
  5.67344268E-04 -1.28661298E-09 -1.21992906E-10  2.04978270E-02 -1.48180126E-02
 -2.16906432E-02  3.02547398E-02 -2.25008799E-08 -1.85937796E-02 -6.57903008E-03
  1.09193496E-02 -1.32791373E-08  2.98922623E-02 -7.57019688E-03  7.22669210E-03
  4.18562967E-09 -8.83707077E-09 -3.23770524E-11 -2.38255056E-09 -1.46466927E-02
 -2.63010758E-09  9.54291580E-09  5.09648997E-09 -1.02014088E-02 -2.28162328E-08
  1.78819755E-09 -3.88839667E-11 -3.19949526E-03  4.46534548E-10 -7.38632627E-11
  3.28296035E-10  2.43454067E-10  7.63346495E-04 -1.82551247E-03  1.75070223E-10
  1.67383696E-09  4.39614985E-09 -1.58125854E-09  2.57347129E-02 -4.98678905E-09
  3.45774277E-10 -6.15596409E-09  1.60685097E-02  1.37460734E-08 -2.58609617E-09
  1.35499870E-09  3.81434502E-03 -2.38374231E-10  5.26604110E-11  8.38462308E-11
  3.30475288E-10  2.02150865E-03  3.57764252E-04 -7.22210022E-10  3.75239576E-10
 -3.14514093E-09 -4.09260750E-10  4.59266262E-02  4.82261253E-09 -4.12889528E-09
  1.72101808E-09  2.92042011E-02 -1.55035883E-08  2.52399093E-09 -2.61597065E-09
  7.32151529E-03 -1.77242678E-03  3.82968271E-03  9.68096929E-03 -4.95248954E-03
 -1.05079969E-09  4.50096118E-03  3.45013136E-03 -1.53480001E-03 -1.43064471E-09
 -7.57771316E-04 -2.32804017E-04 -1.53114409E-04 -6.72956901E-10  2.46011218E-04
 -2.97785008E-04 -1.85998624E-04 -3.79983984E-04 -3.14536886E-10 -6.28106979E-11
 -4.80558646E-03  8.70208732E-03 -6.68919208E-04  1.00814889E-02 -1.52270300E-09
  5.68509783E-03  3.83033959E-04  1.73717119E-03 -1.07996198E-09  5.98803286E-03
  7.78490793E-04  1.86987997E-03 -9.72794358E-11  4.39773794E-04 -6.78504977E-04
 -3.32282291E-04 -5.08746576E-04  5.55639480E-11 -1.97787050E-11 -1.87675465E-02
  4.30177648E-04 -2.59755532E-04 -1.68946660E-02  5.22369051E-10  2.11060178E-03
  3.92042898E-04 -4.30154758E-03  3.97550871E-10 -6.26861499E-03  1.88367408E-03
 -1.24479081E-03  6.71566563E-11  1.22273885E-03  1.09035325E-03 -1.99323566E-03
 -4.04196362E-03  2.42536846E-03  4.55552801E-10 -3.38204725E-03 -1.60777686E-03
  1.11460438E-04  1.25775028E-10  3.25847871E-03  1.18784491E-03  2.02524407E-04
 -3.20212192E-11 -4.13004063E-04  4.05271907E-04  1.08559706E-04  5.66186499E-05
  1.83621173E-11 -1.91913373E-11  1.64830174E-03 -4.39547941E-03 -5.27342579E-03
 -1.21582465E-02  2.98533034E-12 -2.92577478E-03 -2.11829341E-03 -3.24416546E-03
 -2.80492711E-12 -5.21604418E-03 -5.82456187E-04 -1.81149380E-03 -1.45325665E-11
 -4.43506820E-04  7.86340507E-04  1.31115892E-04  1.60741028E-04 -2.39367200E-11
 -1.62283043E-12 -1.73339642E-02 -1.98762379E-03  6.91005756E-03  1.21482677E-02
  4.54253968E-12 -1.46745916E-03  1.32783966E-03  3.07403314E-03 -2.69965315E-11
  2.46427215E-03 -6.45107630E-04  3.60738590E-04 -1.36604784E-11 -5.84371029E-04
  1.03462611E-03  1.50416956E-04  2.83909972E-05 -5.10041526E-04  9.92166510E-05
  1.09431514E-09  1.55209939E-04 -1.61479063E-04 -2.63577582E-04  5.25367619E-10
  6.79696664E-04  1.28526507E-04 -1.19150720E-04 -2.28486994E-11 -1.86639864E-04
  1.09202682E-04  4.75497544E-05  3.13349691E-05  2.26307336E-11  2.11014959E-11
  2.18567686E-03 -4.51233208E-03 -5.41052937E-03 -3.33986385E-03  3.61196338E-10
 -2.72150992E-03 -9.81798713E-04 -1.11387630E-03  2.64397152E-10 -1.64278170E-03
  2.04080431E-05 -3.51413306E-04  1.50194543E-10 -3.62351142E-04  1.61186851E-04
  3.09949499E-04 -3.12303215E-04 -6.08820226E-11  1.03356646E-11 -1.06834753E-02
 -1.62577548E-02 -5.19236722E-04  3.70502076E-04 -4.62775922E-10 -1.18565989E-02
 -1.43669476E-03  1.02533400E-03 -3.30220027E-10  2.52814913E-03 -1.02729261E-03
  7.33175656E-04 -1.29530515E-10  2.69934762E-05  1.77054284E-04  9.38325223E-04
  1.15544342E-03 -2.81104844E-03 -4.41793213E-03  3.07828391E-03 -2.97060016E-10
 -2.59214285E-03 -1.36666200E-03  2.72474691E-03  7.12177524E-10  9.43598067E-04
 -6.11874677E-04  2.78546165E-04  6.06888535E-10  2.55553525E-04  1.03662646E-04
  3.51071029E-05  4.83586377E-05  1.36650426E-10  3.73887830E-12 -4.48975303E-03
  8.45801317E-03  1.00934898E-02 -4.89651518E-03  9.50071319E-10  9.55792498E-03
  3.63061133E-03 -2.21680109E-03  5.68336711E-10 -8.50732976E-03 -1.50307385E-04
 -2.68039877E-03 -9.99733086E-11 -6.00285676E-04  4.88401990E-04 -3.42506912E-04
  6.41113687E-04  3.69640832E-11  3.50051249E-12  2.40780073E-03 -4.06096940E-03
 -1.82920066E-02  6.27511259E-03  6.65027757E-11 -6.00931990E-03 -5.57102391E-03
  2.37958210E-03  9.10890892E-11  1.46662037E-02 -4.06995915E-03  2.94446269E-03
  1.55274734E-10 -3.30022929E-04  1.40828028E-05  2.52045512E-04  1.65170238E-03
  6.73328504E-10 -1.65590529E-09  4.25881042E-09  2.05780222E-09 -8.76415632E-03
  1.72484052E-10  4.33701882E-09  1.72593864E-09 -5.26635589E-03  4.05145887E-09
  2.54544840E-09  1.25048216E-09 -1.09852392E-03 -5.98698968E-11  5.12543566E-11
  9.45875315E-11 -5.87041953E-11 -3.62917942E-04  2.26452195E-04 -1.73047525E-10
  5.78414736E-10 -1.29414515E-09  2.22665207E-10 -1.16335034E-02 -1.64006577E-09
 -1.56681491E-11 -1.62615781E-09 -7.13300656E-03 -1.03764799E-09 -2.94095818E-10
 -7.96162390E-10 -1.59698067E-03 -2.14980349E-10  1.87412105E-10  6.06330864E-12
 -8.13453233E-11  4.81942845E-05 -2.85883656E-04  2.23179287E-10 -6.33009682E-10
  1.09658216E-09  4.43981511E-10 -6.45364027E-03  7.70079466E-10 -4.44675905E-10
  1.40573105E-09 -3.76328765E-03 -2.53543745E-09  6.99299277E-10 -2.58201238E-10
 -6.97158316E-04  6.77099110E-11  3.54739763E-12 -1.59032686E-11 -4.84895737E-11
  4.14845752E-04  6.43299155E-10 -1.62903554E-09  4.01859486E-09  1.87751791E-09
 -7.73404354E-03  7.68848997E-10  6.10535229E-09  2.63118136E-09 -5.34186644E-03
 -9.31615537E-09  1.49600161E-09  6.88157687E-10 -1.64571250E-03 -3.06153553E-11
  6.28529634E-11  7.47259894E-11 -5.67944665E-11 -1.23326474E-04  1.66148776E-04
 -2.14779653E-10  7.52144171E-10 -1.11933248E-09  2.87534696E-10 -5.68621086E-03
 -2.84350004E-09 -2.02365596E-10 -2.74329162E-09 -4.00966047E-03  8.24189118E-09
 -1.39928155E-09  8.45899225E-10 -1.29016021E-03 -2.12945029E-10  1.65775843E-10
  2.16184493E-11 -6.85272041E-11  3.99867713E-04 -5.09840963E-05  1.38544892E-10
 -5.39907722E-10  1.05913108E-09  3.28887264E-10  4.60599326E-03  1.94637044E-09
 -1.06413900E-09  1.71174111E-09  2.68583873E-03 -9.78550170E-09  1.85469611E-09
 -1.49591051E-09  4.97654915E-04  9.07418511E-11  2.03207505E-12 -4.05284422E-11
 -5.02687454E-11  2.34591941E-04  5.76139850E-04 -3.60773696E-03  6.09321106E-03
  7.71087292E-03  3.51165692E-03 -1.49553425E-09  2.62963694E-02  1.12702894E-02
  5.13272866E-03  6.26514985E-10 -3.55222032E-02 -8.41035725E-03 -3.83048102E-03
  2.04506070E-09  1.27893716E-04 -2.53617573E-04 -4.68351163E-04  2.53119574E-04
 -2.45183597E-10 -1.11706437E-10 -3.12075406E-03  8.60004898E-03  1.02187099E-02
  1.09200581E-02 -7.69468576E-10 -4.50815629E-03  6.72469108E-03 -5.51552994E-03
 -1.10947608E-09  4.42795333E-02  4.56394012E-03  7.80715145E-03 -1.38045520E-09
  8.47765424E-04 -1.52980377E-03  1.50456571E-04 -1.47736098E-03  1.11621145E-10
 -9.74962372E-11  1.72706926E-02 -3.35646355E-02 -6.97282326E-03 -7.93006242E-02
  3.64431975E-10  2.61522679E-05 -2.09396138E-03 -1.06368237E-02  4.23948906E-10
 -9.44811370E-02  1.15364221E-02 -1.41017263E-02  6.43107585E-10  3.35696518E-03
 -6.51425701E-03  2.18571273E-03 -1.24976269E-03  1.56956416E-11  2.92828813E-11
  2.05332874E+00  6.09321106E-03 -1.33458566E-02 -1.68113089E-02 -7.65596839E-03
 -4.99263140E-10 -3.43683193E-02 -1.35738950E-02 -6.18182695E-03 -1.46797299E-09
  3.11201984E-02  9.86070968E-03  4.49040047E-03 -1.95343312E-09 -6.02256080E-04
  6.78241534E-04  4.77673603E-04 -8.49549882E-04  1.60512283E-10  7.33183272E-11
  8.60000141E-03 -2.02510320E-02 -2.85519126E-02 -2.82455352E-02 -8.78260992E-10
 -1.15067719E-02 -1.67527085E-02 -2.53434154E-03 -1.77336353E-10 -3.53799418E-02
 -6.39904186E-03 -7.26123020E-03  7.55676682E-10 -1.89511163E-03  3.73151429E-03
  2.83180050E-05  2.94129271E-03 -4.27471224E-11  1.89967250E-11 -3.35646971E-02
  5.79110936E-02  1.88055321E-02  1.63941691E-01  4.77098566E-10  2.94324004E-02
 -6.81431098E-03  3.93001519E-02  1.92374803E-10  5.07653954E-02 -9.04869728E-03
  5.70763780E-03 -3.07889060E-10 -7.51505147E-03  1.18216940E-02 -4.51239171E-03
  2.02087721E-03  6.19066865E-11  6.89238895E-11 -6.27414017E-02  3.29896055E-01
 -7.71087292E-03  1.68113089E-02  1.52525244E-02  2.26796186E-02 -3.65970347E-09
  4.77498855E-02  7.95887346E-03  1.53758139E-02 -5.15813031E-09 -8.55180712E-03
 -9.59924807E-03 -5.49017442E-03 -5.66853417E-09 -5.71585311E-04  5.43268617E-04
 -1.34359736E-04  1.19513435E-03  4.66157333E-11 -9.85838584E-11 -7.00512910E-03
  1.74299064E-02  2.11904612E-02  1.06980659E-02 -2.60226404E-10  4.71945662E-02
  3.28507870E-02  4.10178628E-03  1.08576208E-09 -1.66044774E-02  5.07799210E-03
 -4.50627193E-03  3.18866682E-09 -1.64011050E-04 -1.63120062E-03  2.60049361E-04
 -1.88874543E-03  2.11707432E-10 -4.65213656E-11  8.32708466E-03 -1.29057761E-02
  1.28128231E-02 -2.90790955E-02  1.04521939E-09 -3.84940574E-02  2.19328371E-02
 -3.58239301E-03  7.19862797E-10  1.04996291E-01 -1.83701051E-02  3.05555792E-02
 -6.92466185E-10  3.50629416E-03 -3.47418924E-03  1.39959560E-03  1.31743913E-02
  1.97923139E-11 -3.31395953E-11 -7.35670482E-04 -4.81663492E-03  4.23771758E-01
 -3.51165692E-03  7.65596839E-03  2.26796186E-02 -2.42186914E-02 -1.66689663E-09
  2.17472962E-02  1.53770795E-02 -1.88001142E-02 -2.34733833E-09 -3.90988891E-03
 -5.49469250E-03 -4.17766199E-05 -2.59514301E-09  1.93967148E-03 -1.95251850E-03
 -6.12087288E-05 -1.66614166E-03 -9.85758689E-11  2.18070106E-10 -1.32135301E-02
  3.61834248E-02  3.26207637E-02  3.60809838E-02  1.27139970E-10  1.64673489E-02
  2.48197361E-02 -1.01495236E-02  5.42001123E-10  5.68617211E-02  1.71589612E-02
  2.47403700E-02  1.69147408E-09  2.68497521E-03 -8.59778462E-03  4.49986076E-04
 -7.94939891E-03  8.58619526E-11  3.38215210E-12  7.91700771E-02 -1.64511690E-01
 -3.51488478E-02 -3.16710639E-01  9.31764607E-11 -1.26735480E-01 -3.12429662E-02
 -8.81571998E-02 -8.26255257E-11 -2.40774765E-02  2.70983355E-03 -1.72991436E-02
 -5.72465319E-10  1.19504265E-02 -5.65542098E-03  6.20248842E-03 -2.16026186E-03
 -1.50058595E-11 -1.43107863E-11 -3.35064794E-04 -2.19321981E-03  7.03992165E-04
  4.22546436E-01  1.18478134E-08 -3.01815328E-08  6.64418973E-08  3.02595125E-08
 -1.32520363E-01  1.90138152E-08  1.24706357E-07  5.67911950E-08 -9.83455851E-02
 -2.88575757E-07  1.76674278E-08  6.70880287E-09 -3.48346984E-02 -5.99339422E-11
  1.11227912E-09  1.20711008E-09 -7.77913238E-10  7.99369492E-04  3.64043883E-04
 -2.90181116E-09  1.33218819E-08 -1.76732187E-08  4.89281889E-09 -1.62767685E-02
 -6.28607193E-08 -5.70073355E-09 -5.97710306E-08 -2.27238360E-02  2.27204726E-07
 -3.49442133E-08  2.89351866E-08 -1.46470547E-02 -3.84091381E-09  2.73283432E-09
  6.65317668E-10 -1.01416699E-09  1.15875918E-02  1.53447807E-03  3.02959917E-09
 -1.21922624E-08  1.61456933E-08  7.02484275E-09  2.16212882E-01  4.32402658E-08
 -2.63406806E-08  3.39911859E-08  1.28520151E-01 -2.37372010E-07  4.27419485E-08
 -3.73439807E-08  2.57370229E-02  1.68157379E-09  7.82342868E-11 -7.96716690E-10
 -6.99065704E-10  1.59553345E-03  1.28502782E-02  8.35313008E-10  1.70076987E-09
 -3.85892009E-10 -1.75668434E-10  3.32456982E-01  2.62963694E-02 -3.43683193E-02
 -4.77498855E-02 -2.17472962E-02  7.21652186E-08 -5.01268939E-02 -1.96710162E-02
 -8.95901873E-03  5.15320776E-08  2.92052493E-02  6.42460953E-03  2.92513321E-03
  1.45217431E-08  6.44782822E-04  8.16447840E-04  1.14812046E-03 -1.13896603E-04
  3.04488964E-09  1.38564408E-09 -4.50792365E-03 -1.15073273E-02 -2.33191528E-04
 -4.99845913E-02  4.86698080E-08 -5.42421772E-05 -7.33864625E-03 -1.20855386E-02
  3.09494042E-08 -4.48492072E-02 -6.09631226E-03 -9.30473048E-03  6.29937033E-09
 -2.20843397E-03  3.32730226E-03  1.55138003E-04  4.14949401E-03 -3.07560942E-09
  1.29316210E-09  2.64106218E-05  2.94319742E-02 -1.35350362E-02  1.31759839E-01
 -2.33293170E-08  3.54767299E-03 -1.67292253E-02  2.86166757E-02 -1.63260287E-08
  7.55299089E-02 -1.61583735E-02  9.40002399E-03 -4.58753135E-09 -7.10516732E-03
  9.86454625E-03 -2.72149392E-03  4.48100280E-03 -2.10316035E-09 -2.97338470E-09
 -1.75533320E-01  2.62438017E-01  1.64770239E-02  7.50320101E-03 -6.07518007E-08
  2.30174716E-01 -1.12702894E-02  1.35738950E-02  7.95887346E-03  1.53770795E-02
 -4.10429862E-08  1.96710162E-02  1.59533052E-03  5.26964070E-03 -2.96307533E-08
  3.59999917E-03 -5.40299279E-04 -1.28224718E-03 -1.04902563E-08 -1.27909822E-03
  8.47392481E-04 -2.28015879E-04  2.50737935E-04 -8.48480946E-10 -5.20200375E-10
  7.40177663E-03 -3.04873573E-03 -1.44941365E-02 -1.21734543E-02 -2.38729403E-08
  9.04398970E-03  4.84816946E-03 -2.42535647E-03 -1.44546085E-08 -1.29796381E-02
  1.09409005E-03 -4.03187868E-03 -1.67247275E-09 -9.17780335E-04  7.82140524E-04
  3.04872568E-04 -1.34842958E-03  1.77194546E-09 -6.52428835E-10 -2.04387782E-05
 -1.42068280E-02  2.44412821E-02  9.29475458E-03  1.54870294E-08 -2.18955393E-02
  1.11567222E-02  4.69273825E-03  1.04640966E-08  3.69809020E-02 -6.33553388E-03
  1.04405415E-02  2.42652407E-09  2.22725878E-04  6.38275342E-04  7.34178552E-04
  3.96778450E-03  1.06056927E-09  1.60057988E-09 -6.38429078E-03  3.02703195E-02
  1.35724098E-01  4.42180824E-03  3.43013831E-08  2.87690561E-02  4.88449095E-02
 -5.13272867E-03  6.18182696E-03  1.53758139E-02 -1.88001142E-02 -1.86875917E-08
  8.95901873E-03  5.26964070E-03 -7.57475108E-03 -1.34911183E-08  1.63481545E-03
 -1.28386053E-03  1.69249211E-03 -4.78101426E-09  1.30673113E-03 -1.50331351E-03
 -1.03838045E-04 -1.78407593E-03 -5.20615392E-10  5.79131115E-11 -4.56658582E-03
  1.66670545E-02  8.54557283E-03  3.71975703E-02 -1.27692766E-08  1.08684273E-02
  5.06412760E-03  5.75428599E-03 -7.86851708E-09  2.48330987E-02  4.74932094E-03
  1.04354926E-02 -9.46799942E-10  1.59458083E-03 -3.91872670E-03 -5.11731340E-05
 -2.41022250E-03  7.33204935E-10 -2.75301602E-10  1.08407519E-02 -3.72702949E-02
 -1.83658091E-02 -9.06674261E-02  4.74969359E-09 -2.48868805E-02 -1.15649893E-02
 -2.40967473E-02  3.20937668E-09 -1.11241328E-02  2.94593919E-03 -5.82247368E-03
  5.69582826E-10  4.08127094E-03 -1.95027941E-03  1.29057110E-03 -7.24817070E-04
  5.36815051E-10  7.71862899E-10 -2.90754970E-03  1.37857667E-02  4.42024455E-03
  1.28031673E-01  1.56172513E-08  1.31016793E-02  2.88249870E-03  4.38292956E-02
  8.42586227E-09 -2.12081955E-08  5.31770379E-08  2.42174734E-08 -9.83455851E-02
  1.18817034E-08  8.53245206E-08  3.88566261E-08 -7.03994703E-02 -1.63497980E-07
  1.68823288E-08  6.85287113E-09 -2.33347025E-02 -3.78084818E-10  8.67260651E-10
  9.33124337E-10 -8.26399409E-10  3.35419739E-05  1.52842344E-05 -2.47259737E-09
  9.67470740E-09 -1.62988842E-08  3.50314096E-09 -2.27242957E-02 -4.03012879E-08
 -4.60649327E-09 -3.92955519E-08 -2.12044064E-02  1.32665369E-07 -2.16213781E-08
  1.51324840E-08 -1.02017600E-02 -2.87886928E-09  2.15606682E-09  3.99580188E-10
 -9.34461442E-10  7.48685276E-03  4.66163815E-04  2.55572885E-09 -9.22376270E-09
  1.44403417E-08  5.78107109E-09  1.28520156E-01  2.72958789E-08 -1.60062164E-08
  2.39084010E-08  7.71862931E-02 -1.48670973E-07  2.75002051E-08 -2.30707282E-08
  1.60698588E-02  1.20347144E-09  8.04477156E-11 -5.18535039E-10 -6.35759277E-10
  1.47307795E-03  8.04912281E-03  4.09678979E-10  1.23274428E-09 -6.25660112E-10
 -2.85211353E-10  2.04142079E-01 -4.15935540E-08  2.30573821E-08  1.04979390E-08
  1.26381702E-01 -3.55222033E-02  3.11201986E-02  8.55180748E-03  3.90988888E-03
 -1.60348880E-07  2.92052494E-02 -3.59999910E-03 -1.63481548E-03 -1.18703475E-07
 -1.29184007E-02  4.17458763E-03  1.90236486E-03 -4.00307814E-08 -2.19987641E-03
 -3.40470044E-04 -5.05230159E-04 -1.23346506E-03 -6.28936163E-10 -2.75625525E-10
  4.42800844E-02 -3.53782796E-02 -5.91379695E-02 -2.77481219E-03 -5.76743085E-08
 -4.48494905E-02 -2.76937697E-02  4.20375082E-03 -4.44393459E-08  4.31078208E-02
 -1.72359016E-03  6.47337131E-03 -1.52150748E-08  2.33740043E-03  1.63063229E-04
  6.79866079E-04 -2.16598459E-03  1.07289162E-08 -5.43267763E-11 -9.44809080E-02
  5.07650303E-02  1.07639117E-01  3.51779792E-03  1.73083185E-07  7.55315606E-02
  3.84177015E-02  3.83502400E-03  1.04417474E-07 -1.15649930E-01  2.79634906E-02
 -2.01372446E-02  2.11825833E-08  4.98903646E-04  2.73093454E-04 -1.64287720E-03
 -1.06870375E-02  3.17843390E-09  1.19257659E-08  1.37855460E-01 -6.23740305E-02
 -1.48351751E-01 -6.75400456E-02  2.91954263E-07 -8.93268364E-02 -4.88215067E-02
 -2.22270204E-02  1.84164112E-07  1.58482614E-01  8.41035725E-03 -9.86070971E-03
 -9.59924814E-03 -5.49469250E-03  2.76765256E-08 -6.42460953E-03 -5.40299292E-04
 -1.28386054E-03  2.29509786E-08 -4.17458760E-03 -3.22383588E-03 -2.12672378E-03
  8.26288557E-09  9.59236456E-04 -1.11453640E-04  2.00008800E-04  1.11631202E-03
  8.33189771E-10  4.34380292E-10 -5.89981413E-03  4.78684574E-03  1.87659891E-02
  2.00920230E-04  1.40247273E-08  6.81781197E-03  9.22559635E-03 -1.23600114E-03
  1.03021797E-08 -6.68165313E-03  6.19771372E-04 -1.82790059E-04  2.69403144E-09
 -2.50824762E-04 -4.13307474E-04  5.49181606E-06  7.13153108E-04 -1.81176216E-09
  9.42430363E-11  1.40203718E-02 -9.97232848E-03 -2.45750405E-02 -1.28559010E-03
 -2.88003973E-08 -1.76576330E-02 -8.82963241E-03 -2.35812309E-03 -1.74590524E-08
  3.13003528E-02 -7.59582832E-03  5.79221164E-03 -3.36594234E-09 -1.21222561E-04
  1.29794549E-04  3.38963533E-04  3.03929807E-03 -7.38893454E-10 -2.16449970E-09
 -3.21130940E-02  2.32160919E-02  5.27674209E-02  1.73004089E-02 -5.13568136E-08
  2.91303199E-02  1.77481348E-02  5.24772424E-03 -3.30602909E-08 -4.68283580E-02
  1.50832355E-02  3.83048104E-03 -4.49040050E-03 -5.49017445E-03 -4.17766229E-05
  1.17463408E-08 -2.92513324E-03 -1.28224720E-03  1.69249213E-03  9.85344708E-09
 -1.90236484E-03 -2.12672378E-03  4.76859557E-04  3.57388694E-09  8.98384276E-04
 -5.12329809E-04  9.10854696E-05  4.45525630E-05  4.33222567E-10  7.12621094E-11
 -6.85371818E-03  8.41151196E-03  2.18670378E-02  1.10443536E-02  7.31874273E-09
  8.79025022E-03  7.54580137E-03  2.30151220E-03  5.30041877E-09 -4.72723976E-04
  1.01915697E-03  9.07261545E-04  1.46739206E-09  1.50791001E-04 -8.38885741E-04
 -1.75180693E-04  5.68153895E-04 -7.07749433E-10  6.45839308E-11  1.16353259E-02
 -3.87280077E-03 -2.91325118E-02 -1.10900432E-02 -1.11333678E-08 -6.13656118E-03
 -9.85283465E-03 -3.32668480E-03 -6.74108598E-09  1.44123661E-02 -3.93351866E-03
  1.93757220E-03 -1.33446506E-09  3.37417845E-04 -5.41897346E-04  9.49714489E-05
  1.68133417E-03 -3.58583651E-10 -9.43522552E-10 -1.46235076E-02  1.05706367E-02
  1.73068691E-02  2.26512929E-02 -2.18640441E-08  1.32643649E-02  5.24974241E-03
  8.61277020E-03 -1.41047529E-08 -2.13253822E-02  6.03870176E-03  4.57327855E-03
  4.54262785E-10 -2.44041456E-09  2.75722673E-08  1.25559783E-08 -3.48346984E-02
  5.94751124E-09  2.71471431E-08  1.23623626E-08 -2.33347025E-02 -2.37399476E-08
  9.27362869E-09  4.02467057E-09 -6.70599336E-03 -6.75806812E-10  4.49726254E-10
  2.09076181E-10 -7.46908680E-10 -3.34882599E-04 -1.52526508E-04 -1.82329314E-09
  3.74670796E-09 -1.40041857E-08  2.39561657E-09 -1.46442852E-02 -9.44465668E-09
 -3.44979025E-09 -1.01809515E-08 -1.01999459E-02  2.36697217E-08 -4.96162414E-09
  1.00267403E-09 -3.19955030E-03 -1.16460237E-09  1.02216491E-09  4.60445931E-11
 -8.24725180E-10  1.96262087E-03 -2.51610565E-04  2.11994546E-09 -5.13516203E-09
  1.10909812E-08  3.46008753E-09  2.57365392E-02  5.31765529E-09 -1.94278445E-09
  8.69164944E-09  1.60694479E-02 -3.68197935E-08  7.70551074E-09 -5.31049817E-09
  3.81475691E-03  4.96383344E-10  6.82570261E-11 -9.55215622E-11 -4.81204552E-10
  7.00828030E-04  1.92954741E-03 -3.01445054E-10  6.73131428E-10  2.40907696E-10
  1.18006070E-10  4.59266436E-02 -1.34364499E-08  7.40165601E-09  3.37262802E-09
  2.92040071E-02  4.67537657E-08 -9.24410446E-09 -3.98410748E-09  7.32134461E-03
  1.27893716E-04 -6.02256080E-04  5.71585311E-04 -1.93967148E-03 -2.64012735E-10
  6.44782822E-04  1.27909822E-03 -1.30673113E-03  5.64367363E-10 -2.19987639E-03
 -9.59236454E-04 -8.98384273E-04  3.83431194E-10  2.11925406E-04 -2.14844315E-05
 -2.95262939E-05  3.47917861E-04  1.02058026E-10  7.70785004E-11 -4.91899040E-04
  1.57076566E-03  2.84742154E-03  1.47625383E-03  9.03298375E-10  5.32800177E-04
  2.37053025E-03 -5.81517487E-04  5.89530054E-10  1.54693722E-03  7.28332188E-04
  1.07092419E-03  7.71181922E-12  7.04458568E-05 -3.58598422E-04  8.59852560E-06
 -2.51443009E-04  1.42309317E-11  5.18760344E-12  3.40218624E-03 -7.46467109E-03
 -3.31217248E-03 -1.15890388E-02 -3.51269183E-11 -7.94155183E-03 -1.81673721E-03
 -3.81926636E-03  2.47444714E-11  3.96602187E-03 -1.03390246E-03  4.47599415E-04
  1.16663290E-10  4.62859554E-04 -1.81494550E-04  2.72157828E-04  3.30589189E-04
 -4.76079616E-11 -5.21503133E-11 -1.94982350E-02  1.66254570E-03  9.26140672E-03
  1.64038288E-02 -8.72674120E-10  3.93415902E-03  3.11632436E-03  4.28857517E-03
 -7.26213783E-10 -1.07191060E-02  3.46745047E-03  1.50811188E-03 -4.34813609E-10
  1.47626332E-03 -2.53617573E-04  6.78241534E-04 -5.43268617E-04  1.95251850E-03
  7.11280812E-10  8.16447840E-04 -8.47392480E-04  1.50331351E-03  1.34291950E-10
 -3.40470052E-04  1.11453639E-04  5.12329806E-04 -6.87519018E-11 -2.14844315E-05
 -9.98476296E-05  5.33813981E-06 -1.41061321E-04 -6.12774778E-12 -3.34170509E-11
 -1.90140730E-04  2.65648588E-04  2.16061002E-03  2.14363941E-03 -2.35082306E-11
  5.86116391E-04 -2.16702319E-04  1.46534462E-03  6.00986041E-12  9.53781945E-04
 -2.93496247E-04 -2.19138400E-04  8.42994990E-11  2.10949511E-04  1.76958470E-05
 -8.60314648E-05  2.75877712E-04 -2.94540992E-11  1.05127853E-11 -6.55941826E-03
  1.17711954E-02  2.13962329E-03  5.40429139E-03 -2.49463364E-10  1.07008781E-02
  2.25419983E-03  1.56295360E-03 -2.06618347E-10 -3.19390133E-03  1.08142629E-03
 -2.48528813E-04 -1.38446875E-10 -1.21907588E-04 -5.53557874E-05 -4.73320544E-04
 -2.12369851E-04  5.80854169E-12  1.87807654E-12 -1.66032731E-02 -3.22004747E-03
 -1.82576590E-03 -1.30175220E-02 -1.52357572E-10 -3.29103504E-03 -1.19334683E-03
 -3.41282149E-03 -2.21844235E-11  6.91448633E-03 -2.08257230E-03 -8.77365604E-04
  1.13883332E-10 -7.42025007E-04  1.09640725E-03 -4.68351163E-04  4.77673603E-04
  1.34359736E-04  6.12087288E-05 -4.66927742E-10  1.14812046E-03  2.28015879E-04
  1.03838044E-04 -3.46401602E-10 -5.05230149E-04 -2.00008799E-04 -9.10854684E-05
 -8.80567426E-11 -2.95262939E-05  5.33813981E-06  7.62214195E-06 -2.31275872E-05
  2.67021961E-12  1.22319589E-12  1.50443096E-04  2.83475226E-05 -3.40946752E-04
 -3.92174723E-04 -2.81411306E-10  1.55116897E-04  1.47514731E-04 -2.71709069E-04
 -1.82542605E-10  6.79940781E-04  1.67481259E-04  5.17562300E-05 -4.85341411E-11
  1.17397214E-05 -8.91744187E-05  4.75563684E-05 -1.63587846E-04  2.05984057E-11
 -6.74970809E-12  2.18570621E-03 -4.51237425E-03  1.87199202E-04 -6.35564005E-03
  2.36076928E-10 -2.72152448E-03  4.73745550E-04 -1.40722166E-03  1.45872060E-10
 -1.64291838E-03  3.14612636E-04 -1.58000110E-04  3.44768260E-11  2.64528199E-04
 -4.65695497E-04  3.09952467E-04 -1.05616467E-04  1.27678334E-11  2.28263865E-11
 -1.06835419E-02 -1.62576881E-02 -5.80619156E-04 -2.64337127E-04  4.99884772E-10
 -1.18564389E-02 -1.60640763E-03 -7.31576288E-04  3.37401145E-10  2.52831703E-03
 -1.14867367E-03 -5.23028506E-04  1.11494217E-10 -4.94915020E-05  2.53541512E-04
  9.38318466E-04  2.53119574E-04 -8.49549882E-04 -1.19513435E-03  1.66614166E-03
 -6.47168802E-10 -1.13896603E-04 -2.50737935E-04  1.78407593E-03  2.85211545E-10
 -1.23346504E-03 -1.11631201E-03 -4.45525654E-05  3.00671353E-10  3.47917861E-04
 -1.41061321E-04 -2.31275872E-05  1.30437772E-04  9.86994479E-11  1.41958214E-11
 -2.00914216E-03  4.31705489E-03  9.06294277E-03  5.24125590E-03  6.12853769E-10
  5.23762482E-03  3.49890520E-03  1.68918833E-03  4.21472576E-10 -2.47971178E-03
  7.27713980E-05 -5.08738741E-04  1.66193434E-11 -7.02129422E-05 -1.31422202E-04
 -1.64834871E-04  4.23776244E-04  4.43745518E-11  1.12161003E-12 -9.82006458E-04
  2.31962452E-03 -1.31227293E-02  4.40709142E-03  7.72584291E-11 -4.73563579E-04
 -3.39934390E-03  1.31051783E-03  9.67886107E-11  9.85557113E-03 -2.37671774E-03
  2.24510439E-03  9.61418618E-11 -5.55548861E-05 -1.79297116E-04 -6.04479659E-05
  1.18685848E-03 -3.35866548E-11 -3.33815109E-11 -1.92063721E-03  3.23924606E-03
  1.80736159E-02 -4.01324807E-03 -4.77880732E-10  4.79356376E-03  5.38284809E-03
 -4.31600773E-04 -4.67070672E-10 -1.17000634E-02  3.61984771E-03  1.72006423E-03
 -3.64485311E-10  4.03165590E-04 -1.51145976E-04 -2.01054622E-04  1.44150175E-03
  8.28704366E-11 -1.47022457E-10  6.13538373E-10  2.54687111E-10 -7.99369492E-04
 -4.85782840E-10 -1.05590549E-09 -2.48100588E-10 -3.35419739E-05  8.89630348E-09
  8.37573279E-10  3.14003809E-10  3.34882599E-04 -3.40613330E-11 -5.10773696E-14
  2.04938931E-11 -2.66944327E-11  1.13470383E-05 -3.33466035E-04 -2.82322448E-11
  1.46078988E-11 -2.70898735E-10 -6.77690969E-11  2.31586654E-03  1.08334757E-09
 -6.64767768E-11  7.35363153E-10  1.99305240E-03 -6.82682892E-09  7.69440355E-10
 -1.27286560E-09  8.76048249E-04 -1.04521168E-11  1.86923100E-11 -1.08225854E-11
 -1.72598720E-11 -1.07696817E-05 -7.99836806E-05  2.33254502E-11 -2.49682504E-11
  2.37960541E-10  3.94842905E-11 -8.92250419E-04 -7.31087266E-10  4.60390392E-10
 -2.29838845E-10 -9.39496622E-05  4.96929992E-09 -7.70241814E-10  8.36512430E-10
  3.18764460E-04 -4.17897325E-12 -4.28153198E-13  7.12325385E-12 -5.50347375E-12
 -7.55467936E-05 -3.28422801E-04  2.14168510E-11 -5.14141523E-11  1.05127913E-10
 -3.88892308E-11 -7.21556126E-03  4.54901024E-10 -2.78122035E-10 -2.14245352E-10
 -4.20755991E-03 -5.52977417E-09  8.69816914E-10  3.89979155E-10 -7.79529371E-04
 -1.54989069E-12  7.36022445E-12 -4.49447062E-12 -5.04365015E-12  3.32644433E-04
  3.77344811E-11 -6.70987342E-11  2.54651371E-10  1.70287153E-10 -3.64043883E-04
 -2.19864664E-10 -2.47433171E-10 -6.23679450E-10 -1.52842344E-05  4.02854680E-09
  2.84036554E-10  3.46064617E-10  1.52526508E-04 -2.02175227E-11  4.67403268E-12
  9.30782916E-12 -7.43401241E-12 -3.33466035E-04  5.91703054E-04 -1.74867035E-11
  3.82798829E-11 -1.94084379E-11  4.63533395E-11 -1.14571095E-02  1.05057916E-10
  2.83382992E-10  2.37482132E-10 -7.23182519E-03 -1.62583165E-09  2.38479275E-10
 -2.36066248E-10 -1.77428167E-03 -1.14404381E-11  1.81495113E-11 -1.41990189E-11
 -6.12114698E-12 -4.29764160E-04 -1.85996695E-04  1.24436011E-11 -1.01806497E-11
 -5.00771924E-11 -1.23857983E-10 -1.29181632E-02 -3.03999829E-10  1.90488385E-10
 -1.32435752E-11 -8.18230580E-03  1.47945967E-09 -2.19665391E-10  2.71917971E-10
 -2.02798607E-03  5.95251524E-13 -4.28168672E-12  1.23672088E-11 -3.12744933E-12
  3.57328087E-04  7.27428623E-05  9.77589482E-12 -2.33561075E-11 -3.88530830E-11
  1.72742780E-10 -3.28615280E-03  2.05953924E-10 -2.13808740E-10  9.50663466E-11
 -1.91621792E-03 -2.50736971E-09  4.17693102E-10  1.24745908E-10 -3.55029589E-04
  2.68734091E-13  2.35428885E-12 -2.03330973E-12 -3.28274649E-12 -1.87139295E-04
  6.58343852E-04 -3.12075406E-03  8.60000141E-03  7.00512910E-03  1.32135301E-02
  1.43127901E-09 -4.50792365E-03 -7.40177663E-03  4.56658582E-03 -4.70155071E-09
  4.42800845E-02  5.89981418E-03  6.85371814E-03 -4.75080850E-09 -4.91899040E-04
 -1.90140730E-04  1.50443096E-04 -2.00914216E-03 -5.23978233E-10 -4.00111079E-10
 -3.60780465E-03  6.09338878E-03  8.14291388E-04  8.43383153E-03 -4.13996648E-09
  2.62963293E-02  1.19015151E-03  1.23266016E-02 -2.01985663E-09 -3.55216677E-02
 -8.87603854E-04 -9.19895224E-03  1.77204940E-09 -3.48053638E-04  2.22330391E-04
 -4.68348643E-04  6.41852628E-05 -5.76184670E-11  2.18543022E-11 -3.12076264E-03
  8.59997076E-03 -4.34777174E-03  1.43095527E-02 -6.65375338E-11 -4.50824714E-03
  8.13880293E-03  3.06591035E-03 -2.78220877E-10  4.42799863E-02 -4.47901741E-03
  7.85665443E-03 -1.13126126E-09  1.72569954E-04 -8.54677583E-04  1.50417153E-04
  1.92751130E-03  2.23654367E-10  2.05143875E-10  1.72706801E-02 -3.35648040E-02
  6.51899887E-02 -4.56888495E-02  3.02973809E-09  2.63931643E-05  8.16429917E-03
 -7.13201721E-03  2.55592724E-09 -9.44836277E-02  1.79808076E-02  2.93996167E-03
  2.11768885E-09 -3.10910782E-03 -4.81711024E-05  2.18566015E-03  5.56048994E-03
  2.46740463E-11  9.41341296E-12  2.05332866E+00  8.60004898E-03 -2.02510320E-02
 -1.74299064E-02 -3.61834248E-02  3.30184343E-09 -1.15073273E-02  3.04873573E-03
 -1.66670545E-02  1.23969713E-08 -3.53782798E-02 -4.78684582E-03 -8.41151187E-03
  9.04949360E-09  1.57076566E-03  2.65648588E-04  2.83475226E-05  4.31705489E-03
  1.85857172E-09  1.24270033E-09  6.09338878E-03 -1.33463157E-02 -1.77542272E-03
 -1.83875556E-02  1.35294865E-08 -3.43683915E-02 -1.43347227E-03 -1.48461712E-02
  8.21481164E-09  3.11182144E-02  1.04017161E-03  1.07848703E-02 -1.76294327E-09
  9.95226194E-04 -9.19242833E-04  4.77670303E-04 -2.15423822E-04 -2.09833136E-10
  1.79221685E-10  8.59995292E-03 -2.02507168E-02  1.01855114E-02 -3.88488766E-02
 -1.84597387E-09 -1.15064393E-02 -6.18116468E-03 -1.57752644E-02 -1.06863698E-09
 -3.53784612E-02  3.08802271E-03 -9.17362770E-03  1.35966252E-09  1.18950561E-04
  1.71759354E-03  2.83939759E-05 -4.28404108E-03 -6.60799550E-10 -6.95494811E-10
 -3.35647946E-02  5.79117069E-02 -1.32575465E-01  9.82565069E-02 -1.21920785E-08
  2.94323523E-02 -3.74413856E-02  1.37489669E-02 -9.22385350E-09  5.07690920E-02
 -9.46739107E-03 -4.98241250E-03 -5.13047525E-09  5.47178989E-03 -1.16519124E-03
 -4.51230199E-03 -1.06788077E-02 -2.40129694E-11 -1.21964228E-11 -6.27414441E-02
  3.29896240E-01 -1.02187099E-02  2.85519126E-02  2.11904612E-02  3.26207637E-02
  9.25221642E-09  2.33191532E-04 -1.44941365E-02  8.54557283E-03 -1.46679845E-08
  5.91379691E-02  1.87659891E-02  2.18670377E-02 -1.38882636E-08 -2.84742154E-03
 -2.16061002E-03  3.40946752E-04 -9.06294277E-03 -2.86667792E-09 -1.80681784E-09
 -8.14291388E-04  1.77542272E-03 -3.39925671E-02  5.75194202E-03 -1.95334400E-08
  5.04149465E-03 -2.54275138E-02  3.89851503E-03 -1.18245759E-08 -8.89320029E-04
  2.32185006E-03 -1.39010654E-03  3.53045476E-09 -5.49929641E-04  5.46926036E-04
 -1.41804207E-05 -2.98434208E-03 -4.45562279E-10 -6.30027467E-11  7.94074501E-03
 -2.26207548E-02  1.36009649E-02 -2.82386331E-02 -1.25284653E-09  9.33632299E-03
 -1.19225718E-02  1.03008129E-03 -2.02667292E-09 -5.75459610E-02  1.43440251E-02
 -2.25124259E-02 -4.24877607E-09 -8.39647538E-05  4.30710011E-03 -2.59624448E-04
 -7.48890412E-03  1.03464137E-09  1.00205174E-09 -6.43995105E-02  1.36018005E-01
 -2.06517436E-01  1.61778991E-01  1.58982708E-08  9.05089124E-02 -4.55543171E-02
  7.02067122E-02  1.38399710E-08  7.33474502E-02 -3.19692382E-02  5.13888046E-03
  9.89950844E-09 -6.12192789E-03  6.86520078E-04 -4.67162574E-03 -1.01073686E-02
  2.68036792E-11  2.23174867E-10 -7.78396382E-05 -5.08410436E-04  4.22241670E-01
 -1.09200581E-02  2.82455352E-02  1.06980659E-02  3.60809838E-02  6.49670935E-09
  4.99845913E-02 -1.21734543E-02  3.71975703E-02 -9.15128046E-09  2.77481209E-03
  2.00920205E-04  1.10443536E-02 -9.56690703E-09 -1.47625383E-03 -2.14363941E-03
  3.92174723E-04 -5.24125590E-03 -9.80507062E-10 -9.76727205E-10 -8.43383153E-03
  1.83875556E-02  5.75194202E-03  2.50262048E-02 -9.55542843E-09  5.22262142E-02
  3.89960784E-03  1.45850496E-02 -4.95259621E-09 -9.35808129E-03 -1.39131714E-03
 -1.19663514E-02  3.63861563E-09 -4.11982620E-04  3.81023664E-04 -1.46948559E-04
  3.89291405E-04 -2.90794429E-10  3.99540757E-11 -1.26734211E-02  3.31862343E-02
 -6.31636635E-03  4.36702049E-02 -1.02631147E-09  4.91058932E-02  2.17475601E-02
  3.46242183E-02 -1.75234682E-09  1.40458225E-02 -8.42501366E-04  1.54743120E-02
 -3.39526100E-09  2.24116376E-04 -4.73549924E-03  4.50082294E-04  6.26133929E-03
  5.52175762E-10  4.93771658E-10  4.67966645E-02 -9.34335021E-02  1.55710880E-01
 -9.73798965E-02  7.56867196E-09 -9.67048721E-02  4.25452300E-02 -2.06698280E-02
  7.09855238E-09  7.88846085E-02 -2.27027048E-02 -3.69791454E-03  6.08992192E-09
 -9.87123790E-03  1.30466310E-02  4.31320141E-03  2.25950419E-03  1.33746169E-10
  8.73273834E-11 -8.04682463E-04 -5.26796211E-03  1.78010872E-04  4.24075093E-01
  1.51016036E-09 -5.01686536E-09  1.37997703E-09  1.82213404E-09 -1.62767685E-02
  1.37490898E-08  5.06735468E-08  1.44953132E-08 -2.27242957E-02 -2.39306632E-07
 -1.28733647E-08 -3.31703248E-09 -1.46442852E-02  6.91461373E-10  2.80507234E-10
 -8.25916439E-11  5.18628796E-10 -2.31586654E-03  1.14571095E-02  4.97283461E-10
  2.23792838E-09  3.01967737E-09  2.16915645E-09 -1.32521949E-01 -3.88778376E-08
  2.59449787E-09 -2.90575859E-08 -9.83468682E-02  1.94389164E-07 -2.36938452E-08
  3.35785167E-08 -3.48376906E-02 -6.89877256E-10  2.95474438E-10  3.45958090E-10
  1.77631078E-10  8.44641839E-05  8.74334305E-04 -6.66218302E-11 -1.84729237E-09
 -1.59618875E-09 -2.71692169E-10 -1.62765908E-02  2.46814655E-08 -1.49444918E-08
  1.27269447E-08 -2.27247585E-02 -1.55464887E-07  2.54899768E-08 -2.53038504E-08
 -1.46444296E-02  4.70545175E-10 -2.64009006E-11 -2.61656349E-10  4.19681048E-11
  4.46491085E-03  1.08024238E-02  3.64864439E-10  4.79217791E-10  7.56695289E-10
  7.27812823E-10  2.16212541E-01 -2.33630541E-08  1.37647076E-08  8.56797098E-09
  1.28520341E-01  1.73390338E-07 -2.80633937E-08 -1.29057236E-08  2.57361834E-02
 -9.10945770E-11 -1.94144338E-10  2.36436247E-10  1.33277301E-10 -1.03307633E-02
  7.80692827E-03  4.99401242E-10 -3.32812772E-09  6.21160189E-10 -1.57102920E-10
  3.32456873E-01 -4.50815629E-03 -1.15067719E-02 -4.71945662E-02 -1.64673489E-02
 -6.25270946E-08 -5.42421754E-05 -9.04398970E-03 -1.08684273E-02 -2.92796676E-08
 -4.48494907E-02 -6.81781203E-03 -8.79025014E-03 -2.74018893E-09  5.32800177E-04
  5.86116391E-04  1.55116897E-04  5.23762482E-03  2.58194171E-09  1.25807390E-09
  2.62963293E-02 -3.43683915E-02 -5.04149466E-03 -5.22262142E-02 -1.82183035E-08
 -5.01267444E-02 -2.07693749E-03 -2.15149768E-02 -1.10046258E-08  2.92034703E-02
  6.77723331E-04  7.02650928E-03 -5.86159239E-09  8.58900096E-04  6.02310784E-04
  1.14809369E-03 -2.88338349E-05  2.64035336E-09 -6.98078945E-10 -4.50805723E-03
 -1.15067491E-02  4.31711807E-02 -2.51937370E-02  2.46622931E-08 -5.41266448E-05
  6.79759164E-03 -1.23981314E-02  1.61873546E-08 -4.48477381E-02  5.00919833E-03
 -9.93306157E-03  5.70067916E-09 -1.16865887E-03  2.28765245E-03  1.55188477E-04
 -4.84266364E-03  7.45453499E-10  1.81471718E-09  2.61224422E-05  2.94327964E-02
 -1.20874936E-01  5.41579288E-02  4.32367925E-08  3.54804142E-03 -3.31467806E-02
 -1.79316361E-04  2.72934497E-08  7.55335344E-02 -1.62199686E-02 -9.29340488E-03
  5.32023498E-09  2.26135107E-03  4.98024906E-04 -2.72143997E-03 -1.07253492E-02
 -7.09620079E-10 -3.50889053E-10 -1.75533429E-01  2.62438661E-01  1.74029514E-03
  1.80207478E-02  2.30083685E-08  2.30175235E-01 -6.72469108E-03  1.67527085E-02
  3.28507870E-02  2.48197361E-02  2.77736051E-09  7.33864625E-03  4.84816946E-03
  5.06412760E-03 -9.77403961E-09  2.76937696E-02  9.22559633E-03  7.54580135E-03
 -7.28424616E-09 -2.37053025E-03  2.16702319E-04 -1.47514731E-04 -3.49890520E-03
 -2.83873830E-09 -1.57220990E-09 -1.19015151E-03  1.43347228E-03 -2.54275138E-02
  3.89960784E-03 -1.31512750E-08  2.07693749E-03 -9.84634180E-03  1.33597217E-03
 -8.48080604E-09  3.84477374E-04  2.24405439E-03 -3.24588554E-04  1.03471332E-09
 -4.01460645E-04  3.55886282E-04 -2.40649104E-05 -2.58363777E-03 -8.91362439E-11
 -1.90588373E-10  7.65570995E-03 -1.59583860E-02  2.58460632E-02 -3.18353507E-02
 -2.10832035E-10 -4.89027769E-03  4.38541778E-03 -4.79679556E-03 -1.54480840E-10
 -2.79950406E-02  7.78886781E-03 -8.61560581E-03 -1.35324374E-09  1.31886199E-03
  6.26134765E-04  1.96778975E-04 -3.51889238E-03  6.60625922E-10  5.54338723E-10
 -9.39873597E-03  2.51738491E-02 -5.79622272E-02  6.59413275E-02  8.35918541E-09
  1.06053066E-02 -1.23075284E-02  2.51119157E-02  7.53410738E-09  2.81230943E-02
 -1.17466899E-02  1.77511598E-04  5.28613265E-09 -1.30833857E-03 -1.06606603E-04
 -7.50569557E-04 -4.02140841E-03  1.71161230E-10  2.18947433E-11 -6.74155621E-04
  3.19630249E-03  1.26126046E-01  1.12085114E-03 -3.01833907E-09  3.03792796E-03
  4.25870340E-02  5.51552994E-03  2.53434154E-03  4.10178628E-03 -1.01495236E-02
  5.60233899E-08  1.20855386E-02 -2.42535647E-03  5.75428599E-03  3.36520217E-08
 -4.20375087E-03 -1.23600116E-03  2.30151221E-03  7.33753543E-09  5.81517488E-04
 -1.46534462E-03  2.71709069E-04 -1.68918833E-03  9.08409928E-10  5.08888995E-10
 -1.23266016E-02  1.48461712E-02  3.89851503E-03  1.45850496E-02  2.87497156E-08
  2.15149768E-02  1.33597217E-03  3.86613011E-03  1.82515084E-08  3.93605651E-03
 -3.25183017E-04 -1.09318488E-03  5.17468407E-09  3.79265754E-04 -8.51436924E-04
 -2.49361951E-04  1.19191534E-04 -2.42742547E-09  9.00613753E-10  4.12676307E-03
  5.69321712E-03 -1.11167653E-02 -3.14212500E-03 -1.96063504E-08  1.32670259E-02
  2.69236950E-03  6.21740432E-03 -1.37437613E-08  1.17413299E-03  1.66922729E-04
  3.74058475E-03 -4.74423105E-09  8.18709891E-04 -2.09834633E-03  2.38416719E-04
  1.82872994E-03 -1.21532714E-09 -1.94472159E-09  5.40278563E-03 -3.09389117E-02
  3.82810327E-02 -8.26408217E-03 -4.21799363E-08 -3.14054405E-02  8.85391794E-03
 -6.32555393E-04 -2.77666768E-08  2.64626426E-02 -7.31600698E-03 -4.10741189E-04
 -7.17148325E-09 -2.06376403E-03  3.87491682E-03  1.28108045E-03 -2.08934539E-04
  4.42458966E-10  2.74603691E-10 -6.98252171E-03  3.31072495E-02  1.12016209E-03
  1.37630212E-01 -1.78834605E-08  3.14651965E-02  7.30534649E-04  5.00876400E-02
  2.52896130E-09 -6.98250814E-09  3.52631059E-09  3.63402372E-09 -2.27238360E-02
  7.24569348E-09  3.52972014E-08  1.08763444E-08 -2.12044064E-02 -1.35238595E-07
 -4.35039350E-09 -2.19735883E-10 -1.01999459E-02  5.00250328E-10  1.92102499E-10
  1.29502648E-10  4.17053165E-10 -1.99305240E-03  7.23182519E-03  3.46644659E-10
  2.01162517E-09  4.04885910E-09  1.52344175E-09 -9.83468682E-02 -2.57053831E-08
  2.78214994E-09 -1.95457370E-08 -7.04005224E-02  1.12882661E-07 -1.42392844E-08
  1.87462949E-08 -2.33366776E-02 -6.47291877E-10  3.50079852E-10  2.20452789E-10
  1.88099992E-10  3.55952448E-06  3.67184130E-05 -2.78154997E-10 -1.06972304E-09
 -2.65246045E-09 -3.79344473E-10 -2.27243987E-02  1.61996233E-08 -1.04797229E-08
  8.91513990E-09 -2.12051523E-02 -9.37922916E-08  1.55325968E-08 -1.51193681E-08
 -1.02000657E-02  3.34684322E-10 -4.92327025E-11 -1.97309993E-10  8.82898256E-11
  3.33973249E-03  6.71691408E-03  4.24161775E-10  1.93873561E-10  4.10007558E-10
  5.98463447E-10  1.28520222E-01 -1.63478718E-08  9.30001490E-09  5.78919113E-09
  7.71865809E-02  1.04617524E-07 -1.70093733E-08 -7.82875350E-09  1.60692445E-02
 -2.40477764E-11 -1.58245620E-10  1.46099189E-10  1.45690218E-10 -6.23414995E-03
  5.30032500E-03  1.93175415E-10 -2.20793445E-09 -2.12097274E-10 -9.47973585E-10
  2.04142806E-01  1.49956416E-08 -1.78708308E-09 -1.26362821E-08  1.26382640E-01
  4.42795333E-02 -3.53799419E-02  1.66044770E-02 -5.68617212E-02  1.28347115E-07
 -4.48492072E-02  1.29796380E-02 -2.48330987E-02  9.28981462E-08  4.31078206E-02
  6.68165305E-03  4.72723920E-04  3.19185626E-08  1.54693724E-03  9.53781928E-04
  6.79940786E-04 -2.47971175E-03 -1.33225715E-09  7.57357114E-10 -3.55216675E-02
  3.11182142E-02  8.89320432E-04  9.35808147E-03  2.78674974E-08  2.92034701E-02
 -3.84477220E-04 -3.93605643E-03  2.33536566E-08 -1.29164980E-02  4.38786938E-04
  4.56682848E-03  8.96852197E-09  1.19849468E-04 -2.66010580E-03 -5.05127048E-04
 -3.12770230E-04 -9.23679113E-09 -2.71231827E-10  4.42766554E-02 -3.53746606E-02
 -2.71616960E-02 -5.25984135E-02 -1.55276530E-07 -4.48467508E-02 -1.74861173E-02
 -2.18810613E-02 -9.36755014E-08  4.31102537E-02 -6.46815425E-03  1.74432653E-03
 -1.88481468E-08  2.33095296E-03  1.69663852E-04  6.79722839E-04  2.17020914E-03
 -1.90220014E-09 -9.37114456E-09 -9.44842622E-02  5.07720440E-02  5.07760021E-02
  9.49749783E-02 -2.37772000E-07  7.55372058E-02  1.58892803E-02  3.51869364E-02
 -1.48937434E-07 -1.15651755E-01  3.14220056E-02  1.41486040E-02 -3.68934648E-08
  8.34494623E-03 -7.57269620E-03 -1.64323708E-03  5.45641676E-03  4.39202794E-09
  2.75791258E-09  1.37851709E-01 -6.23668891E-02 -1.56861148E-02 -1.62242085E-01
 -1.34405369E-07 -8.93199440E-02 -5.16258195E-03 -5.33920819E-02 -8.02300913E-08
  1.58476375E-01 -4.56394012E-03  6.39904184E-03  5.07799213E-03  1.71589612E-02
 -1.96899474E-09  6.09631225E-03  1.09409007E-03  4.74932094E-03 -3.18828665E-09
  1.72359015E-03  6.19771376E-04  1.01915696E-03 -1.59458045E-09 -7.28332193E-04
  2.93496252E-04 -1.67481258E-04 -7.27713948E-05 -6.59424023E-10 -4.58975139E-10
  8.87603907E-04 -1.04017172E-03  2.32185000E-03 -1.39131714E-03 -5.58198181E-09
 -6.77723424E-04  2.24405438E-03 -3.25183009E-04 -3.12894812E-09 -4.38786914E-04
  1.39331070E-03 -5.38832343E-04  2.26489443E-10 -1.73264889E-04  2.62746532E-04
  2.10901594E-05 -6.03156049E-04 -5.63689585E-11 -1.90104361E-10  2.98574025E-03
 -4.89158924E-03  3.42016809E-03 -1.30068433E-02 -4.00872536E-09 -4.20329208E-03
  1.30056262E-03 -2.96981617E-03 -2.21140616E-09 -2.93240123E-03  4.73911982E-04
 -9.34679827E-04 -6.20202827E-10  4.27626780E-04 -1.63690709E-04  1.54464862E-04
 -3.20337359E-04  2.31734354E-10 -2.16736831E-11 -3.06676401E-03 -1.63149160E-03
 -1.29083104E-03  1.56905758E-02 -2.78043889E-09 -3.51398012E-03  5.84852379E-04
  4.41843052E-03 -1.01333943E-09  3.16894616E-03 -1.25108162E-03  2.70348038E-04
  6.60777914E-10  2.64639958E-04 -8.33542934E-05  8.72355698E-05 -4.75354485E-04
  1.80463495E-10  7.96618104E-11 -3.39078432E-03  2.45090644E-03  1.52002198E-02
  4.38664804E-03 -4.28652577E-09  3.07523787E-03  6.35280852E-03  1.33051609E-03
 -2.31225838E-09 -4.94509778E-03  1.97127184E-03 -7.80715146E-03  7.26123024E-03
 -4.50627186E-03  2.47403700E-02 -3.04110255E-08  9.30473049E-03 -4.03187866E-03
  1.04354926E-02 -2.33217617E-08 -6.47337131E-03 -1.82790056E-04  9.07261562E-04
 -8.21646414E-09 -1.07092419E-03  2.19138402E-04 -5.17562316E-05  5.08738736E-04
 -1.42472737E-10 -4.79795548E-10  9.19895221E-03 -1.07848702E-02 -1.39010661E-03
 -1.19663514E-02 -9.25340890E-09 -7.02650924E-03 -3.24588583E-04 -1.09318489E-03
 -7.23634033E-09 -4.56682844E-03 -5.38832354E-04 -4.14053011E-03 -2.28430133E-09
 -6.86310169E-04  1.61353075E-03  2.18749964E-04  3.21799554E-04  2.17419465E-09
 -1.76775390E-12 -8.53588446E-03  8.35103095E-03  8.65910773E-03  2.63915661E-02
  3.59375468E-08  1.02994116E-02  5.81153214E-03  1.02269280E-02  2.17019665E-08
 -6.02369716E-03  2.67544530E-04  1.05381027E-03  4.27484832E-09 -1.29478014E-03
  3.75518871E-04 -8.28239266E-05 -1.33081799E-04  5.68627768E-10  2.28732207E-09
  1.79603298E-02 -1.05738858E-02 -1.21588329E-02 -3.43761258E-02  5.70473520E-08
 -1.83612454E-02 -3.07784983E-03 -1.27415059E-02  3.60743907E-08  3.43138660E-02
 -9.45588047E-03 -4.40774280E-03  9.34427211E-09 -2.70762648E-03  2.61275194E-03
  3.41097225E-04 -1.62526833E-03 -1.00814146E-09 -6.25065236E-10 -3.51220585E-02
  2.53900295E-02  4.39158024E-03  6.02230929E-02  3.14344565E-08  3.18588577E-02
  1.33218914E-03  2.00095025E-02  1.88388369E-08 -5.12157167E-02  1.53115723E-03
  1.76851682E-02  4.18518769E-09 -8.83688570E-09 -1.81952480E-09  1.54211187E-09
 -1.46470547E-02 -2.62284212E-09  1.01124627E-08  3.85596011E-09 -1.02017600E-02
 -2.29284761E-08  1.20595104E-09  1.18764058E-09 -3.19955030E-03  3.59013733E-10
  1.36137723E-11  3.28136601E-10  3.31252873E-10 -8.76048249E-04  1.77428167E-03
  8.78637725E-10  4.04753308E-10  7.95284720E-09 -1.00144624E-09 -3.48376906E-02
 -7.74749080E-09  2.80484172E-09 -6.24461331E-09 -2.33366776E-02  2.07987642E-08
 -2.97999338E-09  2.96192504E-09 -6.70690453E-03 -2.61812784E-10  1.07436951E-10
  9.60746062E-11  4.30945687E-10 -3.52878806E-05 -3.66329868E-04 -1.13373735E-09
  1.36447341E-09 -5.34768347E-09 -9.64424932E-10 -1.46449715E-02  5.70761736E-09
 -4.46832304E-09  2.09955327E-09 -1.02005087E-02 -1.88737652E-08  2.94938805E-09
 -3.10174790E-09 -3.19912928E-03  1.31760639E-11 -4.51696201E-11 -1.08279701E-10
  2.09585287E-10  1.19931445E-03  1.57397395E-03  6.43135379E-10 -3.07379832E-10
 -8.80191095E-10 -1.62342308E-10  2.57381722E-02 -4.59358976E-09  2.02729998E-09
  1.45238668E-09  1.60706266E-02  2.12379575E-08 -3.31856073E-09 -1.46657421E-09
  3.81485563E-03  5.33802836E-11 -7.53254701E-11  3.45488995E-11  1.59534931E-10
 -1.32066184E-03  1.57179370E-03 -7.19602222E-10  3.69644219E-10 -2.38176093E-09
 -2.09710556E-09  4.59287611E-02  4.82202666E-09 -1.41353246E-09 -4.24656398E-09
  2.92055382E-02 -1.56065984E-08 -5.26700176E-10  3.65789126E-09  7.32216394E-03
  8.47765424E-04 -1.89511163E-03  1.64011050E-04 -2.68497521E-03 -4.48136952E-10
 -2.20843397E-03  9.17780335E-04 -1.59458083E-03  6.61109326E-11  2.33740044E-03
  2.50824764E-04 -1.50791000E-04  2.12066694E-10  7.04458568E-05  2.10949511E-04
  1.17397214E-05 -7.02129422E-05 -3.14155943E-11  1.69075804E-11 -3.48053638E-04
  9.95226194E-04  5.49929641E-04  4.11982620E-04  8.58409419E-11  8.58900096E-04
  4.01460645E-04 -3.79265754E-04 -1.77029873E-11  1.19849454E-04  1.73264887E-04
  6.86310167E-04 -1.48038010E-10  5.06168338E-05 -2.49142192E-04  1.39700208E-05
 -6.64769754E-05  2.82939024E-11 -5.01498260E-12  1.24126235E-03 -2.64583290E-03
 -5.40109300E-04 -4.84369412E-03  2.23408160E-10 -3.35547215E-03 -8.25737352E-04
 -2.05675767E-03  1.91715547E-10  2.96216911E-03 -4.66305297E-04  1.62310649E-04
  1.59516949E-10  2.04095499E-04  4.65788648E-05  6.12537289E-05  1.90046312E-04
 -8.05916833E-12  2.41553153E-12 -3.33253147E-03  5.22253323E-03  7.17069702E-03
  8.12134205E-03  1.69273009E-10  6.39548561E-03  2.55591027E-03  2.89592018E-03
  1.89123521E-11 -8.79583713E-03  2.69034573E-03  1.14318809E-03 -1.59883289E-10
  7.77260106E-04 -6.63725615E-04 -2.41615410E-04  4.92570585E-04 -8.11499965E-12
 -1.89922967E-12 -1.58865643E-02 -4.42873910E-03 -4.00777585E-03 -1.22460549E-02
  2.84818845E-10 -5.07976419E-03 -1.06870612E-03 -4.17858353E-03  2.34151886E-10
  1.12808791E-02 -3.44380669E-04 -3.73859220E-03  1.54151104E-10  1.26042394E-03
 -1.52980377E-03  3.73151429E-03  1.63120062E-03  8.59778462E-03 -1.47022692E-10
  3.32730226E-03 -7.82140524E-04  3.91872670E-03 -1.37092598E-09  1.63063209E-04
  4.13307469E-04  8.38885741E-04 -9.16708272E-10 -3.58598422E-04  1.76958470E-05
 -8.91744187E-05 -1.31422202E-04 -2.24882648E-10 -1.86471196E-10  2.22330391E-04
 -9.19242833E-04 -5.46926036E-04 -3.81023664E-04 -1.68252752E-09  6.02310784E-04
 -3.55886282E-04  8.51436924E-04 -1.04089307E-09 -2.66010578E-03 -2.62746532E-04
 -1.61353075E-03  1.15188457E-10 -2.49142192E-04  5.16778103E-04 -3.81589083E-05
  1.18939886E-04  1.56792863E-11 -2.37665138E-11 -1.92333517E-03  4.48230004E-03
 -9.08338677E-05  1.09908675E-02  2.19909255E-10  4.47446050E-03  1.13718816E-03
  4.36397827E-03  9.32168960E-11 -4.61620632E-04 -5.38850677E-05  6.40201511E-04
 -1.91409453E-10 -4.07762293E-04  9.75768905E-05 -1.38693876E-04  1.08879511E-04
  8.39975823E-11  8.95213062E-11  1.75218106E-04 -9.15858977E-04 -2.40106838E-03
 -1.22292263E-02  1.59012990E-09 -3.63609805E-03 -3.83217697E-04 -3.64520920E-03
  1.26475624E-09  9.56785618E-03 -2.83899611E-03 -1.00249147E-03  7.24261000E-10
 -9.58331120E-04  9.48892062E-04  4.04438392E-05 -2.62790622E-04  2.30937675E-12
  8.78218853E-13 -2.02149419E-02  2.87133798E-03  4.79314328E-03  2.03785438E-02
  2.42307485E-10  5.72298993E-03  1.27180679E-03  6.28176711E-03  1.36558506E-10
 -1.50854307E-02  4.90596782E-04  5.25328906E-03 -1.00321286E-10 -1.00009718E-03
  1.82838512E-03  1.50456571E-04  2.83180050E-05 -2.60049361E-04 -4.49986076E-04
  1.09416137E-09  1.55138003E-04 -3.04872568E-04  5.11731340E-05  5.25261178E-10
  6.79866092E-04 -5.49181152E-06  1.75180689E-04 -2.26469390E-11  8.59852560E-06
 -8.60314648E-05  4.75563684E-05 -1.64834871E-04  3.07790623E-11  3.21244816E-12
 -4.68348643E-04  4.77670303E-04  1.41804208E-05  1.46948559E-04  6.29208775E-10
  1.14809369E-03  2.40649104E-05  2.49361951E-04  4.31274319E-10 -5.05127060E-04
 -2.10901537E-05 -2.18749967E-04  2.05832679E-10  1.39700208E-05 -3.81589083E-05
  7.62398284E-06 -5.86244108E-06 -4.50454038E-11  1.98024499E-11  1.50421591E-04
  2.83883059E-05  1.69141214E-04 -4.91282264E-04 -2.61503556E-10  1.55152469E-04
  3.09037930E-04 -8.09593427E-06 -1.97213311E-10  6.79897131E-04  3.89513482E-05
  1.70967266E-04 -1.08075436E-10  5.87376669E-05 -1.36179893E-04  4.75516589E-05
  1.32254640E-04 -2.37275709E-11 -3.76191747E-11  2.18567150E-03 -4.51232281E-03
  5.59764734E-03 -3.01575827E-03 -7.96676988E-10 -2.72141170E-03  1.45547691E-03
 -2.93377498E-04 -5.18494933E-10 -1.64305627E-03  2.94137245E-04  1.93449490E-04
 -9.56702639E-11 -2.03927992E-04  2.76141564E-06  3.09945541E-04  4.17918342E-04
  1.40075694E-11 -2.75415657E-12 -1.06835236E-02 -1.62576583E-02 -6.13742631E-05
 -6.35052164E-04 -4.62927377E-10 -1.18564512E-02 -1.69650423E-04 -1.75695393E-03
 -3.30328651E-10  2.52800790E-03 -1.21270449E-04 -1.25625045E-03 -1.29375785E-10
  3.28569107E-04 -1.24526516E-04  9.38315969E-04 -1.47736098E-03  2.94129271E-03
  1.88874543E-03  7.94939891E-03 -9.01880167E-10  4.14949401E-03  1.34842958E-03
  2.41022250E-03 -7.91327856E-10 -2.16598457E-03 -7.13153108E-04 -5.68153890E-04
 -2.82136938E-10 -2.51443009E-04  2.75877712E-04 -1.63587846E-04  4.23776244E-04
 -1.30975528E-10 -1.13347826E-10  6.41852629E-05 -2.15423822E-04  2.98434208E-03
 -3.89291405E-04 -8.57058598E-10 -2.88338348E-05  2.58363777E-03 -1.19191534E-04
 -5.54570820E-10 -3.12770243E-04  6.03156045E-04 -3.21799556E-04 -6.52282593E-11
 -6.64769754E-05  1.18939886E-04 -5.86244108E-06 -1.73119698E-04  5.56893756E-11
 -3.19869293E-11  8.53680538E-04 -1.50593531E-03  4.64474096E-04 -5.10413400E-03
  2.90016446E-10 -2.64539373E-03  1.38985272E-03 -1.32875498E-03  2.31746499E-10
  1.53661506E-03 -5.41470042E-04  8.60899678E-04  6.26536711E-11  2.56046252E-04
 -4.13635756E-04  1.29734300E-04  2.81433687E-04  3.55393966E-11  4.25546489E-11
  5.47182924E-03 -1.07777926E-02  1.11844218E-02 -2.02848971E-03  8.19928211E-10
 -9.08442861E-03  2.73010289E-03 -1.96399669E-03  5.54112654E-10 -1.34786494E-03
  7.35912217E-04 -2.73749432E-04  1.78015502E-10  3.41417808E-04  5.31558099E-06
  4.02960565E-04  3.07763764E-04 -1.19951526E-13 -3.74747878E-12 -4.87132431E-04
  8.21566383E-04 -1.62239882E-02  5.33380751E-03  3.04963716E-10  1.21577866E-03
 -3.78994304E-03  1.56860370E-03  2.55115684E-10 -2.96699066E-03  1.94179928E-04
  1.00220117E-03  6.78488270E-11 -7.31524969E-05  1.37063412E-04 -5.09944902E-05
  1.09739327E-03  9.27381316E-10 -2.31592898E-09  5.91265327E-09  2.57958060E-09
 -1.15875918E-02  6.91798092E-10  7.24373653E-09  3.57502413E-09 -7.48685276E-03
 -4.34644402E-09  2.88977347E-09  1.15208929E-09 -1.96262087E-03 -5.05589765E-11
  6.92315951E-11  1.18493821E-10 -9.32754958E-11 -1.07696817E-05 -4.29764160E-04
 -3.34248227E-10  1.04045268E-09 -1.81175411E-09  3.76128558E-10 -8.44641839E-05
 -2.75173338E-09 -4.70538595E-10 -3.04029000E-09 -3.55952448E-06  4.13956305E-09
 -1.14335054E-09 -2.04705020E-10  3.52878806E-05 -2.96845666E-10  2.34143420E-10
  2.53302358E-11 -1.08680206E-10  7.35397538E-04 -8.45674674E-05  3.01560426E-10
 -9.58392251E-10  1.49652737E-09  6.00231413E-10  1.10800309E-02  1.85787840E-09
 -1.14937382E-09  2.12854588E-09  7.25941390E-03 -8.28377151E-09  1.72455636E-09
 -1.19352941E-09  1.97456709E-03  1.15868412E-10  3.32954385E-12 -4.39544982E-11
 -6.44504963E-11  7.85366028E-05  3.78212449E-04  3.23407078E-11  9.26509027E-11
 -2.34566943E-11  4.42091566E-12  1.07413288E-02 -3.62243151E-09  1.95443050E-09
  8.21926000E-10  7.03905254E-03  1.10725299E-08 -2.14492282E-09 -8.82560383E-10
  1.91567247E-03 -6.79500274E-11  2.60734497E-12  2.55852335E-11 -4.98799177E-11
  2.31547672E-05 -4.14314131E-04  2.51015320E-10 -8.22789043E-10  1.40407356E-09
  7.91557672E-10 -7.61795265E-04  1.97309898E-09  9.51977734E-10 -2.27842935E-09
 -4.44240238E-04 -9.05593536E-09  1.43481011E-10  2.26381009E-09 -8.22327713E-05
 -8.99925706E-12  1.25737126E-10 -4.10049789E-11  5.27015437E-11  7.38979479E-04
  8.57056946E-11 -1.79853970E-10  6.18623860E-10  2.23623604E-10 -1.53447807E-03
 -3.75114026E-10 -8.04212785E-10 -2.76171030E-10 -4.66163815E-04  9.17940082E-09
  9.68968972E-10  4.27585520E-10  2.51610565E-04 -1.82865418E-11 -9.37304056E-12
  2.23141005E-11 -1.38155847E-11 -7.99836806E-05 -1.85996695E-04 -4.16641522E-11
  3.46073736E-11 -2.34086840E-10  2.74394167E-11 -8.74334305E-04  8.27824003E-10
  2.11725345E-11  6.17620819E-10 -3.67184130E-05 -6.64160333E-09  7.38048955E-10
 -1.25602355E-09  3.66329868E-04 -1.49907574E-11  2.28473906E-11 -1.09555217E-11
 -1.71368328E-11 -8.45674674E-05 -1.32355849E-04  3.39887361E-11 -4.17922090E-11
  1.50262985E-10  3.18723624E-11 -3.72298609E-03 -6.29037539E-10  3.59928521E-10
 -1.34967579E-10 -1.88987474E-03  4.71755537E-09 -7.16154103E-10  8.04927765E-10
 -1.28491410E-04 -1.65576577E-12 -1.42925615E-12  6.79162999E-12 -7.17123755E-12
  2.84246990E-05 -2.75305464E-04 -7.34640998E-12  1.34194960E-12  2.25864082E-11
  2.88482048E-11 -7.23174539E-03  3.65604426E-10 -2.41490142E-10 -1.22289858E-10
 -4.17248473E-03 -5.43439192E-09  8.52684441E-10  3.74301790E-10 -7.37937033E-04
 -1.87367103E-12  3.35009573E-12 -5.35286246E-12 -3.23521758E-12  2.71431053E-04
 -2.59537781E-05  7.74483825E-11 -1.23153034E-10  1.76409317E-10  2.14633908E-11
 -7.89185200E-03 -6.96938975E-10  1.90551148E-10  3.15558528E-10 -4.60192539E-03
  4.51848678E-09  1.92425646E-10 -1.04261157E-09 -8.52620046E-04 -5.96630625E-12
 -1.17517508E-12  1.46123165E-11 -6.11186058E-12 -4.74630546E-05  2.51999322E-04
  1.72706926E-02 -3.35646971E-02 -8.32708466E-03 -7.91700771E-02 -4.13372944E-09
  2.64106209E-05  2.04387774E-05 -1.08407519E-02  3.19458890E-09 -9.44809080E-02
 -1.40203717E-02 -1.16353259E-02  3.71109494E-09  3.40218624E-03 -6.55941826E-03
  2.18570621E-03 -9.82006458E-04  1.01844681E-09  1.10203989E-09 -3.12076264E-03
  8.59995292E-03 -7.94074501E-03  1.26734211E-02  5.04861882E-09 -4.50805723E-03
 -7.65570995E-03 -4.12676307E-03  3.11569545E-09  4.42766553E-02 -2.98574021E-03
  8.53588445E-03 -1.13701838E-09  1.24126235E-03 -1.92333517E-03  1.50421591E-04
  8.53680538E-04  4.46886916E-11  4.85490620E-11 -3.60776207E-03  6.09322659E-03
 -6.89669983E-03  4.92192850E-03  4.97338729E-10  2.62962019E-02 -1.00802251E-02
  7.19396060E-03  3.46638084E-10 -3.55211327E-02  7.52189881E-03 -5.36875331E-03
  8.77992648E-10  3.15886943E-05 -1.57343762E-04 -4.68371937E-04 -3.17305102E-04
 -2.50851086E-10 -2.24772035E-10 -3.12075729E-03  8.59987123E-03 -1.45663645E-02
  3.38957014E-03 -2.90164965E-09 -4.50796794E-03  1.41389877E-03  8.58137323E-03
 -2.47232808E-09  4.42775866E-02 -9.04253937E-03  4.81187154E-05 -1.82262254E-09
 -2.04343749E-03  1.36137787E-03  1.50407939E-04 -4.50121812E-04 -3.17303642E-11
 -9.79542069E-12  1.72705320E-02 -3.35643379E-02  7.21621955E-02  3.36111521E-02
  2.08460932E-12  2.59307457E-05  1.02585337E-02  3.50502153E-03 -4.10238311E-10
 -9.44791990E-02  6.44537683E-03  1.70410862E-02  1.74248874E-10 -4.98377235E-03
  1.82652483E-03  2.18568003E-03 -4.31064854E-03 -2.75619959E-10  1.04424216E-11
  2.05332871E+00 -3.35646355E-02  5.79110936E-02  1.29057761E-02  1.64511690E-01
 -1.76966950E-09  2.94319742E-02  1.42068280E-02  3.72702949E-02 -8.59102322E-09
  5.07650303E-02  9.97232842E-03  3.87280087E-03 -3.77203678E-09 -7.46467109E-03
  1.17711954E-02 -4.51237425E-03  2.31962452E-03 -2.90121132E-09 -2.69508440E-09
  8.59997076E-03 -2.02507168E-02  2.26207548E-02 -3.31862343E-02 -1.57198350E-08
 -1.15067491E-02  1.59583860E-02 -5.69321712E-03 -1.12727772E-08 -3.53746605E-02
  4.89158915E-03 -8.35103093E-03 -1.61311863E-09 -2.64583290E-03  4.48230004E-03
  2.83883059E-05 -1.50593531E-03  4.49231016E-10 -4.73685693E-10  6.09322658E-03
 -1.33457905E-02  1.50360775E-02 -1.07306832E-02  2.23560480E-09 -3.43678992E-02
  1.21406621E-02 -8.66430545E-03  2.01029864E-09  3.11191974E-02 -8.81868601E-03
  6.29456482E-03  4.06092754E-10 -2.79046072E-04  3.55078220E-04  4.77716374E-04
  1.06500353E-03  7.09208591E-10  7.62157752E-10  8.59993498E-03 -2.02504570E-02
  3.87370077E-02 -1.06038932E-02  1.33213020E-08 -1.15069373E-02  1.05719129E-02
 -1.32405791E-02  9.67409996E-09 -3.53752468E-02  9.48688158E-03 -1.90999338E-03
  3.74514246E-09  4.53078856E-03 -2.69436539E-03  2.84135047E-05  1.34268847E-03
  3.84584506E-11 -1.40443282E-11 -3.35642903E-02  5.79104704E-02 -1.51379005E-01
 -6.56836619E-02  2.86166394E-09  2.94328364E-02 -3.06274271E-02 -2.55515079E-02
  3.36988298E-09  5.07631145E-02 -4.20895334E-04 -1.06892617E-02  1.67605198E-09
  8.50315362E-03 -4.19661630E-03 -4.51233044E-03  8.65772651E-03  9.47081579E-10
 -5.73702994E-11 -6.27412518E-02  3.29895391E-01  6.97282326E-03 -1.88055321E-02
  1.28128231E-02 -3.51488478E-02 -2.01093241E-08  1.35350362E-02  2.44412821E-02
 -1.83658091E-02  5.67301739E-09 -1.07639117E-01 -2.45750405E-02 -2.91325117E-02
  1.01093500E-08  3.31217248E-03 -2.13962329E-03 -1.87199202E-04  1.31227293E-02
  1.74324230E-09  1.62181324E-09  4.34777174E-03 -1.01855114E-02  1.36009649E-02
 -6.31636635E-03  1.12098628E-08 -4.31711807E-02  2.58460632E-02 -1.11167653E-02
  6.86191330E-09  2.71616957E-02  3.42016801E-03  8.65910767E-03 -3.88605725E-09
  5.40109300E-04  9.08338676E-05 -1.69141214E-04 -4.64474096E-04  8.18648114E-10
 -1.57163689E-10  6.89669983E-03 -1.50360775E-02  5.29029805E-03 -2.84313492E-02
  3.61841304E-09 -4.27085558E-02  1.20576259E-03 -1.92757160E-02  3.80660896E-09
  7.66587523E-03 -7.18973784E-03  6.88455530E-03  4.46828486E-09  1.35003279E-03
 -1.32465663E-03  1.20228928E-04  9.83894032E-04 -6.94768601E-10 -5.95666679E-10
  1.49458336E-02 -4.00501576E-02  5.11158502E-02 -1.53428487E-02 -7.91096634E-09
 -3.78584166E-02  1.31248899E-02 -3.62081693E-02 -8.05676171E-09 -4.09350788E-02
  2.53034123E-02 -5.48187061E-03 -7.38743556E-09  1.15069336E-02 -5.48856233E-03
 -5.19568096E-04  1.33810002E-03 -1.33521568E-10 -1.87237682E-10 -7.27264368E-02
  1.48923831E-01 -2.62140926E-01 -1.23594890E-01  1.75032142E-09  1.29002668E-01
 -7.57140629E-02 -2.51330731E-02  1.61939377E-09 -3.16363328E-02 -3.16631442E-03
  6.06935929E-03  1.69315616E-09 -1.58660116E-03 -3.88107881E-03 -6.07116388E-03
  1.17266190E-02 -8.38103086E-10 -1.74276730E-10  6.58336452E-04  4.30648396E-03
  4.23460994E-01  7.93006242E-02 -1.63941691E-01 -2.90790955E-02 -3.16710639E-01
 -1.30329878E-08 -1.31759839E-01  9.29475458E-03 -9.06674261E-02  1.96929499E-08
 -3.51779778E-03 -1.28559009E-03 -1.10900431E-02  2.19005057E-08  1.15890388E-02
 -5.40429139E-03  6.35564005E-03 -4.40709142E-03  2.47802798E-09  4.02028987E-09
 -1.43095527E-02  3.88488766E-02 -2.82386331E-02  4.36702049E-02  2.24648770E-08
  2.51937370E-02 -3.18353507E-02 -3.14212500E-03  1.20049898E-08  5.25984134E-02
 -1.30068433E-02  2.63915661E-02 -8.34041429E-09  4.84369412E-03 -1.09908675E-02
  4.91282264E-04  5.10413400E-03  2.44894183E-10  3.10512650E-10 -4.92192850E-03
  1.07306832E-02 -2.84313492E-02 -1.42568354E-02  8.55135044E-10  3.04782800E-02
 -1.92752838E-02 -1.20474383E-02  2.05450512E-09 -5.45296273E-03  6.88041948E-03
 -2.45696756E-03  6.65654922E-09  2.11993731E-03 -2.13803613E-03 -8.58051335E-05
  5.21700265E-04 -1.20623856E-09 -1.08971349E-09  5.40244226E-04 -2.99720929E-03
  6.57946783E-03  6.15569142E-03 -1.65441089E-08  3.26380306E-02 -1.54910944E-02
  9.57672294E-03 -1.45941337E-08 -4.28105671E-02  1.61854109E-02  4.51101171E-03
 -1.21366695E-08  3.54786462E-03 -2.14615192E-03  2.21293286E-07  1.01601785E-03
 -1.38988799E-10 -9.10059071E-11 -3.23732210E-02  7.10788122E-02 -1.29665033E-01
 -4.17563655E-02  3.47438539E-10  3.00311267E-02 -5.27941185E-02  9.49050428E-03
  5.00093051E-10  1.02968100E-01 -2.17713643E-02 -3.25067923E-02  4.35316675E-09
  8.49661320E-03 -1.16160658E-02 -1.88898736E-03 -4.86596443E-03 -1.51626782E-09
 -1.68484028E-10 -4.69347465E-04 -3.07466119E-03 -8.82786909E-04  4.22855896E-01
 -1.67328615E-08  4.12108988E-08 -9.35857324E-08 -4.13428088E-08  2.16212882E-01
 -3.45516039E-09 -9.30879524E-08 -5.11073912E-08  1.28520156E-01 -1.19152447E-07
 -6.41182508E-08 -2.57241175E-08  2.57365392E-02  4.98230041E-10 -5.90452879E-10
 -2.29500408E-09  1.07399158E-09  8.92250419E-04  1.29181632E-02  5.04907862E-09
 -1.57179888E-08  2.43051038E-08 -6.28996177E-09 -1.62765908E-02  2.72722375E-08
  5.11037738E-09  3.48891549E-08 -2.27243987E-02  7.63414272E-08  2.00736504E-09
  2.97454294E-08 -1.46449715E-02  4.59886494E-09 -3.77012645E-09 -2.57587227E-10
  1.61535681E-09 -1.10800309E-02  3.72298609E-03 -4.13997595E-09  1.35284413E-08
 -2.00305901E-08 -8.46284626E-09 -1.32521583E-01 -1.82021318E-08  1.30482055E-08
 -2.87725455E-08 -9.83469236E-02  2.72288761E-08 -1.07957019E-08  1.44995939E-09
 -3.48363275E-02 -1.65569809E-09  5.95892089E-11  6.29138664E-10  8.92447209E-10
 -7.14962244E-04  5.10226837E-04 -7.69145514E-10 -8.75921792E-10 -7.48476729E-11
 -2.79455927E-10 -1.62768308E-02  4.86362577E-08 -2.52920212E-08 -9.61702277E-09
 -2.27239623E-02 -5.73670394E-08  1.48676775E-08  5.31366439E-09 -1.46446255E-02
  9.01313173E-10 -2.21792810E-11 -2.81059295E-10  6.14604191E-10 -7.12265756E-03
  9.26797688E-03 -4.24519515E-09  1.34667561E-08 -2.02170004E-08 -9.54332731E-09
  2.16211795E-01 -1.85039217E-08 -1.66254191E-08  3.02155867E-08  1.28520484E-01
  4.85159440E-08 -5.92676873E-09 -1.36209981E-08  2.57360575E-02  1.60778829E-10
 -1.68002773E-09  3.60959595E-10 -7.41098451E-10 -1.19262916E-02 -5.04321246E-03
  4.07765217E-09 -1.35257054E-08  1.20094790E-08  2.22830413E-08  3.32457066E-01
  2.61522691E-05  2.94324004E-02  3.84940574E-02  1.26735480E-01  1.01613213E-07
  3.54767299E-03  2.18955393E-02  2.48868805E-02  5.21645290E-08  7.55315606E-02
  1.76576329E-02  6.13656126E-03  1.04183215E-08 -7.94155183E-03  1.07008781E-02
 -2.72152448E-03 -4.73563579E-04 -3.94528916E-09 -2.28793182E-09 -4.50824714E-03
 -1.15064393E-02 -9.33632298E-03 -4.91058932E-02  2.72921369E-08 -5.41266460E-05
  4.89027769E-03 -1.32670259E-02  1.47652895E-08 -4.48467507E-02  4.20329201E-03
 -1.02994116E-02  4.91742794E-09 -3.35547215E-03  4.47446050E-03  1.55152469E-04
 -2.64539373E-03 -4.15017088E-09  9.35308225E-10  2.62962019E-02 -3.43678992E-02
  4.27085558E-02 -3.04782800E-02 -3.88561970E-08 -5.01270518E-02  1.75945063E-02
 -1.25561867E-02 -2.56912889E-08  2.92059601E-02 -5.74572618E-03  4.10116818E-03
 -7.74339645E-09  6.88094479E-04  7.73187456E-04  1.14813622E-03  1.42767647E-04
 -1.18244807E-09 -2.61952140E-09 -4.50824603E-03 -1.15063271E-02  4.34033478E-02
  2.47898447E-02 -6.28573666E-08 -5.39211466E-05  1.41360594E-02 -3.12788148E-04
 -4.02994616E-08 -4.48467509E-02  1.11059273E-02 -6.26598755E-04 -9.44454532E-09
  5.05556037E-03 -3.93661555E-03  1.55179850E-04  6.93139860E-04  7.90848157E-10
  7.47064909E-10  2.55098639E-05  2.94335760E-02 -1.07340872E-01 -7.76030368E-02
 -2.69734625E-08  3.54976752E-03 -1.64184909E-02 -2.87969590E-02 -1.72903887E-08
  7.55285329E-02 -6.28599191E-05 -1.86929882E-02 -4.98953560E-09  8.98289127E-03
 -6.22361870E-03 -2.72154765E-03  6.24425566E-03 -3.22089806E-09  6.29522742E-10
 -1.75534114E-01  2.62439432E-01 -1.47342022E-02  1.05182672E-02  4.04738442E-08
  2.30177077E-01  2.09396138E-03  6.81431098E-03  2.19328371E-02 -3.12429662E-02
  4.30404279E-08  1.67292253E-02  1.11567222E-02 -1.15649893E-02  3.22886419E-08
 -3.84177014E-02 -8.82963239E-03 -9.85283463E-03  9.85698259E-09  1.81673721E-03
 -2.25419983E-03 -4.73745550E-04  3.39934390E-03  1.33178644E-09  1.01723031E-09
 -8.13880293E-03  6.18116468E-03 -1.19225718E-02  2.17475601E-02  2.96859825E-08
 -6.79759164E-03  4.38541778E-03  2.69236950E-03  1.92389585E-08  1.74861172E-02
  1.30056260E-03  5.81153212E-03  4.05063222E-09  8.25737352E-04 -1.13718816E-03
 -3.09037930E-04 -1.38985272E-03 -2.05872856E-09  6.59649860E-10  1.00802251E-02
 -1.21406621E-02  1.20576258E-03 -1.92752838E-02 -2.01969609E-08 -1.75945063E-02
 -7.18806763E-04 -6.60586191E-03 -1.29056501E-08 -3.21431908E-03  2.23551061E-05
  1.60820113E-03 -2.86572538E-09  1.60044749E-03 -1.21429036E-03  2.03942881E-04
 -2.47251474E-05 -1.34668279E-09 -2.27793505E-09  2.53796675E-04 -1.29094808E-02
  2.27033021E-02  1.29314135E-02 -4.88219356E-08 -1.39343311E-02  6.67051059E-03
 -4.01184403E-03 -3.26610635E-08 -1.50150393E-02  8.41103487E-03 -5.25195657E-04
 -9.94326062E-09  4.09273950E-03 -2.01206827E-03 -1.08100717E-04  5.81617438E-04
  6.11180599E-10  1.44940158E-10 -9.37873658E-03  3.93816153E-02 -6.58193304E-02
 -3.37470858E-02 -2.36673908E-08  3.25011629E-02 -1.82592518E-02 -5.41863739E-03
 -1.55983752E-08 -8.85332740E-03 -1.55039565E-04  6.22336975E-04 -4.41936013E-09
 -9.01116962E-04 -1.37490542E-03 -1.48478906E-03  3.18595737E-03 -2.47256006E-09
  5.12463831E-10  5.70955711E-03 -2.70729916E-02  1.33785487E-01 -5.54120343E-03
  2.68616236E-08 -2.57293430E-02  4.75808282E-02  1.06368237E-02 -3.93001519E-02
 -3.58239301E-03 -8.81571998E-02 -5.74933116E-08 -2.86166757E-02  4.69273825E-03
 -2.40967473E-02 -2.82929734E-08 -3.83502392E-03 -2.35812308E-03 -3.32668479E-03
 -2.40411096E-09  3.81926636E-03 -1.56295360E-03  1.40722166E-03 -1.31051783E-03
  5.98113749E-11  5.39780062E-10 -3.06591035E-03  1.57752644E-02  1.03008129E-03
  3.46242183E-02 -1.90690202E-08  1.23981314E-02 -4.79679556E-03  6.21740432E-03
 -1.22490716E-08  2.18810613E-02 -2.96981617E-03  1.02269280E-02 -5.78551133E-09
  2.05675767E-03 -4.36397827E-03  8.09593419E-06  1.32875498E-03  2.45432831E-09
 -7.13196202E-10 -7.19396060E-03  8.66430546E-03 -1.92757160E-02 -1.20474383E-02
  2.10108005E-08  1.25561867E-02 -6.60586191E-03 -5.26099514E-03  1.49160627E-08
  2.29971184E-03  1.60717504E-03  1.12812188E-03  6.21235030E-09  1.50574850E-03
 -1.78134124E-03 -1.45543035E-04  1.06869814E-03  7.83956762E-10  1.49360210E-09
  8.69354515E-03 -1.09739623E-02  3.36498211E-02 -1.47191011E-07  3.49318774E-08
  2.39819027E-03  3.47736605E-03  3.93193756E-03  2.23185224E-08 -2.36571411E-02
  8.25660567E-03  3.11795945E-03  4.08014730E-09  1.60749601E-03 -5.62896774E-04
  2.89623027E-04  2.09579309E-03 -3.06453801E-10 -4.38880749E-10 -5.43794174E-03
  6.33132916E-03 -6.14056917E-02 -4.07495033E-04  1.29096884E-08 -6.51839937E-03
 -2.16759197E-02  5.31915879E-03  9.35266177E-09  3.75874310E-02 -6.87063949E-03
 -1.20036798E-02  4.30497742E-09  3.53291309E-03 -3.85271263E-03 -9.41307188E-06
 -2.11522510E-04  1.93572292E-09 -2.85557476E-10 -4.07476218E-03  1.93213687E-02
 -5.54264987E-03  1.29973271E-01 -2.71468710E-08  1.83634453E-02 -3.61332171E-03
  4.50952478E-02 -1.43601940E-08  3.33817510E-08 -6.78315924E-08 -3.27845652E-08
  1.28520151E-01  5.60761226E-09 -6.25387131E-08 -3.49572092E-08  7.71862931E-02
 -6.46850281E-08 -4.00933278E-08 -1.60870471E-08  1.60694479E-02  9.40342535E-10
 -8.33419274E-10 -1.77019635E-09  1.26705501E-09  9.39496622E-05  8.18230580E-03
  3.11589537E-09 -1.12714879E-08  1.35605252E-08 -2.70351854E-09 -2.27247585E-02
  1.47526546E-08  3.39414907E-09  2.25399051E-08 -2.12051523E-02  4.14853964E-08
  2.28285587E-09  1.77286087E-08 -1.02005087E-02  3.32345984E-09 -2.63704987E-09
 -1.25045783E-10  8.96463334E-10 -7.25941390E-03  1.88987474E-03 -2.02014703E-09
  8.21475094E-09 -1.14982014E-08 -5.66838337E-09 -9.83469236E-02 -1.09937063E-08
  8.19689711E-09 -1.83651638E-08 -7.04007026E-02  2.29444453E-08 -7.65601334E-09
  2.06299092E-09 -2.33357683E-02 -1.07571314E-09  1.74474617E-11  4.31199471E-10
  5.08289143E-10 -2.99791233E-05  2.14096682E-05 -1.10912975E-09 -1.76098498E-10
  1.12237069E-09  4.62238551E-10 -2.27239688E-02  3.09273421E-08 -1.54164577E-08
 -5.73293844E-09 -2.12042261E-02 -4.42397622E-08  1.08831082E-08  3.92475400E-09
 -1.02001606E-02  6.18801609E-10 -2.36751933E-11 -1.82304910E-10  3.91930926E-10
 -4.14713974E-03  6.25080933E-03 -2.21614286E-09  8.52618655E-09 -1.26601379E-08
 -5.39204270E-09  1.28520493E-01 -1.10244115E-08 -1.08976575E-08  1.92967338E-08
  7.71871620E-02  3.71369660E-08 -3.48638068E-09 -1.02565053E-08  1.60693580E-02
  2.07151788E-11 -1.10314962E-09  2.64265680E-10 -5.37355971E-10 -7.70721280E-03
 -2.74876014E-03  3.34458183E-09 -1.23575030E-08  8.92977869E-09  1.43774463E-08
  2.04142806E-01  2.15526731E-08  1.82310133E-08 -1.69333968E-08  1.26382605E-01
 -9.44811370E-02  5.07653955E-02 -1.04996291E-01  2.40774765E-02 -5.97834225E-08
  7.55299090E-02 -3.69809019E-02  1.11241328E-02 -3.10373976E-08 -1.15649930E-01
 -3.13003527E-02 -1.44123660E-02 -1.44406270E-08  3.96602185E-03 -3.19390132E-03
 -1.64291839E-03  9.85557111E-03  1.31100858E-08  3.93983003E-09  4.42799861E-02
 -3.53784610E-02  5.75459606E-02 -1.40458226E-02  7.55554091E-08 -4.48477380E-02
  2.79950404E-02 -1.17413302E-03  4.09992738E-08  4.31102534E-02  2.93240121E-03
  6.02369710E-03  1.28641995E-09  2.96216910E-03 -4.61620618E-04  6.79897120E-04
  1.53661504E-03  8.26947954E-09  3.26469449E-09 -3.55211327E-02  3.11191975E-02
 -7.66587499E-03  5.45296279E-03  1.93710926E-07  2.92059601E-02  3.21431916E-03
 -2.29971179E-03  1.12465959E-07 -1.29159777E-02 -3.73464613E-03  2.66481025E-03
  2.07070545E-08 -1.73064374E-03 -8.09921191E-04 -5.05106916E-04  1.54655677E-03
 -2.26662705E-09  7.49166570E-09  4.42788295E-02 -3.53775507E-02  3.19692544E-02
 -4.98267660E-02  2.27106309E-07 -4.48476435E-02  1.02049838E-02 -2.60838883E-02
  1.32626269E-07  4.31102048E-02 -4.74574015E-03 -4.72745463E-03  2.36749795E-08
 -9.18173346E-04  3.41846465E-03  6.79928930E-04 -4.21342321E-06 -5.71529178E-09
 -4.04841784E-09 -9.44803690E-02  5.07626530E-02 -5.68609099E-02  9.14625820E-02
  1.53882591E-07  7.55289645E-02 -2.25289952E-02  3.13539972E-02  8.65780915E-08
 -1.15645118E-01  3.45460740E-03  3.42850582E-02  1.38384775E-08 -7.68542933E-03
  8.45760261E-03 -1.64279159E-03  5.23026301E-03  5.52455339E-09 -6.19160805E-09
  1.37853219E-01 -6.23712979E-02  1.32652472E-01 -9.46993806E-02  3.62132350E-08
 -8.93240083E-02  4.36548060E-02 -3.11646984E-02  1.52445098E-08  1.58471619E-01
 -1.15364221E-02  9.04869728E-03 -1.83701051E-02  2.70983358E-03  1.67306125E-08
  1.61583735E-02 -6.33553385E-03  2.94593919E-03  1.40613173E-08 -2.79634905E-02
 -7.59582829E-03 -3.93351865E-03  3.51613503E-09  1.03390245E-03 -1.08142628E-03
 -3.14612636E-04  2.37671774E-03  2.70141007E-09  9.82127793E-10  4.47901741E-03
 -3.08802273E-03  1.43440250E-02 -8.42501406E-04  2.38831597E-08 -5.00919835E-03
  7.78886777E-03  1.66922718E-04  1.49963322E-08  6.46815417E-03  4.73911978E-04
  2.67544511E-04  2.71723127E-09  4.66305293E-04  5.38850725E-05 -3.89513474E-05
  5.41470038E-04 -2.54056231E-10  6.99933830E-10 -7.52189879E-03  8.81868597E-03
 -7.18973774E-03  6.88041951E-03  8.82170086E-09  5.74572615E-03  2.23551362E-05
  1.60717505E-03  4.21436834E-09  3.73464615E-03 -2.28971930E-03  2.66587907E-03
  1.53906616E-10 -3.87258164E-04 -3.70961204E-04 -1.78871647E-04  1.17688405E-03
 -9.52899872E-10 -4.34059752E-10  8.88517118E-03 -9.67832632E-03  2.25298539E-02
 -1.96906499E-02 -2.53515882E-09 -1.10215705E-02  6.76431710E-03 -8.96514540E-03
 -3.66252073E-09  3.75047697E-03  1.19718674E-03 -6.84779027E-04 -2.70832311E-09
  6.21096801E-05  8.65857234E-04  1.48992265E-04  8.93475705E-04 -2.88271991E-10
 -3.11865983E-10 -1.70862406E-02  8.33923661E-03 -2.76301380E-02  2.73674545E-02
  4.03121601E-09  1.41420064E-02 -9.98906996E-03  9.18308427E-03  1.03533156E-09
 -2.81296054E-02  3.58223341E-04  8.52573929E-03 -7.75035057E-10 -1.98628568E-03
  2.15907299E-03 -2.51687203E-04  1.80574047E-03 -7.85455311E-10 -3.87217980E-10
  2.87210648E-02 -2.07631744E-02  4.51620188E-02 -2.16936297E-02  1.92520000E-08
 -2.60526210E-02  1.54413239E-02 -6.58031259E-03  1.20699477E-08  4.18786262E-02
  1.24292497E-02  1.41017263E-02 -5.70763785E-03  3.05555792E-02 -1.72991436E-02
  1.01059960E-08 -9.40002402E-03  1.04405415E-02 -5.82247367E-03  4.90363836E-09
  2.01372445E-02  5.79221164E-03  1.93757220E-03  2.44251599E-09 -4.47599419E-04
  2.48528817E-04  1.58000112E-04 -2.24510438E-03 -2.76227829E-09 -6.67409375E-10
 -7.85665438E-03  9.17362759E-03 -2.25124259E-02  1.54743119E-02 -1.75583573E-08
  9.93306149E-03 -8.61560581E-03  3.74058475E-03 -9.56781588E-09 -1.74432648E-03
 -9.34679828E-04  1.05381029E-03 -3.23320659E-10 -1.62310651E-04 -6.40201511E-04
 -1.70967260E-04 -8.60899679E-04 -1.70784325E-09 -7.25293387E-10  5.36875335E-03
 -6.29456489E-03  6.88455535E-03 -2.45696756E-03 -4.11047334E-08 -4.10116825E-03
  1.60820114E-03  1.12812188E-03 -2.37678171E-08 -2.66481028E-03  2.66587907E-03
 -4.57418174E-04 -4.34755723E-09  9.23701976E-04 -3.82458671E-04  1.27653147E-04
 -5.83197744E-04  5.40925782E-10 -1.54108070E-09 -1.68279799E-03 -6.02867905E-05
  1.97211976E-03  7.28414535E-03 -4.74323561E-08  1.50935699E-03 -1.85046901E-04
  4.76396309E-03 -2.75424591E-08 -5.55111393E-03  5.16692053E-04  3.29641455E-04
 -4.71011205E-09  2.23255765E-04 -4.54329829E-04  9.23451148E-05  1.03474619E-05
  1.22407288E-09  8.62623277E-10  6.32509795E-03 -6.70060364E-03 -4.76911604E-04
 -8.03351493E-03 -3.26031980E-08 -1.22248195E-02  1.68910966E-03 -2.16653831E-03
 -1.83178181E-08  1.99016238E-02 -1.19894255E-03 -6.01795010E-03 -3.01936471E-09
  1.56274676E-03 -1.45317060E-03  2.46120790E-04 -5.67344261E-04 -1.09246161E-09
  1.32434460E-09 -2.04978271E-02  1.48180127E-02 -2.16906432E-02  3.02547399E-02
 -9.09105392E-09  1.85937797E-02 -6.57903006E-03  1.09193496E-02 -3.88915842E-09
 -2.98922622E-02 -7.57019686E-03  7.22669211E-03 -8.90734776E-09  1.80466748E-08
 -6.83164434E-09 -5.75076279E-09  2.57370229E-02  9.63443583E-09 -1.35597264E-08
 -8.62289784E-09  1.60698588E-02 -5.82209910E-10 -6.98958128E-09 -2.74179779E-09
  3.81475691E-03 -9.82134475E-11 -1.89247150E-10 -7.83721916E-10  2.49321855E-11
 -3.18764460E-04  2.02798607E-03 -1.13766054E-09 -1.61099863E-09 -8.84016030E-09
  2.54795417E-09 -1.46444296E-02  4.91394865E-09 -1.70323268E-09  6.85012713E-09
 -1.02000657E-02  1.40221522E-09  1.40110615E-09  2.30195797E-09 -3.19912928E-03
  6.88272510E-10 -3.92635928E-10 -1.17541028E-10 -5.34639095E-10 -1.97456709E-03
  1.28491410E-04  1.77500183E-09 -1.76922191E-09  5.05906236E-09  2.59169145E-10
 -3.48363275E-02 -5.86279997E-09  4.57933377E-09 -2.61731843E-09 -2.33357683E-02
  8.86038969E-09 -1.64390921E-09  1.54059400E-09 -6.70634322E-03 -5.36144266E-11
  2.11353380E-11  2.06012950E-10 -1.59941873E-10  2.99520327E-04 -2.13861321E-04
 -1.38025903E-09  7.55759744E-10  3.36138146E-09  1.31537027E-09 -1.46466927E-02
  6.29308343E-09 -1.81244945E-09 -6.32200440E-10 -1.02014088E-02 -1.51624724E-08
  2.92942755E-09  9.24543872E-10 -3.19949526E-03  6.61590992E-11  2.57981876E-11
 -4.84779785E-11 -4.19475175E-11 -7.63346495E-04  1.82551247E-03  1.42310660E-09
 -9.81024022E-10  1.82237983E-09  2.47402238E-09  2.57347129E-02 -5.26320142E-09
 -3.22919465E-11  5.28500725E-09  1.60685097E-02  1.29063259E-08 -7.42163048E-13
 -3.21493125E-09  3.81434502E-03 -1.35586351E-10  2.35464144E-11  1.49940623E-10
 -6.14336559E-11 -2.02150865E-03 -3.57764252E-04 -2.19100059E-10 -3.30877433E-09
 -7.35297872E-10 -5.72489938E-09  4.59266262E-02  5.82306580E-09  4.79185685E-09
 -6.63142614E-09  2.92042011E-02 -5.46942569E-09  2.08755330E-09  1.29488773E-09
  7.32151529E-03  3.35696518E-03 -7.51505147E-03 -3.50629416E-03 -1.19504265E-02
 -7.00031563E-10 -7.10516732E-03 -2.22725878E-04 -4.08127094E-03  1.03687922E-09
  4.98903644E-04  1.21222560E-04 -3.37417844E-04  1.13988246E-09  4.62859554E-04
 -1.21907588E-04  2.64528199E-04 -5.55548861E-05  1.85314934E-10  1.79391510E-10
  1.72569954E-04  1.18950561E-04  8.39647538E-05 -2.24116376E-04  1.22177681E-09
 -1.16865887E-03 -1.31886199E-03 -8.18709891E-04  7.00363458E-10  2.33095296E-03
 -4.27626781E-04  1.29478014E-03 -3.84945235E-10  2.04095499E-04 -4.07762293E-04
  5.87376669E-05  2.56046252E-04  1.53802642E-11  1.10948304E-11  3.15886943E-05
 -2.79046072E-04 -1.35003279E-03 -2.11993731E-03  2.37713157E-11  6.88094479E-04
 -1.60044749E-03 -1.50574850E-03  8.19980717E-11 -1.73064375E-03  3.87258164E-04
 -9.23701978E-04  3.17708089E-10 -5.82264366E-06  1.17580612E-04 -2.07284285E-05
 -2.81438646E-04 -6.38513427E-11 -6.09389149E-11 -1.77242678E-03  3.82968271E-03
 -9.68096929E-03  4.95248954E-03 -9.69384619E-10  4.50096118E-03 -3.45013136E-03
  1.53480001E-03 -8.14796800E-10 -7.57771312E-04  2.32804018E-04  1.53114407E-04
 -6.27159126E-10  2.46011218E-04 -2.97785008E-04 -1.85998624E-04 -3.79983984E-04
 -5.57732468E-12 -6.65994288E-12 -4.80558646E-03  8.70208732E-03  6.68919208E-04
 -1.00814889E-02 -1.60694328E-10  5.68509783E-03 -3.83033959E-04 -1.73717119E-03
 -7.19313824E-11  5.98803286E-03 -7.78490791E-04 -1.86987997E-03  2.10320239E-10
  4.39773794E-04 -6.78504977E-04 -3.32282291E-04 -5.08746576E-04 -7.89636377E-11
 -5.16821059E-12 -1.87675465E-02  4.30177648E-04  2.59755532E-04  1.68946660E-02
  1.05226245E-09  2.11060178E-03 -3.92042898E-04  4.30154758E-03  6.70148539E-10
 -6.26861498E-03 -1.88367408E-03  1.24479081E-03 -3.30490457E-10  1.22273885E-03
 -6.51425701E-03  1.18216940E-02  3.47418924E-03  5.65542098E-03  8.08532347E-10
  9.86454625E-03 -6.38275342E-04  1.95027941E-03 -6.77662219E-10  2.73093440E-04
 -1.29794550E-04  5.41897344E-04 -1.18520914E-09 -1.81494550E-04 -5.53557874E-05
 -4.65695497E-04 -1.79297116E-04  1.72746787E-10  2.88310246E-11 -8.54677583E-04
  1.71759354E-03 -4.30710011E-03  4.73549924E-03 -3.92895639E-10  2.28765245E-03
 -6.26134765E-04  2.09834633E-03 -1.38572005E-11  1.69663864E-04  1.63690709E-04
 -3.75518869E-04  6.80934133E-10  4.65788648E-05  9.75768905E-05 -1.36179893E-04
 -4.13635756E-04 -6.20850209E-11  1.72302257E-11 -1.57343762E-04  3.55078220E-04
  1.32465663E-03  2.13803613E-03 -4.16967110E-10  7.73187456E-04  1.21429036E-03
  1.78134124E-03 -3.78413582E-10 -8.09921199E-04  3.70961206E-04  3.82458671E-04
 -4.72096701E-10  1.17580612E-04 -1.60225958E-04 -3.46486221E-06  2.21227072E-05
  2.86181241E-11  8.50784126E-12  1.09035325E-03 -1.99323566E-03  4.04196362E-03
 -2.42536846E-03 -1.37689645E-10 -3.38204725E-03  1.60777686E-03 -1.11460438E-04
  9.26610241E-11  3.25847872E-03 -1.18784491E-03 -2.02524406E-04  4.85064592E-10
 -4.13004063E-04  4.05271907E-04  1.08559706E-04  5.66186499E-05  1.60541803E-11
  8.42239986E-12  1.64830174E-03 -4.39547941E-03  5.27342579E-03  1.21582465E-02
 -3.97623824E-10 -2.92577478E-03  2.11829341E-03  3.24416546E-03 -3.40569932E-10
 -5.21604419E-03  5.82456184E-04  1.81149380E-03 -3.96226157E-10 -4.43506820E-04
  7.86340507E-04  1.31115892E-04  1.60741028E-04  2.53529849E-11  1.53327818E-11
 -1.73339642E-02 -1.98762379E-03 -6.91005756E-03 -1.21482677E-02 -4.32943833E-10
 -1.46745916E-03 -1.32783966E-03 -3.07403314E-03 -8.26240691E-11  2.46427216E-03
  6.45107630E-04 -3.60738594E-04  5.93348031E-10 -5.84371029E-04  1.03462611E-03
  2.18571273E-03 -4.51239171E-03 -1.39959560E-03 -6.20248842E-03 -1.29375027E-09
 -2.72149392E-03 -7.34178552E-04 -1.29057110E-03 -5.23925858E-10 -1.64287720E-03
 -3.38963529E-04 -9.49714533E-05 -1.75489852E-11  2.72157828E-04 -4.73320544E-04
  3.09952467E-04 -6.04479659E-05  3.76908379E-11  7.43528172E-11  1.50417153E-04
  2.83939759E-05  2.59624448E-04 -4.50082294E-04 -2.57864701E-10  1.55188477E-04
 -1.96778975E-04 -2.38416719E-04 -1.25207725E-10  6.79722831E-04 -1.54464857E-04
  8.28239249E-05 -1.17596726E-10  6.12537289E-05 -1.38693876E-04  4.75516589E-05
  1.29734300E-04  4.36550636E-11 -6.04202099E-12 -4.68371937E-04  4.77716374E-04
 -1.20228928E-04  8.58051335E-05  3.45900467E-10  1.14813622E-03 -2.03942881E-04
  1.45543035E-04  2.20419032E-10 -5.05106908E-04  1.78871648E-04 -1.27653143E-04
  9.60654237E-11 -2.07284285E-05 -3.46486221E-06  7.61897492E-06  2.89974234E-05
  8.37182676E-12  2.63107408E-11  1.50416956E-04  2.83909972E-05  5.10041526E-04
 -9.92166511E-05  6.65441053E-10  1.55209939E-04  1.61479063E-04  2.63577582E-04
  3.99680839E-10  6.79696658E-04 -1.28526508E-04  1.19150726E-04  4.60890927E-11
 -1.86639864E-04  1.09202682E-04  4.75497544E-05  3.13349691E-05 -1.78184446E-11
  1.16395754E-12  2.18567686E-03 -4.51233208E-03  5.41052937E-03  3.33986385E-03
  5.58445945E-10 -2.72150992E-03  9.81798713E-04  1.11387630E-03  3.17965067E-10
 -1.64278169E-03 -2.04080500E-05  3.51413304E-04  8.38455461E-11 -3.62351142E-04
  1.61186851E-04  3.09949499E-04 -3.12303215E-04  2.02956706E-11 -9.61782672E-12
 -1.06834753E-02 -1.62577548E-02  5.19236722E-04 -3.70502076E-04 -1.11910788E-10
 -1.18565989E-02  1.43669476E-03 -1.02533400E-03  7.71697349E-11  2.52814912E-03
  1.02729261E-03 -7.33175661E-04 -2.26277284E-12  2.69934762E-05  1.77054284E-04
  9.38325223E-04 -1.24976269E-03  2.02087721E-03 -1.31743913E-02  2.16026186E-03
  1.43605343E-09  4.48100280E-03 -3.96778450E-03  7.24817070E-04  3.41691819E-09
 -1.06870375E-02 -3.03929806E-03 -1.68133416E-03  1.43715314E-09  3.30589189E-04
 -2.12369851E-04 -1.05616467E-04  1.18685848E-03  1.15630369E-09  4.78421694E-10
  1.92751130E-03 -4.28404108E-03  7.48890412E-03 -6.26133929E-03  5.00849317E-09
 -4.84266364E-03  3.51889238E-03 -1.82872994E-03  3.53201116E-09  2.17020911E-03
  3.20337356E-04  1.33081795E-04  5.43790247E-10  1.90046312E-04  1.08879511E-04
  1.32254640E-04  2.81433687E-04 -8.54004051E-11  9.65049511E-11 -3.17305102E-04
  1.06500353E-03 -9.83894032E-04 -5.21700265E-04 -5.38600660E-10  1.42767647E-04
  2.47251476E-05 -1.06869814E-03 -5.44155552E-10  1.54655679E-03 -1.17688406E-03
  5.83197744E-04 -1.51265058E-10 -2.81438646E-04  2.21227072E-05  2.89974234E-05
  3.15856094E-04 -2.27266363E-10 -2.24577893E-10  1.15544342E-03 -2.81104844E-03
  4.41793213E-03 -3.07828391E-03 -3.89847974E-09 -2.59214285E-03  1.36666200E-03
 -2.72474691E-03 -3.00779799E-09  9.43598053E-04  6.11874681E-04 -2.78546165E-04
 -1.36446695E-09  2.55553525E-04  1.03662646E-04  3.51071029E-05  4.83586377E-05
 -2.59153639E-11 -2.70740515E-12 -4.48975303E-03  8.45801317E-03 -1.00934898E-02
  4.89651518E-03 -2.21530595E-10  9.55792498E-03 -3.63061133E-03  2.21680109E-03
 -3.41513435E-10 -8.50732974E-03  1.50307385E-04  2.68039876E-03 -1.20545082E-10
 -6.00285676E-04  4.88401990E-04 -3.42506912E-04  6.41113687E-04 -3.28904219E-10
 -3.36978390E-11  2.40780073E-03 -4.06096941E-03  1.82920066E-02 -6.27511259E-03
  5.43105047E-09 -6.00931990E-03  5.57102391E-03 -2.37958211E-03  3.79481367E-09
  1.46662037E-02  4.06995915E-03 -2.94446269E-03  6.55206794E-10 -3.30022929E-04
  1.40828028E-05  2.52045512E-04  1.65170238E-03 -1.00936549E-10 -6.03687496E-11
 -1.03547482E-09 -4.85298747E-10 -1.59553345E-03  9.72589044E-10  1.95911527E-09
  5.76408667E-10 -1.47307795E-03 -1.00611946E-08 -5.48362712E-10 -2.01117261E-10
 -7.00828030E-04  1.04916365E-10 -2.19034728E-11 -1.68123781E-11  1.05761947E-10
 -7.55467936E-05  3.57328087E-04  6.59329031E-11 -6.23262003E-11  5.73092154E-10
  5.67508005E-11 -4.46491085E-03 -2.01943260E-09  2.49147019E-10 -1.34946362E-09
 -3.33973249E-03  7.91276998E-09 -9.58212607E-10  1.36392885E-09 -1.19931445E-03
  6.49284420E-12 -1.58281982E-11  2.40967515E-11  2.87546845E-11  7.85366028E-05
  2.84246990E-05 -2.14157757E-11 -2.40377020E-12 -3.44588551E-10 -1.50989622E-10
  7.14962244E-04  1.20738477E-09 -8.22898926E-10  4.47867872E-10  2.99791233E-05
 -6.27121669E-09  9.98269955E-10 -1.01748077E-09 -2.99520327E-04  1.27011376E-11
 -5.52507513E-12 -1.46435410E-11  1.45418121E-11  1.57818530E-04  4.18031857E-04
 -2.26007732E-13 -1.37590671E-11  1.12642388E-10  3.95530847E-11  8.76415632E-03
 -1.04454076E-09  6.47357654E-10  3.26563815E-10  5.26635589E-03  7.01153232E-09
 -1.07862407E-09 -5.07636327E-10  1.09852392E-03  2.49192888E-11 -2.30859802E-11
  8.44452929E-12  1.82493024E-11 -3.62917942E-04  2.26452195E-04 -1.25542075E-10
  2.13717882E-10 -6.39855461E-10 -3.76076630E-10  1.16335034E-02  1.39205588E-09
 -3.74992004E-10 -9.24906245E-10  7.13300656E-03 -5.59398226E-09 -1.99169014E-10
  1.28387102E-09  1.59698067E-03  2.27248127E-11 -1.81055043E-11 -3.21696825E-11
  2.57173224E-11  4.81942845E-05 -2.85883656E-04 -4.19950464E-11  1.77342945E-10
  8.03301058E-10  5.03467348E-10  6.45364027E-03 -1.44347747E-09 -8.44561488E-10
  8.39080804E-10  3.76328765E-03  6.67579243E-09  2.22281515E-10 -1.39676037E-09
  6.97158316E-04  2.08917830E-11 -3.98375521E-11  2.10838335E-11  3.96237131E-11
  4.14845752E-04  8.74808544E-10 -2.26208025E-09  1.41866495E-09 -1.77652391E-10
 -1.28502782E-02  1.20875722E-09  5.83494920E-09  2.24668482E-09 -8.04912281E-03
 -3.21988872E-09  2.37608734E-09  1.06762864E-09 -1.92954741E-03  2.28199925E-10
 -7.82109560E-11  9.37175939E-11  1.64926296E-10 -3.28422801E-04  7.27428623E-05
  1.79775796E-12  6.49910974E-10  4.58811634E-10  5.56267552E-10 -1.08024238E-02
 -3.74510642E-09  4.45927676E-10 -3.02152141E-09 -6.71691408E-03  4.09439025E-09
 -9.68084992E-10  3.28549117E-11 -1.57397395E-03 -1.40870255E-10  8.69792665E-11
  3.68863919E-11  1.80637658E-11  3.78212449E-04 -2.75305464E-04 -5.78054592E-11
 -2.75999176E-10 -3.78907013E-10 -6.11831419E-11 -5.10226837E-04  2.45046788E-09
 -1.79006576E-09  1.63381442E-09 -2.14096682E-05 -6.77517872E-09  1.33519590E-09
 -9.51737882E-10  2.13861321E-04  8.02911695E-11 -2.82097413E-11 -4.69883296E-11
  7.12405476E-12  4.18031857E-04  4.45219077E-04  1.48179356E-10 -4.46041419E-11
  1.72042126E-10  1.02576662E-10  7.73404354E-03 -3.16957552E-09  1.71257550E-09
  8.49593082E-10  5.34186644E-03  8.13460432E-09 -1.40691652E-09 -6.26596209E-10
  1.64571250E-03  1.46637907E-11 -3.64651024E-11  1.99721945E-11  2.53739403E-11
 -1.23326474E-04  1.66148776E-04 -1.08274131E-10 -1.49099283E-10 -4.80143588E-10
 -3.39855404E-10  5.68621086E-03  2.45743211E-09 -6.47140547E-11 -2.35425083E-09
  4.00966047E-03 -6.21661949E-09  2.20428373E-11  1.48031544E-09  1.29016021E-03
  3.59301467E-11  1.98087109E-12 -5.27118578E-11  4.46148050E-11  3.99867713E-04
 -5.09840963E-05  2.10012616E-10  2.35273427E-10  9.16315316E-10  1.02724499E-09
 -4.60599326E-03 -3.81822553E-09 -1.89316367E-09  2.47965780E-09 -2.68583873E-03
  3.15955317E-09 -7.68567435E-10 -5.54028513E-10 -4.97654915E-04  3.64517389E-11
 -7.34505233E-11  5.45422646E-11 -1.46074531E-10  2.34591941E-04  5.76139850E-04
 -6.05570746E-02  1.15275923E-01 -2.44699434E-01 -1.11440243E-01 -1.67428800E-07
  1.11465369E-01 -8.91425591E-02 -4.05970100E-02 -5.29402359E-08 -1.43083759E-01
 -4.84928140E-02 -2.20854601E-02 -3.44239691E-09  1.17421746E-02 -6.14325515E-03
 -6.19758634E-03  1.18664493E-02  2.39735249E-08  1.09179263E-08  1.26389374E-02
 -2.75842216E-02  4.71265074E-02 -8.78655694E-03 -1.31322681E-08 -4.71914139E-02
  1.46296824E-02 -2.65461722E-03  4.23661796E-09  8.38540594E-02 -1.80115073E-03
  2.37610352E-02 -1.24057938E-10  8.97259026E-03 -6.11972061E-03  6.97438092E-04
  2.43440570E-03  4.65127549E-09 -1.50563500E-09 -8.17363200E-03  1.93318493E-02
 -3.26516980E-02 -1.28573774E-02  1.47899437E-08  3.12323724E-02 -1.80753266E-02
 -1.90388895E-02  1.09495981E-08 -7.13829171E-03 -5.29620826E-03 -2.58491522E-03
  5.48102301E-09 -2.35498245E-03  3.51479284E-05 -4.48139127E-05  1.23210137E-03
  1.79391825E-10  4.85956079E-10 -1.03483791E-03  1.83507969E-03 -3.43052049E-03
 -1.56216461E-03  1.50633900E-08  1.65493590E-02 -3.92921376E-03 -1.78936808E-03
  6.52632561E-09 -2.55357467E-03  6.58395509E-03  2.99744241E-03 -3.87228224E-09
  1.07279290E-03 -3.19909823E-04  3.64881373E-06  9.24014545E-04 -5.02957326E-10
 -2.29073915E-10 -8.17369643E-03  1.93321627E-02 -3.11333981E-02 -1.61914028E-02
  1.47895493E-08  3.12327615E-02 -2.62279752E-02 -1.13726483E-03  1.09495485E-08
 -7.13007282E-03 -5.42637461E-03 -2.29995259E-03  5.48103867E-09  6.20252988E-05
 -2.38183544E-03 -4.47720378E-05 -1.19651926E-03  4.84334802E-10 -1.83716910E-10
  1.26389028E-02 -2.75840331E-02  2.43077424E-02  4.13187685E-02 -1.31328510E-08
 -4.71919510E-02  7.60074919E-03  1.27794276E-02  4.23647645E-09  8.38513525E-02
  1.67407371E-02 -1.69566074E-02 -1.24549052E-10  2.47194012E-03  3.81007535E-04
  6.97454749E-04  8.96636827E-03  1.91751350E-09  4.49721597E-09  2.17989939E-01
 -1.00214322E-02  1.69464820E-02 -1.95173253E-01 -8.88848327E-02 -1.13861084E-07
  2.99233687E-02 -6.15624816E-02 -2.80365387E-02 -3.07932000E-08 -1.10893437E-01
 -3.73241957E-02 -1.69993842E-02  2.67769184E-09  9.93505484E-03 -4.93231913E-03
 -1.73506251E-03  9.86414074E-03  1.67771152E-08  7.64122074E-09  1.55205018E-02
 -2.55575573E-02  9.22359374E-02 -8.23238127E-03  1.05470503E-08 -3.98727542E-02
  2.60861340E-02 -4.19320982E-03  1.17296262E-08  6.07164924E-02 -6.94747606E-04
  1.89729513E-02 -3.40469047E-09  6.45545798E-03 -5.67376703E-03  1.10780583E-03
  5.04177670E-03  4.59129912E-09 -2.49206209E-10 -1.28711676E-02  2.69467434E-02
 -6.43721420E-02 -2.10207411E-02  4.59584786E-08  2.95573766E-02 -2.56741798E-02
 -2.18085712E-02  2.83055366E-08  7.50603109E-03 -8.62320639E-03 -1.01074576E-03
  9.02485851E-09 -2.07807471E-03 -5.68420694E-04 -3.75049537E-04  2.56268501E-03
 -5.97949045E-10  1.62958748E-09  2.20340226E-03 -2.72170335E-03 -8.84889194E-04
 -4.01965420E-04  5.22507186E-08  1.64179601E-02 -7.08326387E-03 -3.22553314E-03
  2.75303188E-08 -2.13974932E-02  1.16545577E-02  5.30693911E-03 -1.40076756E-09
  2.31967946E-03 -9.89062815E-04 -1.33037748E-04  2.19521835E-03 -1.67836200E-09
 -7.63706609E-10 -1.28714398E-02  2.69476560E-02 -5.81135694E-02 -3.47623799E-02
  4.59764499E-08  2.95580160E-02 -3.33051561E-02 -5.05149937E-03  2.83174501E-08
  7.51442317E-03 -6.42320346E-03 -5.84305063E-03  9.02782501E-09  9.79147134E-04
 -3.62565711E-03 -3.75015074E-04 -5.09256964E-04  8.36173401E-10 -1.52102288E-09
  1.55203610E-02 -2.55572440E-02  5.43377809E-02  7.49836681E-02  1.05649224E-08
 -3.98727739E-02  1.39607978E-02  2.24314747E-02  1.17414849E-08  6.07142544E-02
  1.38547033E-02 -1.29794927E-02 -3.40135390E-09  3.87748310E-03 -3.09569965E-03
  1.10782042E-03  7.63226490E-03  2.82656338E-09  3.62750541E-09  1.50995936E-01
  1.24959372E-01  1.26388750E-02 -2.75841415E-02 -2.36293269E-02  4.17104940E-02
  1.21847296E-09 -4.71922069E-02 -7.26651484E-03  1.29718988E-02 -5.01197966E-09
  8.38496455E-02  2.30551826E-02  6.01968037E-03 -1.06546270E-09 -5.82103652E-03
  8.67400113E-03  6.97408045E-04 -3.43772986E-03 -2.69501927E-09 -1.52561058E-09
 -6.05569707E-02  1.15275763E-01 -2.58404202E-02 -2.67636075E-01 -1.22807063E-08
  1.11465090E-01 -9.41334578E-03 -9.74983462E-02 -1.01081196E-08 -1.43078501E-01
 -5.11961613E-03 -5.30379096E-02 -3.80452067E-09 -1.05717230E-02  1.61706233E-02
 -6.19760138E-03  3.00966433E-03  8.00305142E-11 -3.37625057E-10  1.26388027E-02
 -2.75837330E-02  3.11729374E-02  3.64198134E-02  4.50818219E-10 -4.71920531E-02
  9.61485795E-03  1.13422454E-02  1.02675337E-09  8.38510914E-02 -2.14769800E-02
  1.03211337E-02  1.39084825E-09 -4.17237617E-03  7.02528981E-03  6.97458095E-04
  6.32889320E-03  5.59119860E-10  5.38948268E-10 -8.17365427E-03  1.93320304E-02
 -5.19120345E-03 -3.47056781E-02  9.23685088E-09  3.12326929E-02  7.45053900E-03
 -2.51728964E-02  7.23314942E-09 -7.13662714E-03 -4.10285614E-04 -5.87841566E-03
  2.94301428E-09 -1.48647276E-03 -8.33362337E-04 -4.47897624E-05 -1.81118895E-03
  9.00970486E-11  2.08801847E-11 -1.03495726E-03  1.83537151E-03 -3.62216984E-04
 -3.75232493E-03  2.71765968E-10  1.65494664E-02 -4.14873835E-04 -4.29739713E-03
  5.84273471E-10 -2.55261444E-03  6.94699333E-04  7.20052706E-03  6.38883624E-10
 -6.64693356E-04  1.41756227E-03  3.64865130E-06  2.34323680E-04  7.77243812E-10
  5.23636039E-11 -8.17372241E-03  1.93320919E-02 -1.54442652E-03 -3.50577664E-02
 -1.17286791E-08  3.12333154E-02 -1.21287810E-02 -2.32828697E-02 -9.14005810E-09
 -7.13332186E-03 -7.22368133E-04 -5.84986171E-03 -2.55851104E-09 -8.73525297E-04
 -1.44638720E-03 -4.48206814E-05  1.82020067E-03 -1.11486963E-10  1.01882473E-10
 -2.14815574E-02 -2.13337901E-02  2.17989909E-01  1.55204703E-02 -2.55576761E-02
 -3.77693038E-02  8.45493850E-02  2.17281029E-08 -3.98735143E-02 -1.24455714E-02
  2.33057232E-02  7.77145408E-09  6.07127492E-02  1.81680116E-02  5.50884352E-03
  1.50633470E-09 -7.07659703E-03  7.85839159E-03  1.10777329E-03 -3.29565512E-04
 -2.13056221E-09 -1.80184165E-09 -1.00213776E-02  1.69463550E-02 -2.06104204E-02
 -2.13467451E-01 -1.45163407E-09  2.99229848E-02 -6.50102903E-03 -6.73330628E-02
 -1.91607713E-09 -1.10891007E-01 -3.94042700E-03 -4.08229984E-02 -4.94327277E-10
 -8.61356663E-03  1.36162776E-02 -1.73509105E-03  2.50181115E-03 -9.15481482E-10
 -1.27579945E-10  1.55199805E-02 -2.55563442E-02  5.32472338E-02  7.57632953E-02
 -1.01784436E-08 -3.98728786E-02  1.66753844E-02  2.04945513E-02 -6.22080169E-09
  6.07155972E-02 -1.67778171E-02  8.88499686E-03 -1.21779564E-09 -6.42277835E-03
  7.20451668E-03  1.10778574E-03  3.54366018E-03  9.66984460E-11 -4.47691494E-10
 -1.28714361E-02  2.69475995E-02 -1.39825480E-02 -6.62586354E-02 -1.28924675E-08
  2.95580302E-02  6.04957900E-03 -3.31385296E-02 -7.01464115E-09  7.50817155E-03
 -3.43702635E-03 -7.97267574E-03 -4.49587949E-10 -2.86790120E-03  2.21379659E-04
 -3.75050201E-04 -2.03627154E-03  4.16367157E-10  1.07290709E-10  2.20315976E-03
 -2.72118727E-03 -9.39200778E-05 -9.68222645E-04 -1.15783958E-08  1.64182281E-02
 -7.48172939E-04 -7.74720518E-03 -7.08957666E-09 -2.13965444E-02  1.22975491E-03
  1.27466046E-02 -1.59134438E-09 -1.80822672E-03  3.13882754E-03 -1.33052710E-04
  5.56701396E-04 -2.50559809E-10  3.43320287E-10 -1.28713545E-02  2.69473798E-02
  1.04847792E-03 -6.77084022E-02 -1.88604863E-09  2.95582368E-02 -1.22775674E-02
 -3.13689217E-02 -2.49949631E-09  7.51114547E-03  1.84757130E-03 -8.48486651E-03
 -3.48698433E-10 -2.09254197E-03 -5.54068281E-04 -3.75072088E-04  2.55702839E-03
 -6.24598901E-10 -9.45977396E-10 -2.13336687E-02 -2.14715042E-02  1.50995940E-01
  1.24959417E-01 -8.17363400E-03  1.93318598E-02  2.95885841E-02 -1.88663571E-02
  1.76905778E-09  3.12325397E-02  1.40989350E-02 -2.21449277E-02 -6.65576870E-09
 -7.13178083E-03  4.70434751E-03 -3.54814566E-03 -5.40029754E-09 -2.66823732E-03
  3.48393282E-04 -4.48096830E-05 -6.23639823E-04 -1.04703047E-09 -6.92749061E-11
  1.26388664E-02 -2.75839583E-02 -4.79370069E-02  3.91756023E-04 -7.42092119E-09
 -4.71914867E-02 -1.48674836E-02  1.92796347E-04 -4.49252139E-09  8.38454771E-02
  6.31152008E-03  2.29754921E-02  8.50554380E-10  7.62840322E-03 -4.77540912E-03
  6.97456592E-04 -5.52861118E-03 -1.95217295E-10 -3.61898896E-11 -6.05572145E-02
  1.15276555E-01  2.18859135E-01 -1.56196068E-01  2.73943147E-10  1.11465078E-01
  7.97299319E-02 -5.69015965E-02 -2.69700917E-10 -1.43072689E-01  4.33702822E-02
 -3.09540877E-02 -1.11817553E-09  7.22799089E-03 -1.62907885E-03 -6.19756658E-03
 -1.48758832E-02  3.97438106E-10  5.08866041E-10  1.26388635E-02 -2.75838587E-02
 -1.59542505E-02  4.52060020E-02  6.68333946E-09 -4.71914778E-02 -5.01579079E-03
  1.39971194E-02  5.85662231E-09  8.38504864E-02 -1.96760353E-02 -1.34400092E-02
  4.16712186E-09 -5.20759760E-04  3.37373172E-03  6.97479785E-04 -8.76334199E-03
  7.46071819E-11  7.23496684E-12 -8.17367356E-03  1.93319866E-02  2.74605078E-02
 -2.18486357E-02  4.48379209E-12  3.12326954E-02  2.55257789E-02 -6.13423771E-03
 -6.22147514E-10 -7.13516970E-03  4.88666735E-03 -3.29487946E-03 -1.80803238E-09
  3.61700400E-04 -2.68156191E-03 -4.48113250E-05  5.79018953E-04  5.71835485E-10
  4.58838374E-11 -1.03486629E-03  1.83508375E-03  3.06826789E-03 -2.18969898E-03
 -7.60909576E-09  1.65492382E-02  3.51442588E-03 -2.50803525E-03 -4.28273675E-09
 -2.55657714E-03 -5.88801238E-03  4.20347753E-03  1.47496738E-09  7.21272237E-04
  3.15934887E-05  3.62612929E-06 -1.15833185E-03 -8.92959583E-11 -3.40493993E-11
 -1.03103482E-02 -2.13495354E-02 -2.14811548E-02 -2.13334617E-02  2.17989778E-01
 -1.28712816E-02  2.69470013E-02  5.91611254E-02 -3.29465633E-02 -2.20663275E-08
  2.95574842E-02  2.10272594E-02 -2.63167713E-02 -2.54536247E-08  7.51189780E-03
  8.27073376E-03 -2.63944993E-03 -1.16748169E-08 -2.85628532E-03  2.09784345E-04
 -3.75061481E-04 -2.04772397E-03 -2.85444776E-09 -6.29168571E-10  1.55200306E-02
 -2.55564927E-02 -9.21052468E-02  9.56673818E-03 -2.60374987E-08 -3.98723784E-02
 -2.64061152E-02  8.74636792E-04 -1.66683214E-08  6.07102746E-02  4.30996165E-03
  1.84879992E-02 -1.33846713E-09  4.37171395E-03 -3.58988194E-03  1.10778374E-03
 -7.30258703E-03  7.96963815E-10 -4.83792207E-10 -1.00218955E-02  1.69477153E-02
  1.74560824E-01 -1.24582212E-01  8.85599616E-09  2.99233470E-02  5.50616555E-02
 -3.92966805E-02  5.87966117E-09 -1.10885224E-01  3.33813033E-02 -2.38255086E-02
  6.13774490E-10  6.18260726E-03 -1.17989385E-03 -1.73506042E-03 -1.23656541E-02
  1.20193408E-09  1.56610680E-09  1.55200779E-02 -2.55565484E-02 -3.89897318E-02
  8.39942683E-02  2.93443100E-08 -3.98721045E-02 -9.41178058E-03  2.46877460E-02
  2.13593433E-08  6.07149314E-02 -1.60826768E-02 -1.00885387E-02  9.28195222E-09
  1.13996994E-03 -3.58165466E-04  1.10781538E-03 -8.58543153E-03 -1.08341266E-10
 -5.69603084E-11 -1.28714049E-02  2.69473575E-02  5.03903256E-02 -4.52383105E-02
  8.42116702E-09  2.95576945E-02  3.17235824E-02 -1.13302158E-02  5.32394529E-09
  7.50807331E-03  5.18736540E-03 -6.96308440E-03 -2.93391193E-10  9.76195173E-04
 -3.62271878E-03 -3.75068807E-04 -5.26552660E-04  1.94643561E-09 -6.75761844E-11
  2.20339867E-03 -2.72179743E-03  7.90957742E-04 -5.64699280E-04 -2.62124793E-08
  1.64175918E-02  6.33531320E-03 -4.52135440E-03 -1.61896731E-08 -2.13997186E-02
 -1.04229079E-02  7.44034333E-03 -4.59821560E-10  1.48456759E-03 -1.53948877E-04
 -1.33064456E-04 -2.75194481E-03  2.56942377E-10  1.10629598E-09 -2.13494834E-02
 -3.16030181E-02 -2.13336059E-02 -2.14717136E-02  1.50994887E-01  1.24957567E-01
 -1.03483791E-03  1.83507969E-03  3.43052049E-03  1.56216461E-03 -2.84356818E-09
  1.65493590E-02  3.92921376E-03  1.78936808E-03 -7.44589500E-10 -2.55357451E-03
 -6.58395505E-03 -2.99744240E-03 -2.13987580E-09  1.07279290E-03 -3.19909823E-04
  3.64881374E-06  9.24014545E-04  5.79788706E-10  2.64062169E-10 -8.17369643E-03
  1.93321627E-02  3.11333981E-02  1.61914028E-02  3.56559050E-09  3.12327615E-02
  2.62279752E-02  1.13726483E-03  3.19490072E-09 -7.13007308E-03  5.42637458E-03
  2.29995255E-03  2.23967242E-09  6.20252988E-05 -2.38183544E-03 -4.47720378E-05
 -1.19651926E-03  1.60574053E-10  2.29247469E-11  1.26389028E-02 -2.75840331E-02
 -2.43077424E-02 -4.13187685E-02  2.95200977E-10 -4.71919510E-02 -7.60074919E-03
 -1.27794276E-02  2.84914066E-10  8.38513527E-02 -1.67407372E-02  1.69566074E-02
 -2.24938627E-10  2.47194012E-03  3.81007535E-04  6.97454749E-04  8.96636827E-03
 -1.74703675E-10 -2.18217247E-10 -6.05570746E-02  1.15275923E-01  2.44699434E-01
  1.11440243E-01 -3.46825019E-09  1.11465369E-01  8.91425591E-02  4.05970100E-02
 -3.06783065E-09 -1.43083760E-01  4.84928140E-02  2.20854600E-02 -1.45154349E-09
  1.17421746E-02 -6.14325515E-03 -6.19758634E-03  1.18664493E-02  1.89293045E-11
  8.61596712E-12  1.26389374E-02 -2.75842216E-02 -4.71265074E-02  8.78655694E-03
  2.95320471E-10 -4.71914139E-02 -1.46296824E-02  2.65461722E-03  2.85061413E-10
  8.38540597E-02  1.80115074E-03 -2.37610352E-02 -2.25647679E-10  8.97259026E-03
 -6.11972061E-03  6.97438092E-04  2.43440570E-03 -2.79286697E-10  1.13747654E-11
 -8.17363200E-03  1.93318493E-02  3.26516980E-02  1.28573774E-02  3.56559869E-09
  3.12323724E-02  1.80753266E-02  1.90388895E-02  3.19493811E-09 -7.13829192E-03
  5.29620822E-03  2.58491523E-03  2.24058763E-09 -2.35498245E-03  3.51479283E-05
 -4.48139128E-05  1.23210137E-03  1.22644777E-10  1.06132758E-10  3.53868281E-03
  8.05019840E-03 -1.03105248E-02 -2.13500844E-02 -2.14815631E-02 -2.13339276E-02
  2.17989939E-01  2.20340226E-03 -2.72170335E-03  8.84889192E-04  4.01965419E-04
  9.81344071E-09  1.64179601E-02  7.08326387E-03  3.22553314E-03  1.15365670E-08
 -2.13974929E-02 -1.16545576E-02 -5.30693910E-03  3.88630417E-09  2.31967946E-03
 -9.89062815E-04 -1.33037747E-04  2.19521835E-03  1.14454226E-09  5.21066583E-10
 -1.28714398E-02  2.69476560E-02  5.81135694E-02  3.47623799E-02  1.40537363E-08
  2.95580160E-02  3.33051561E-02  5.05149937E-03  9.49566807E-09  7.51442289E-03
  6.42320345E-03  5.84305059E-03  2.15215216E-09  9.79147134E-04 -3.62565711E-03
 -3.75015074E-04 -5.09256964E-04 -3.60958915E-10  2.29871466E-10  1.55203610E-02
 -2.55572440E-02 -5.43377809E-02 -7.49836681E-02 -5.41394365E-09 -3.98727739E-02
 -1.39607978E-02 -2.24314747E-02 -3.33130310E-09  6.07142546E-02 -1.38547034E-02
  1.29794927E-02 -5.11894612E-10  3.87748310E-03 -3.09569965E-03  1.10782042E-03
  7.63226490E-03 -6.68924671E-10 -9.23901848E-10 -1.00214322E-02  1.69464820E-02
  1.95173253E-01  8.88848327E-02 -1.81599167E-08  2.99233687E-02  6.15624816E-02
  2.80365387E-02 -1.32612179E-08 -1.10893437E-01  3.73241958E-02  1.69993842E-02
 -5.42385105E-09  9.93505484E-03 -4.93231913E-03 -1.73506251E-03  9.86414074E-03
  1.40152426E-10  6.36693898E-11  1.55205018E-02 -2.55575573E-02 -9.22359375E-02
  8.23238127E-03 -5.41844462E-09 -3.98727542E-02 -2.60861341E-02  4.19320982E-03
 -3.33418175E-09  6.07164927E-02  6.94747619E-04 -1.89729514E-02 -5.13555653E-10
  6.45545798E-03 -5.67376703E-03  1.10780583E-03  5.04177670E-03 -1.13594136E-09
  1.01880650E-10 -1.28711676E-02  2.69467434E-02  6.43721420E-02  2.10207411E-02
  1.40490720E-08  2.95573766E-02  2.56741798E-02  2.18085712E-02  9.49279027E-09
  7.50603086E-03  8.62320635E-03  1.01074579E-03  2.15239397E-09 -2.07807471E-03
 -5.68420694E-04 -3.75049537E-04  2.56268501E-03 -6.36846997E-11 -4.23245330E-10
  8.05019840E-03  1.84095870E-02 -2.13500424E-02 -3.16040997E-02 -2.13338278E-02
 -2.14717933E-02  1.50995936E-01  1.24959372E-01 -8.17365427E-03  1.93320304E-02
  5.19120345E-03  3.47056781E-02  1.76984372E-09  3.12326929E-02 -7.45053900E-03
  2.51728964E-02 -6.65561249E-09 -7.13662732E-03  4.10285561E-04  5.87841569E-03
 -5.39698274E-09 -1.48647276E-03 -8.33362337E-04 -4.47897624E-05 -1.81118895E-03
 -7.39512488E-10 -7.44445602E-10 -1.03495726E-03  1.83537151E-03  3.62216984E-04
  3.75232494E-03 -7.60935122E-09  1.65494664E-02  4.14873836E-04  4.29739713E-03
 -4.28275939E-09 -2.55261421E-03 -6.94699370E-04 -7.20052702E-03  1.47220812E-09
 -6.64693356E-04  1.41756227E-03  3.64865133E-06  2.34323680E-04 -8.42776666E-11
 -4.50527928E-11 -8.17372241E-03  1.93320919E-02  1.54442652E-03  3.50577664E-02
  3.88414993E-12  3.12333154E-02  1.21287810E-02  2.32828697E-02 -6.22468623E-10
 -7.13332199E-03  7.22368160E-04  5.84986169E-03 -1.80620520E-09 -8.73525297E-04
 -1.44638720E-03 -4.48206814E-05  1.82020067E-03  4.09966558E-10  4.01314143E-10
  1.26388750E-02 -2.75841415E-02  2.36293269E-02 -4.17104940E-02  6.68325090E-09
 -4.71922069E-02  7.26651484E-03 -1.29718988E-02  5.85641249E-09  8.38496457E-02
 -2.30551826E-02 -6.01968037E-03  4.16523710E-09 -5.82103652E-03  8.67400113E-03
  6.97408045E-04 -3.43772986E-03  5.45077403E-11  5.15692177E-11 -6.05569707E-02
  1.15275763E-01  2.58404202E-02  2.67636075E-01  2.74109789E-10  1.11465090E-01
  9.41334578E-03  9.74983462E-02 -2.69699798E-10 -1.43078501E-01  5.11961613E-03
  5.30379096E-02 -1.11554120E-09 -1.05717230E-02  1.61706233E-02 -6.19760138E-03
  3.00966433E-03  6.44761397E-10 -3.42132599E-11  1.26388027E-02 -2.75837330E-02
 -3.11729374E-02 -3.64198134E-02 -7.42037851E-09 -4.71920531E-02 -9.61485795E-03
 -1.13422454E-02 -4.49208388E-09  8.38510915E-02  2.14769800E-02 -1.03211337E-02
  8.47149151E-10 -4.17237617E-03  7.02528981E-03  6.97458095E-04  6.32889320E-03
 -1.55448872E-10 -1.23537490E-10 -1.03105248E-02 -2.13500424E-02  3.53844766E-03
  8.04970747E-03 -1.03104308E-02 -2.13498050E-02 -2.14815574E-02 -2.13337901E-02
  2.17989909E-01 -1.28714361E-02  2.69475995E-02  1.39825480E-02  6.62586354E-02
 -2.20689764E-08  2.95580302E-02 -6.04957900E-03  3.31385296E-02 -2.54559211E-08
  7.50817143E-03  3.43702632E-03  7.97267575E-03 -1.16699364E-08 -2.86790120E-03
  2.21379659E-04 -3.75050201E-04 -2.03627154E-03 -2.34874942E-09 -1.73990137E-09
  2.20315976E-03 -2.72118727E-03  9.39200753E-05  9.68222644E-04 -2.62243293E-08
  1.64182281E-02  7.48172938E-04  7.74720518E-03 -1.61968899E-08 -2.13965443E-02
 -1.22975492E-03 -1.27466046E-02 -4.66504635E-10 -1.80822672E-03  3.13882754E-03
 -1.33052710E-04  5.56701396E-04  1.00306597E-09 -5.32572511E-10 -1.28713545E-02
  2.69473798E-02 -1.04847792E-03  6.77084022E-02  8.41120849E-09  2.95582368E-02
  1.22775674E-02  3.13689217E-02  5.31763292E-09  7.51114539E-03 -1.84757127E-03
  8.48486651E-03 -2.91431517E-10 -2.09254197E-03 -5.54068281E-04 -3.75072088E-04
  2.55702839E-03  1.22714735E-09  1.51296106E-09  1.55204703E-02 -2.55576761E-02
  3.77693038E-02 -8.45493850E-02  2.93449232E-08 -3.98735143E-02  1.24455714E-02
 -2.33057232E-02  2.13598229E-08  6.07127493E-02 -1.81680116E-02 -5.50884350E-03
  9.27891047E-09 -7.07659703E-03  7.85839159E-03  1.10777329E-03 -3.29565512E-04
 -1.14236404E-10 -4.37705533E-11 -1.00213776E-02  1.69463550E-02  2.06104204E-02
  2.13467451E-01  8.86442837E-09  2.99229848E-02  6.50102903E-03  6.73330628E-02
  5.88516024E-09 -1.10891007E-01  3.94042698E-03  4.08229984E-02  6.19808681E-10
 -8.61356663E-03  1.36162776E-02 -1.73509105E-03  2.50181115E-03  1.97025841E-09
 -1.21393017E-10  1.55199805E-02 -2.55563442E-02 -5.32472338E-02 -7.57632953E-02
 -2.60309294E-08 -3.98728786E-02 -1.66753844E-02 -2.04945513E-02 -1.66636827E-08
  6.07155973E-02  1.67778171E-02 -8.88499687E-03 -1.34254538E-09 -6.42277835E-03
  7.20451668E-03  1.10778574E-03  3.54366018E-03  1.58470766E-10  9.19038405E-10
 -2.13500844E-02 -3.16040997E-02  8.04970747E-03  1.84088997E-02 -2.13498206E-02
 -3.16036402E-02 -2.13336687E-02 -2.14715042E-02  1.50995940E-01  1.24959417E-01
  1.26388635E-02 -2.75838587E-02  1.59542505E-02 -4.52060020E-02  1.21782368E-09
 -4.71914778E-02  5.01579079E-03 -1.39971194E-02 -5.01218398E-09  8.38504863E-02
  1.96760352E-02  1.34400092E-02 -1.06901888E-09 -5.20759760E-04  3.37373172E-03
  6.97479785E-04 -8.76334199E-03 -2.92005552E-09 -1.03144305E-09 -8.17367356E-03
  1.93319866E-02 -2.74605078E-02  2.18486357E-02 -1.17286788E-08  3.12326954E-02
 -2.55257789E-02  6.13423771E-03 -9.13993093E-09 -7.13516950E-03 -4.88666734E-03
  3.29487950E-03 -2.55520550E-09  3.61700400E-04 -2.68156191E-03 -4.48113250E-05
  5.79018953E-04  3.73119252E-12 -1.50965778E-10 -1.03486629E-03  1.83508375E-03
 -3.06826789E-03  2.18969898E-03  2.72146953E-10  1.65492382E-02 -3.51442589E-03
  2.50803525E-03  5.84640610E-10 -2.55657730E-03  5.88801241E-03 -4.20347754E-03
  6.36918428E-10  7.21272237E-04  3.15934886E-05  3.62612927E-06 -1.15833185E-03
  5.49679062E-10  5.51782789E-10 -8.17363400E-03  1.93318598E-02 -2.95885841E-02
  1.88663571E-02  9.23703272E-09  3.12325397E-02 -1.40989350E-02  2.21449277E-02
  7.23347578E-09 -7.13178074E-03 -4.70434753E-03  3.54814564E-03  2.94415383E-09
 -2.66823732E-03  3.48393282E-04 -4.48096830E-05 -6.23639823E-04  7.48846545E-11
  5.42094072E-11  1.26388664E-02 -2.75839583E-02  4.79370069E-02 -3.91756023E-04
  4.50793787E-10 -4.71914867E-02  1.48674836E-02 -1.92796347E-04  1.02679286E-09
  8.38454770E-02 -6.31152004E-03 -2.29754921E-02  1.39024462E-09  7.62840322E-03
 -4.77540912E-03  6.97456592E-04 -5.52861118E-03  7.73608872E-10  6.80736621E-11
 -6.05572145E-02  1.15276555E-01 -2.18859135E-01  1.56196068E-01 -1.22810176E-08
  1.11465078E-01 -7.97299319E-02  5.69015965E-02 -1.01085215E-08 -1.43072689E-01
 -4.33702822E-02  3.09540877E-02 -3.80328049E-09  7.22799089E-03 -1.62907885E-03
 -6.19756658E-03 -1.48758832E-02 -2.02183893E-10  2.82067625E-10 -2.14815631E-02
 -2.13338278E-02 -1.03104308E-02 -2.13498206E-02  3.53860024E-03  8.05011129E-03
 -1.03103482E-02 -2.13495354E-02 -2.14811548E-02 -2.13334617E-02  2.17989778E-01
  1.55200779E-02 -2.55565484E-02  3.89897318E-02 -8.39942683E-02  2.17367863E-08
 -3.98721045E-02  9.41178058E-03 -2.46877460E-02  7.77647967E-09  6.07149312E-02
  1.60826768E-02  1.00885386E-02  1.50252744E-09  1.13996994E-03 -3.58165466E-04
  1.10781539E-03 -8.58543153E-03 -2.75729877E-09 -4.24861867E-10 -1.28714049E-02
  2.69473575E-02 -5.03903256E-02  4.52383105E-02 -1.86705764E-09  2.95576945E-02
 -3.17235824E-02  1.13302158E-02 -2.48780182E-09  7.50807350E-03 -5.18736538E-03
  6.96308443E-03 -3.41612810E-10  9.76195173E-04 -3.62271878E-03 -3.75068807E-04
 -5.26552660E-04 -1.12331101E-09  1.50250506E-10  2.20339867E-03 -2.72179743E-03
 -7.90957743E-04  5.64699279E-04 -1.15619399E-08  1.64175918E-02 -6.33531320E-03
  4.52135440E-03 -7.07952347E-09 -2.13997188E-02  1.04229080E-02 -7.44034332E-03
 -1.59228772E-09  1.48456759E-03 -1.53948877E-04 -1.33064456E-04 -2.75194481E-03
  9.38272013E-11 -4.14703739E-10 -1.28712816E-02  2.69470013E-02 -5.91611254E-02
  3.29465633E-02 -1.28891210E-08  2.95574842E-02 -2.10272594E-02  2.63167713E-02
 -7.01293992E-09  7.51189792E-03 -8.27073379E-03  2.63944993E-03 -4.47564978E-10
 -2.85628532E-03  2.09784345E-04 -3.75061481E-04 -2.04772397E-03  3.54340625E-10
  2.42864117E-10  1.55200306E-02 -2.55564927E-02  9.21052468E-02 -9.56673818E-03
 -1.01849417E-08 -3.98723784E-02  2.64061152E-02 -8.74636793E-04 -6.22578935E-09
  6.07102744E-02 -4.30996165E-03 -1.84879992E-02 -1.22172050E-09  4.37171395E-03
 -3.58988194E-03  1.10778374E-03 -7.30258703E-03 -2.74054295E-10  3.66779494E-10
 -1.00218955E-02  1.69477153E-02 -1.74560824E-01  1.24582212E-01 -1.45542611E-09
  2.99233470E-02 -5.50616555E-02  3.92966805E-02 -1.91952421E-09 -1.10885224E-01
 -3.33813032E-02  2.38255086E-02 -4.92873310E-10  6.18260726E-03 -1.17989385E-03
 -1.73506042E-03 -1.23656541E-02 -6.97425346E-10 -6.07309861E-10 -2.13339276E-02
 -2.14717933E-02 -2.13498050E-02 -3.16036402E-02  8.05011129E-03  1.84095308E-02
 -2.13494834E-02 -3.16030180E-02 -2.13336059E-02 -2.14717136E-02  1.50994887E-01
  1.24957567E-01
Mulliken Charges                           R   N=          12
 -1.77975655E-01 -1.77988615E-01 -1.77986686E-01 -1.77975656E-01 -1.77988615E-01
 -1.77986686E-01  1.77983191E-01  1.77983227E-01  1.77984539E-01  1.77983191E-01
  1.77983227E-01  1.77984539E-01
ONIOM Charges                              I   N=          16
           0           0           0           0           0           0
           0           0           0           0           0           0
           0           0           0           0
ONIOM Multiplicities                       I   N=          16
           1           0           0           0           0           0
           0           0           0           0           0           0
           0           0           0           0
Atom Layers                                I   N=          12
           1           1           1           1           1           1
           1           1           1           1           1           1
Atom Modifiers                             I   N=          12
           0           0           0           0           0           0
           0           0           0           0           0           0
Force Field                                I                0
Atom Modified Types                        C   N=          12
                                                            
                                                            
                        
Int Atom Modified Types                    I   N=          12
           0           0           0           0           0           0
           0           0           0           0           0           0
Link Atoms                                 I   N=          12
           0           0           0           0           0           0
           0           0           0           0           0           0
Atom Modified MM Charges                   R   N=          12
  0.00000000E+00  0.00000000E+00  0.00000000E+00  0.00000000E+00  0.00000000E+00
  0.00000000E+00  0.00000000E+00  0.00000000E+00  0.00000000E+00  0.00000000E+00
  0.00000000E+00  0.00000000E+00
Link Distances                             R   N=          48
  0.00000000E+00  0.00000000E+00  0.00000000E+00  0.00000000E+00  0.00000000E+00
  0.00000000E+00  0.00000000E+00  0.00000000E+00  0.00000000E+00  0.00000000E+00
  0.00000000E+00  0.00000000E+00  0.00000000E+00  0.00000000E+00  0.00000000E+00
  0.00000000E+00  0.00000000E+00  0.00000000E+00  0.00000000E+00  0.00000000E+00
  0.00000000E+00  0.00000000E+00  0.00000000E+00  0.00000000E+00  0.00000000E+00
  0.00000000E+00  0.00000000E+00  0.00000000E+00  0.00000000E+00  0.00000000E+00
  0.00000000E+00  0.00000000E+00  0.00000000E+00  0.00000000E+00  0.00000000E+00
  0.00000000E+00  0.00000000E+00  0.00000000E+00  0.00000000E+00  0.00000000E+00
  0.00000000E+00  0.00000000E+00  0.00000000E+00  0.00000000E+00  0.00000000E+00
  0.00000000E+00  0.00000000E+00  0.00000000E+00
Cartesian Gradient                         R   N=          36
  0.00000000E+00  0.00000000E+00  0.00000000E+00  0.00000000E+00  0.00000000E+00
  0.00000000E+00  0.00000000E+00  0.00000000E+00  0.00000000E+00  0.00000000E+00
  0.00000000E+00  0.00000000E+00  0.00000000E+00  0.00000000E+00  0.00000000E+00
  0.00000000E+00  0.00000000E+00  0.00000000E+00  0.00000000E+00  0.00000000E+00
  0.00000000E+00  0.00000000E+00  0.00000000E+00  0.00000000E+00  0.00000000E+00
  0.00000000E+00  0.00000000E+00  0.00000000E+00  0.00000000E+00  0.00000000E+00
  0.00000000E+00  0.00000000E+00  0.00000000E+00  0.00000000E+00  0.00000000E+00
  0.00000000E+00
Nonadiabatic coupling                      R   N=          36
  0.00000000E+00  0.00000000E+00  0.00000000E+00  0.00000000E+00  0.00000000E+00
  0.00000000E+00  0.00000000E+00  0.00000000E+00  0.00000000E+00  0.00000000E+00
  0.00000000E+00  0.00000000E+00  0.00000000E+00  0.00000000E+00  0.00000000E+00
  0.00000000E+00  0.00000000E+00  0.00000000E+00  0.00000000E+00  0.00000000E+00
  0.00000000E+00  0.00000000E+00  0.00000000E+00  0.00000000E+00  0.00000000E+00
  0.00000000E+00  0.00000000E+00  0.00000000E+00  0.00000000E+00  0.00000000E+00
  0.00000000E+00  0.00000000E+00  0.00000000E+00  0.00000000E+00  0.00000000E+00
  0.00000000E+00
Dipole Moment                              R   N=           3
 -1.60681896E-12  3.54852435E-13 -2.68413595E-07
Quadrupole Moment                          R   N=           6
  2.04157854E+00  2.04147468E+00 -4.08305322E+00 -1.21368975E-05  1.49068905E-06
  6.78936122E-07
QEq coupling tensors                       R   N=          72
  1.22184569E-01 -1.44861339E-02  1.47395646E-01  1.17386628E-07  5.34636276E-08
 -2.69580215E-01  1.53634912E-01 -3.67589315E-03  1.15943814E-01  1.04934165E-07
 -2.60041712E-08 -2.69578726E-01  1.28543666E-01  1.81582529E-02  1.41034952E-01
 -3.25459658E-09 -7.96374993E-10 -2.69578618E-01  1.22184569E-01 -1.44861339E-02
  1.47395646E-01 -1.88209561E-09 -8.57397877E-10 -2.69580215E-01  1.53634912E-01
 -3.67589315E-03  1.15943814E-01 -2.73700210E-09 -1.93159918E-09 -2.69578726E-01
  1.28543666E-01  1.81582529E-02  1.41034952E-01  4.92643610E-08  9.62301551E-08
 -2.69578618E-01 -2.22196239E-01 -1.64463060E-01  6.40340911E-02 -3.47454760E-07
 -1.58235842E-07  1.58162148E-01  1.34905008E-01 -4.17110467E-02 -2.93066739E-01
 -1.89663001E-09 -6.66198642E-09  1.58161731E-01 -1.49952932E-01  2.06172669E-01
 -8.20901561E-03  3.76505148E-10  1.91375575E-10  1.58161947E-01 -2.22196239E-01
 -1.64463060E-01  6.40340911E-02  1.40020445E-09  6.37688482E-10  1.58162148E-01
  1.34905008E-01 -4.17110467E-02 -2.93066739E-01  3.91586096E-10  1.58439300E-10
  1.58161731E-01 -1.49952932E-01  2.06172669E-01 -8.20901561E-03 -6.26997954E-09
  2.94261932E-09  1.58161947E-01
ClPar MaxAn                                I              200
ClPar NIntPar                              I                4
ClPar NRealPar                             I               16
ClPar NBits                                I               30
ClPar LenBitVec                            I                1
ClPar Read BitMap                          I   N=         200
           0           0           0           0           0           0
           0           0           0           0           0           0
           0           0           0           0           0           0
           0           0           0           0           0           0
           0           0           0           0           0           0
           0           0           0           0           0           0
           0           0           0           0           0           0
           0           0           0           0           0           0
           0           0           0           0           0           0
           0           0           0           0           0           0
           0           0           0           0           0           0
           0           0           0           0           0           0
           0           0           0           0           0           0
           0           0           0           0           0           0
           0           0           0           0           0           0
           0           0           0           0           0           0
           0           0           0           0           0           0
           0           0           0           0           0           0
           0           0           0           0           0           0
           0           0           0           0           0           0
           0           0           0           0           0           0
           0           0           0           0           0           0
           0           0           0           0           0           0
           0           0           0           0           0           0
           0           0           0           0           0           0
           0           0           0           0           0           0
           0           0           0           0           0           0
           0           0           0           0           0           0
           0           0           0           0           0           0
           0           0           0           0           0           0
           0           0           0           0           0           0
           0           0           0           0           0           0
           0           0           0           0           0           0
           0           0
ClPar Default BitMap                       I   N=         200
        2016        2016        2016        2016        2016        2016
        2016        2016        2016        2016        2016        2016
        2016        2016        2016        2016        2016        2016
        2016        2016        2016        2016        2016        2016
        2016        2016        2016        2016        2016        2016
        2016        2016        2016        2016        2016        2016
        2016        2016        2016        2016        2016        2016
        2016        2016        2016        2016        2016        2016
        2016        2016        2016        2016        2016        2016
        2016        2016        2016        2016        2016        2016
        2016        2016        2016        2016        2016        2016
        2016        2016        2016        2016        2016        2016
        2016        2016        2016        2016        2016        2016
        2016        2016        2016        2016        2016        2016
        2016        2016         480         480         480         480
         480         480         480         480         480         480
         480         480         480         480         480         480
         480         480         480         480         480         480
         480         480         480         480         480         480
         480         480         480         480         480         480
         480         480         480         480         480         480
         480         480         480         480         480         480
         480         480         480         480         480         480
         480         480         480         480         480         480
         480         480         480         480         480         480
         480         480         480         480         480         480
         480         480         480         480         480         480
         480         480         480         480         480         480
         480         480         480         480         480         480
         480         480         480         480         480         480
         480         480         480         480         480         480
         480         480         480         480         480         480
         480         480         480         480         480         480
         480         480
ClPar Int Params                           I   N=         800
           0           0           0           0           0           0
           0           0           0           0           0           0
           0           0           0           0           0           0
           0           0           0           0           0           0
           0           0           0           0           0           0
           0           0           0           0           0           0
           0           0           0           0           0           0
           0           0           0           0           0           0
           0           0           0           0           0           0
           0           0           0           0           0           0
           0           0           0           0           0           0
           0           0           0           0           0           0
           0           0           0           0           0           0
           0           0           0           0           0           0
           0           0           0           0           0           0
           0           0           0           0           0           0
           0           0           0           0           0           0
           0           0           0           0           0           0
           0           0           0           0           0           0
           0           0           0           0           0           0
           0           0           0           0           0           0
           0           0           0           0           0           0
           0           0           0           0           0           0
           0           0           0           0           0           0
           0           0           0           0           0           0
           0           0           0           0           0           0
           0           0           0           0           0           0
           0           0           0           0           0           0
           0           0           0           0           0           0
           0           0           0           0           0           0
           0           0           0           0           0           0
           0           0           0           0           0           0
           0           0           0           0           0           0
           0           0           0           0           0           0
           0           0           0           0           0           0
           0           0           0           0           0           0
           0           0           0           0           0           0
           0           0           0           0           0           0
           0           0           0           0           0           0
           0           0           0           0           0           0
           0           0           0           0           0           0
           0           0           0           0           0           0
           0           0           0           0           0           0
           0           0           0           0           0           0
           0           0           0           0           0           0
           0           0           0           0           0           0
           0           0           0           0           0           0
           0           0           0           0           0           0
           0           0           0           0           0           0
           0           0           0           0           0           0
           0           0           0           0           0           0
           0           0           0           0           0           0
           0           0           0           0           0           0
           0           0           0           0           0           0
           0           0           0           0           0           0
           0           0           0           0           0           0
           0           0           0           0           0           0
           0           0           0           0           0           0
           0           0           0           0           0           0
           0           0           0           0           0           0
           0           0           0           0           0           0
           0           0           0           0           0           0
           0           0           0           0           0           0
           0           0           0           0           0           0
           0           0           0           0           0           0
           0           0           0           0           0           0
           0           0           0           0           0           0
           0           0           0           0           0           0
           0           0           0           0           0           0
           0           0           0           0           0           0
           0           0           0           0           0           0
           0           0           0           0           0           0
           0           0           0           0           0           0
           0           0           0           0           0           0
           0           0           0           0           0           0
           0           0           0           0           0           0
           0           0           0           0           0           0
           0           0           0           0           0           0
           0           0           0           0           0           0
           0           0           0           0           0           0
           0           0           0           0           0           0
           0           0           0           0           0           0
           0           0           0           0           0           0
           0           0           0           0           0           0
           0           0           0           0           0           0
           0           0           0           0           0           0
           0           0           0           0           0           0
           0           0           0           0           0           0
           0           0           0           0           0           0
           0           0           0           0           0           0
           0           0           0           0           0           0
           0           0           0           0           0           0
           0           0           0           0           0           0
           0           0           0           0           0           0
           0           0           0           0           0           0
           0           0           0           0           0           0
           0           0           0           0           0           0
           0           0           0           0           0           0
           0           0           0           0           0           0
           0           0           0           0           0           0
           0           0           0           0           0           0
           0           0           0           0           0           0
           0           0           0           0           0           0
           0           0           0           0           0           0
           0           0           0           0           0           0
           0           0           0           0           0           0
           0           0           0           0           0           0
           0           0           0           0           0           0
           0           0           0           0           0           0
           0           0           0           0           0           0
           0           0           0           0           0           0
           0           0           0           0           0           0
           0           0           0           0           0           0
           0           0           0           0           0           0
           0           0           0           0           0           0
           0           0           0           0           0           0
           0           0           0           0           0           0
           0           0           0           0           0           0
           0           0           0           0           0           0
           0           0           0           0           0           0
           0           0           0           0           0           0
           0           0           0           0           0           0
           0           0           0           0           0           0
           0           0           0           0           0           0
           0           0           0           0           0           0
           0           0           0           0           0           0
           0           0           0           0           0           0
           0           0           0           0           0           0
           0           0           0           0           0           0
           0           0           0           0           0           0
           0           0           0           0           0           0
           0           0           0           0           0           0
           0           0           0           0           0           0
           0           0
ClPar Real Params                          R   N=        3200
  0.00000000E+00  0.00000000E+00  0.00000000E+00  0.00000000E+00  0.00000000E+00
  0.00000000E+00  0.00000000E+00  0.00000000E+00  0.00000000E+00  0.00000000E+00
  0.00000000E+00  0.00000000E+00  0.00000000E+00  0.00000000E+00  0.00000000E+00
  0.00000000E+00  0.00000000E+00  0.00000000E+00  0.00000000E+00  0.00000000E+00
  0.00000000E+00  0.00000000E+00  0.00000000E+00  0.00000000E+00  0.00000000E+00
  0.00000000E+00  0.00000000E+00  0.00000000E+00  0.00000000E+00  0.00000000E+00
  0.00000000E+00  0.00000000E+00  0.00000000E+00  0.00000000E+00  0.00000000E+00
  0.00000000E+00  0.00000000E+00  0.00000000E+00  0.00000000E+00  0.00000000E+00
  0.00000000E+00  0.00000000E+00  0.00000000E+00  0.00000000E+00  0.00000000E+00
  0.00000000E+00  0.00000000E+00  0.00000000E+00  0.00000000E+00  0.00000000E+00
  0.00000000E+00  0.00000000E+00  0.00000000E+00  0.00000000E+00  0.00000000E+00
  0.00000000E+00  0.00000000E+00  0.00000000E+00  0.00000000E+00  0.00000000E+00
  0.00000000E+00  0.00000000E+00  0.00000000E+00  0.00000000E+00  0.00000000E+00
  0.00000000E+00  0.00000000E+00  0.00000000E+00  0.00000000E+00  0.00000000E+00
  0.00000000E+00  0.00000000E+00  0.00000000E+00  0.00000000E+00  0.00000000E+00
  0.00000000E+00  0.00000000E+00  0.00000000E+00  0.00000000E+00  0.00000000E+00
  0.00000000E+00  0.00000000E+00  0.00000000E+00  0.00000000E+00  0.00000000E+00
  0.00000000E+00  0.00000000E+00  0.00000000E+00  0.00000000E+00  0.00000000E+00
  0.00000000E+00  0.00000000E+00  0.00000000E+00  0.00000000E+00  0.00000000E+00
  0.00000000E+00  0.00000000E+00  0.00000000E+00  0.00000000E+00  0.00000000E+00
  0.00000000E+00  0.00000000E+00  0.00000000E+00  0.00000000E+00  0.00000000E+00
  0.00000000E+00  0.00000000E+00  0.00000000E+00  0.00000000E+00  0.00000000E+00
  0.00000000E+00  0.00000000E+00  0.00000000E+00  0.00000000E+00  0.00000000E+00
  0.00000000E+00  0.00000000E+00  0.00000000E+00  0.00000000E+00  0.00000000E+00
  0.00000000E+00  0.00000000E+00  0.00000000E+00  0.00000000E+00  0.00000000E+00
  0.00000000E+00  0.00000000E+00  0.00000000E+00  0.00000000E+00  0.00000000E+00
  0.00000000E+00  0.00000000E+00  0.00000000E+00  0.00000000E+00  0.00000000E+00
  0.00000000E+00  0.00000000E+00  0.00000000E+00  0.00000000E+00  0.00000000E+00
  0.00000000E+00  0.00000000E+00  0.00000000E+00  0.00000000E+00  0.00000000E+00
  0.00000000E+00  0.00000000E+00  0.00000000E+00  0.00000000E+00  0.00000000E+00
  0.00000000E+00  0.00000000E+00  0.00000000E+00  0.00000000E+00  0.00000000E+00
  0.00000000E+00  0.00000000E+00  0.00000000E+00  0.00000000E+00  0.00000000E+00
  0.00000000E+00  0.00000000E+00  0.00000000E+00  0.00000000E+00  0.00000000E+00
  0.00000000E+00  0.00000000E+00  0.00000000E+00  0.00000000E+00  0.00000000E+00
  0.00000000E+00  0.00000000E+00  0.00000000E+00  0.00000000E+00  0.00000000E+00
  0.00000000E+00  0.00000000E+00  0.00000000E+00  0.00000000E+00  0.00000000E+00
  0.00000000E+00  0.00000000E+00  0.00000000E+00  0.00000000E+00  0.00000000E+00
  0.00000000E+00  0.00000000E+00  0.00000000E+00  0.00000000E+00  0.00000000E+00
  0.00000000E+00  0.00000000E+00  0.00000000E+00  0.00000000E+00  0.00000000E+00
  0.00000000E+00  0.00000000E+00  0.00000000E+00  0.00000000E+00  0.00000000E+00
  2.26000000E-01  4.43000000E-01  1.01000000E-01  1.47000000E-01  1.92000000E-01
  2.40000000E-01  2.75000000E-01  3.03000000E-01  3.25000000E-01  4.13000000E-01
  9.60000000E-02  1.35000000E-01  1.73000000E-01  2.11000000E-01  2.48000000E-01
  2.86000000E-01  3.23000000E-01  3.60000000E-01  8.20000000E-02  1.04000000E-01
  1.17000000E-01  1.23000000E-01  1.29000000E-01  1.34000000E-01  1.40000000E-01
  1.44000000E-01  1.48000000E-01  1.52000000E-01  1.55000000E-01  1.76000000E-01
  1.98000000E-01  2.19000000E-01  2.39000000E-01  2.60000000E-01  2.80000000E-01
  3.00000000E-01  7.90000000E-02  9.90000000E-02  1.19000000E-01  1.26000000E-01
  1.33000000E-01  1.40000000E-01  1.47000000E-01  1.53000000E-01  1.58000000E-01
  1.63000000E-01  1.57000000E-01  1.70000000E-01  1.87000000E-01  2.03000000E-01
  2.19000000E-01  2.34000000E-01  2.50000000E-01  2.65000000E-01  7.40000000E-02
  9.20000000E-02  1.05000000E-01  1.06000000E-01  1.07000000E-01  1.08000000E-01
  1.09000000E-01  1.10000000E-01  1.11000000E-01  1.12000000E-01  1.13000000E-01
  1.14000000E-01  1.15000000E-01  1.16000000E-01  1.17000000E-01  1.17000000E-01
  1.26000000E-01  1.36000000E-01  1.46000000E-01  1.55000000E-01  1.65000000E-01
  1.73000000E-01  1.82000000E-01  1.90000000E-01  1.62000000E-01  1.78000000E-01
  1.10000000E-01  1.35000000E-01  1.59000000E-01  1.83000000E-01  2.07000000E-01
  2.31000000E-01  6.90000000E-02  9.40000000E-02  1.02000000E-01  1.03000000E-01
  1.05000000E-01  1.07000000E-01  1.09000000E-01  1.11000000E-01  1.13000000E-01
  1.15000000E-01  1.17000000E-01  1.19000000E-01  1.20000000E-01  1.22000000E-01
  1.24000000E-01  1.26000000E-01  1.28000000E-01  1.28000000E-01  1.28000000E-01
  1.28000000E-01  1.28000000E-01  1.28000000E-01  1.28000000E-01  1.28000000E-01
  1.28000000E-01  1.28000000E-01  1.28000000E-01  1.28000000E-01  1.28000000E-01
  1.28000000E-01  1.28000000E-01  1.28000000E-01  1.28000000E-01  1.28000000E-01
  1.28000000E-01  1.28000000E-01  1.28000000E-01  1.28000000E-01  1.28000000E-01
  1.28000000E-01  1.28000000E-01  1.28000000E-01  1.28000000E-01  1.28000000E-01
  1.28000000E-01  1.28000000E-01  1.28000000E-01  1.28000000E-01  1.28000000E-01
  1.28000000E-01  1.28000000E-01  1.28000000E-01  1.28000000E-01  1.28000000E-01
  1.28000000E-01  1.28000000E-01  1.28000000E-01  1.28000000E-01  1.28000000E-01
  1.28000000E-01  1.28000000E-01  1.28000000E-01  1.28000000E-01  1.28000000E-01
  1.28000000E-01  1.28000000E-01  1.28000000E-01  1.28000000E-01  1.28000000E-01
  1.28000000E-01  1.28000000E-01  1.28000000E-01  1.28000000E-01  1.28000000E-01
  1.28000000E-01  1.28000000E-01  1.28000000E-01  1.28000000E-01  1.28000000E-01
  1.28000000E-01  1.28000000E-01  1.28000000E-01  1.28000000E-01  1.28000000E-01
  1.28000000E-01  1.28000000E-01  1.28000000E-01  1.28000000E-01  1.28000000E-01
  1.28000000E-01  1.28000000E-01  1.28000000E-01  1.28000000E-01  1.28000000E-01
  1.28000000E-01  1.28000000E-01  1.28000000E-01  1.28000000E-01  1.28000000E-01
  1.28000000E-01  1.28000000E-01  1.28000000E-01  1.28000000E-01  1.28000000E-01
  1.28000000E-01  1.28000000E-01  1.28000000E-01  1.28000000E-01  1.28000000E-01
  1.28000000E-01  1.28000000E-01  1.28000000E-01  1.28000000E-01  1.28000000E-01
  5.47000000E-01  5.92000000E-01  5.99000000E-01  6.68000000E-01  6.98000000E-01
  7.18000000E-01  7.26000000E-01  7.36000000E-01  7.43000000E-01  7.45000000E-01
  6.07000000E-01  6.66000000E-01  6.93000000E-01  7.09000000E-01  7.20000000E-01
  7.29000000E-01  7.35000000E-01  7.40000000E-01  6.08000000E-01  7.34000000E-01
  7.46000000E-01  7.55000000E-01  7.61000000E-01  7.65000000E-01  7.67000000E-01
  7.60000000E-01  7.49000000E-01  7.33000000E-01  7.08000000E-01  6.48000000E-01
  6.88000000E-01  7.09000000E-01  7.22000000E-01  7.31000000E-01  7.38000000E-01
  7.44000000E-01  6.09000000E-01  7.30000000E-01  7.41000000E-01  7.52000000E-01
  7.58000000E-01  7.63000000E-01  7.66000000E-01  7.58000000E-01  7.48000000E-01
  7.33000000E-01  7.01000000E-01  6.45000000E-01  6.86000000E-01  7.08000000E-01
  7.22000000E-01  7.31000000E-01  7.38000000E-01  7.44000000E-01  6.08000000E-01
  7.28000000E-01  7.32000000E-01  7.32000000E-01  7.32000000E-01  7.32000000E-01
  7.32000000E-01  7.32000000E-01  7.32000000E-01  7.32000000E-01  7.32000000E-01
  7.31000000E-01  7.31000000E-01  7.31000000E-01  7.31000000E-01  7.46000000E-01
  7.37000000E-01  7.46000000E-01  7.51000000E-01  7.55000000E-01  7.58000000E-01
  7.47000000E-01  7.32000000E-01  7.11000000E-01  7.41000000E-01  7.07000000E-01
  7.47000000E-01  7.43000000E-01  7.42000000E-01  7.42000000E-01  7.43000000E-01
  7.44000000E-01  6.05000000E-01  7.24000000E-01  7.26000000E-01  7.26000000E-01
  7.27000000E-01  7.27000000E-01  7.27000000E-01  7.28000000E-01  7.28000000E-01
  7.28000000E-01  7.28000000E-01  7.28000000E-01  7.29000000E-01  7.29000000E-01
  7.29000000E-01  7.29000000E-01  7.29000000E-01  7.29000000E-01  7.29000000E-01
  7.29000000E-01  7.29000000E-01  7.29000000E-01  7.29000000E-01  7.29000000E-01
  7.29000000E-01  7.29000000E-01  7.29000000E-01  7.29000000E-01  7.29000000E-01
  7.29000000E-01  7.29000000E-01  7.29000000E-01  7.29000000E-01  7.29000000E-01
  7.29000000E-01  7.29000000E-01  7.29000000E-01  7.29000000E-01  7.29000000E-01
  7.29000000E-01  7.29000000E-01  7.29000000E-01  7.29000000E-01  7.29000000E-01
  7.29000000E-01  7.29000000E-01  7.29000000E-01  7.29000000E-01  7.29000000E-01
  7.29000000E-01  7.29000000E-01  7.29000000E-01  7.29000000E-01  7.29000000E-01
  7.29000000E-01  7.29000000E-01  7.29000000E-01  7.29000000E-01  7.29000000E-01
  7.29000000E-01  7.29000000E-01  7.29000000E-01  7.29000000E-01  7.29000000E-01
  7.29000000E-01  7.29000000E-01  7.29000000E-01  7.29000000E-01  7.29000000E-01
  7.29000000E-01  7.29000000E-01  7.29000000E-01  7.29000000E-01  7.29000000E-01
  7.29000000E-01  7.29000000E-01  7.29000000E-01  7.29000000E-01  7.29000000E-01
  7.29000000E-01  7.29000000E-01  7.29000000E-01  7.29000000E-01  7.29000000E-01
  7.29000000E-01  7.29000000E-01  7.29000000E-01  7.29000000E-01  7.29000000E-01
  7.29000000E-01  7.29000000E-01  7.29000000E-01  7.29000000E-01  7.29000000E-01
  7.29000000E-01  7.29000000E-01  7.29000000E-01  7.29000000E-01  7.29000000E-01
  7.29000000E-01  7.29000000E-01  7.29000000E-01  7.29000000E-01  7.29000000E-01
  7.29000000E-01  7.29000000E-01  7.29000000E-01  7.29000000E-01  7.29000000E-01
  7.29000000E-01  7.29000000E-01  7.29000000E-01  7.29000000E-01  7.29000000E-01
  1.00000000E+00  1.70400000E+00  3.23000000E-01  3.89000000E-01  4.67000000E-01
  5.67000000E-01  6.36000000E-01  6.64000000E-01  6.96000000E-01  8.79000000E-01
  3.07000000E-01  3.48000000E-01  4.00000000E-01  4.54000000E-01  5.09000000E-01
  5.65000000E-01  6.21000000E-01  6.77000000E-01  2.56000000E-01  3.50000000E-01
  3.64000000E-01  3.62000000E-01  3.62000000E-01  3.62000000E-01  3.62000000E-01
  3.65000000E-01  3.69000000E-01  3.75000000E-01  3.86000000E-01  4.46000000E-01
  4.55000000E-01  4.74000000E-01  4.96000000E-01  5.20000000E-01  5.45000000E-01
  5.70000000E-01  2.45000000E-01  3.22000000E-01  3.55000000E-01  3.59000000E-01
  3.64000000E-01  3.70000000E-01  3.76000000E-01  3.85000000E-01  3.95000000E-01
  4.08000000E-01  3.76000000E-01  4.23000000E-01  4.22000000E-01  4.32000000E-01
  4.45000000E-01  4.59000000E-01  4.75000000E-01  4.91000000E-01  2.28000000E-01
  2.92000000E-01  2.89000000E-01  2.92000000E-01  2.95000000E-01  2.98000000E-01
  3.00000000E-01  3.03000000E-01  3.06000000E-01  3.09000000E-01  3.12000000E-01
  3.15000000E-01  3.18000000E-01  3.21000000E-01  3.24000000E-01  3.61000000E-01
  3.69000000E-01  3.70000000E-01  3.72000000E-01  3.75000000E-01  3.78000000E-01
  3.85000000E-01  3.94000000E-01  4.07000000E-01  5.26000000E-01  6.21000000E-01
  3.36000000E-01  3.54000000E-01  3.71000000E-01  3.86000000E-01  4.02000000E-01
  4.17000000E-01  2.09000000E-01  2.94000000E-01  2.65000000E-01  2.72000000E-01
  2.78000000E-01  2.84000000E-01  2.91000000E-01  2.97000000E-01  3.03000000E-01
  3.10000000E-01  3.16000000E-01  3.22000000E-01  3.29000000E-01  3.35000000E-01
  3.41000000E-01  3.48000000E-01  3.54000000E-01  3.54000000E-01  3.54000000E-01
  3.54000000E-01  3.54000000E-01  3.54000000E-01  3.54000000E-01  3.54000000E-01
  3.54000000E-01  3.54000000E-01  3.54000000E-01  3.54000000E-01  3.54000000E-01
  3.54000000E-01  3.54000000E-01  3.54000000E-01  3.54000000E-01  3.54000000E-01
  3.54000000E-01  3.54000000E-01  3.54000000E-01  3.54000000E-01  3.54000000E-01
  3.54000000E-01  3.54000000E-01  3.54000000E-01  3.54000000E-01  3.54000000E-01
  3.54000000E-01  3.54000000E-01  3.54000000E-01  3.54000000E-01  3.54000000E-01
  3.54000000E-01  3.54000000E-01  3.54000000E-01  3.54000000E-01  3.54000000E-01
  3.54000000E-01  3.54000000E-01  3.54000000E-01  3.54000000E-01  3.54000000E-01
  3.54000000E-01  3.54000000E-01  3.54000000E-01  3.54000000E-01  3.54000000E-01
  3.54000000E-01  3.54000000E-01  3.54000000E-01  3.54000000E-01  3.54000000E-01
  3.54000000E-01  3.54000000E-01  3.54000000E-01  3.54000000E-01  3.54000000E-01
  3.54000000E-01  3.54000000E-01  3.54000000E-01  3.54000000E-01  3.54000000E-01
  3.54000000E-01  3.54000000E-01  3.54000000E-01  3.54000000E-01  3.54000000E-01
  3.54000000E-01  3.54000000E-01  3.54000000E-01  3.54000000E-01  3.54000000E-01
  3.54000000E-01  3.54000000E-01  3.54000000E-01  3.54000000E-01  3.54000000E-01
  3.54000000E-01  3.54000000E-01  3.54000000E-01  3.54000000E-01  3.54000000E-01
  3.54000000E-01  3.54000000E-01  3.54000000E-01  3.54000000E-01  3.54000000E-01
  3.54000000E-01  3.54000000E-01  3.54000000E-01  3.54000000E-01  3.54000000E-01
  3.54000000E-01  3.54000000E-01  3.54000000E-01  3.54000000E-01  3.54000000E-01
  2.74000000E-01  2.96000000E-01  5.80000000E-02  4.40000000E-02  3.90000000E-02
  3.90000000E-02  3.60000000E-02  3.20000000E-02  2.90000000E-02  3.30000000E-02
  5.50000000E-02  3.90000000E-02  3.30000000E-02  3.00000000E-02  2.80000000E-02
  2.60000000E-02  2.50000000E-02  2.50000000E-02  4.50000000E-02  4.40000000E-02
  3.30000000E-02  2.50000000E-02  2.10000000E-02  1.80000000E-02  1.50000000E-02
  1.80000000E-02  2.10000000E-02  2.50000000E-02  3.30000000E-02  5.00000000E-02
  3.80000000E-02  3.10000000E-02  2.70000000E-02  2.40000000E-02  2.20000000E-02
  2.10000000E-02  4.30000000E-02  4.00000000E-02  3.20000000E-02  2.50000000E-02
  2.10000000E-02  1.80000000E-02  1.60000000E-02  1.90000000E-02  2.20000000E-02
  2.80000000E-02  3.10000000E-02  4.70000000E-02  3.40000000E-02  2.80000000E-02
  2.40000000E-02  2.10000000E-02  1.90000000E-02  1.80000000E-02  3.90000000E-02
  3.60000000E-02  2.50000000E-02  2.50000000E-02  2.50000000E-02  2.60000000E-02
  2.60000000E-02  2.60000000E-02  2.70000000E-02  2.70000000E-02  2.70000000E-02
  2.70000000E-02  2.80000000E-02  2.80000000E-02  2.80000000E-02  3.30000000E-02
  3.30000000E-02  2.60000000E-02  2.10000000E-02  1.80000000E-02  1.60000000E-02
  1.80000000E-02  2.20000000E-02  2.60000000E-02  4.90000000E-02  8.20000000E-02
  3.00000000E-02  2.40000000E-02  2.10000000E-02  1.80000000E-02  1.60000000E-02
  1.50000000E-02  3.50000000E-02  3.60000000E-02  2.20000000E-02  2.30000000E-02
  2.40000000E-02  2.40000000E-02  2.50000000E-02  2.50000000E-02  2.60000000E-02
  2.70000000E-02  2.70000000E-02  2.80000000E-02  2.80000000E-02  2.90000000E-02
  3.00000000E-02  3.00000000E-02  3.10000000E-02  3.10000000E-02  3.10000000E-02
  3.10000000E-02  3.10000000E-02  3.10000000E-02  3.10000000E-02  3.10000000E-02
  3.10000000E-02  3.10000000E-02  3.10000000E-02  3.10000000E-02  3.10000000E-02
  3.10000000E-02  3.10000000E-02  3.10000000E-02  3.10000000E-02  3.10000000E-02
  3.10000000E-02  3.10000000E-02  3.10000000E-02  3.10000000E-02  3.10000000E-02
  3.10000000E-02  3.10000000E-02  3.10000000E-02  3.10000000E-02  3.10000000E-02
  3.10000000E-02  3.10000000E-02  3.10000000E-02  3.10000000E-02  3.10000000E-02
  3.10000000E-02  3.10000000E-02  3.10000000E-02  3.10000000E-02  3.10000000E-02
  3.10000000E-02  3.10000000E-02  3.10000000E-02  3.10000000E-02  3.10000000E-02
  3.10000000E-02  3.10000000E-02  3.10000000E-02  3.10000000E-02  3.10000000E-02
  3.10000000E-02  3.10000000E-02  3.10000000E-02  3.10000000E-02  3.10000000E-02
  3.10000000E-02  3.10000000E-02  3.10000000E-02  3.10000000E-02  3.10000000E-02
  3.10000000E-02  3.10000000E-02  3.10000000E-02  3.10000000E-02  3.10000000E-02
  3.10000000E-02  3.10000000E-02  3.10000000E-02  3.10000000E-02  3.10000000E-02
  3.10000000E-02  3.10000000E-02  3.10000000E-02  3.10000000E-02  3.10000000E-02
  3.10000000E-02  3.10000000E-02  3.10000000E-02  3.10000000E-02  3.10000000E-02
  3.10000000E-02  3.10000000E-02  3.10000000E-02  3.10000000E-02  3.10000000E-02
  3.10000000E-02  3.10000000E-02  3.10000000E-02  3.10000000E-02  3.10000000E-02
  3.10000000E-02  3.10000000E-02  3.10000000E-02  3.10000000E-02  3.10000000E-02
  3.10000000E-02  3.10000000E-02  3.10000000E-02  3.10000000E-02  3.10000000E-02
 -5.92770000E-01 -9.17860000E-01 -2.48668000E+00 -8.36430000E-01 -3.18470000E-01
 -4.55790000E-01 -5.70730000E-01 -6.77940000E-01 -7.69860000E-01 -8.51140000E-01
 -1.51908000E+00 -3.18830000E-01 -2.17900000E-01 -3.01260000E-01 -3.72750000E-01
 -4.15890000E-01 -4.45930000E-01 -5.91320000E-01 -9.56370000E-01 -2.88450000E-01
 -4.87320000E-01 -6.34280000E-01 -7.17490000E-01 -7.91980000E-01 -8.68490000E-01
 -9.17520000E-01 -9.54890000E-01 -9.88460000E-01 -1.50055000E+00 -2.92560000E-01
 -2.14960000E-01 -2.91180000E-01 -3.42080000E-01 -3.84480000E-01 -4.34940000E-01
 -5.24310000E-01 -8.10070000E-01 -2.58460000E-01 -4.35550000E-01 -5.32740000E-01
 -6.08450000E-01 -6.10260000E-01 -7.58920000E-01 -8.90130000E-01 -8.45780000E-01
 -8.69340000E-01 -1.38234000E+00 -2.64850000E-01 -1.97280000E-01 -2.65040000E-01
 -2.94470000E-01 -3.16570000E-01 -3.63590000E-01 -4.57840000E-01 -8.61830000E-01
 -1.33004000E+00 -6.82880000E-01 -6.25540000E-01 -6.35430000E-01 -8.79690000E-01
 -9.02690000E-01 -9.59650000E-01 -1.01869000E+00 -6.81170000E-01 -7.96500000E-01
 -9.04950000E-01 -8.34790000E-01 -9.01560000E-01 -9.74130000E-01 -1.03326000E+00
 -7.15490000E-01 -7.83960000E-01 -8.28380000E-01 -5.61040000E-01 -1.03841000E+00
 -8.62500000E-01 -9.59300000E-01 -1.01755000E+00 -7.64900000E-01 -1.29467000E+00
 -1.92740000E-01 -2.56010000E-01 -3.19820000E-01 -1.94660000E-01 -2.60090000E-01
 -4.27990000E-01  0.00000000E+00  0.00000000E+00  0.00000000E+00  0.00000000E+00
  0.00000000E+00  0.00000000E+00  0.00000000E+00  0.00000000E+00  0.00000000E+00
  0.00000000E+00  0.00000000E+00  0.00000000E+00  0.00000000E+00  0.00000000E+00
  0.00000000E+00  0.00000000E+00  0.00000000E+00  0.00000000E+00  0.00000000E+00
  0.00000000E+00  0.00000000E+00  0.00000000E+00  0.00000000E+00  0.00000000E+00
  0.00000000E+00  0.00000000E+00  0.00000000E+00  0.00000000E+00  0.00000000E+00
  0.00000000E+00  0.00000000E+00  0.00000000E+00  0.00000000E+00  0.00000000E+00
  0.00000000E+00  0.00000000E+00  0.00000000E+00  0.00000000E+00  0.00000000E+00
  0.00000000E+00  0.00000000E+00  0.00000000E+00  0.00000000E+00  0.00000000E+00
  0.00000000E+00  0.00000000E+00  0.00000000E+00  0.00000000E+00  0.00000000E+00
  0.00000000E+00  0.00000000E+00  0.00000000E+00  0.00000000E+00  0.00000000E+00
  0.00000000E+00  0.00000000E+00  0.00000000E+00  0.00000000E+00  0.00000000E+00
  0.00000000E+00  0.00000000E+00  0.00000000E+00  0.00000000E+00  0.00000000E+00
  0.00000000E+00  0.00000000E+00  0.00000000E+00  0.00000000E+00  0.00000000E+00
  0.00000000E+00  0.00000000E+00  0.00000000E+00  0.00000000E+00  0.00000000E+00
  0.00000000E+00  0.00000000E+00  0.00000000E+00  0.00000000E+00  0.00000000E+00
  0.00000000E+00  0.00000000E+00  0.00000000E+00  0.00000000E+00  0.00000000E+00
  0.00000000E+00  0.00000000E+00  0.00000000E+00  0.00000000E+00  0.00000000E+00
  0.00000000E+00  0.00000000E+00  0.00000000E+00  0.00000000E+00  0.00000000E+00
  0.00000000E+00  0.00000000E+00  0.00000000E+00  0.00000000E+00  0.00000000E+00
  0.00000000E+00  0.00000000E+00  0.00000000E+00  0.00000000E+00  0.00000000E+00
  0.00000000E+00  0.00000000E+00  0.00000000E+00  0.00000000E+00  0.00000000E+00
  0.00000000E+00  0.00000000E+00  0.00000000E+00  0.00000000E+00  0.00000000E+00
  1.90440000E+00  1.36430000E+00  4.84000000E-01  7.31600000E+00  9.24030000E+00
  8.78200000E+00  5.61290000E+00  4.83340000E+00  3.24870000E+00  2.71090000E+00
  2.01130000E+00  1.50282000E+01  1.46788000E+01  2.13546000E+01  2.38290000E+01
  1.98022000E+01  1.50468000E+01  1.09745000E+01  1.27219000E+01  1.51949000E+01
  1.57342000E+01  2.79222000E+01  1.61366000E+01  2.21252000E+01  2.45676000E+01
  1.96016000E+01  1.79818000E+01  1.72396000E+01  5.01500000E+00  1.92898000E+01
  2.34477000E+01  2.23993000E+01  2.96586000E+01  2.60081000E+01  2.15580000E+01
  1.69594000E+01  1.56479000E+01  1.86897000E+01  1.93530000E+01  3.43444000E+01
  1.98480000E+01  2.72140000E+01  3.02182000E+01  2.41099000E+01  2.21176000E+01
  2.12047000E+01  7.56690000E+00  2.37264000E+01  2.93879000E+01  3.01278000E+01
  4.19382000E+01  3.85203000E+01  3.39511000E+01  2.75774000E+01  1.56460000E+01
  1.04460000E+01  2.01830000E+01  4.99540000E+01  4.76430000E+01  1.18690000E+01
  1.08670000E+01  9.96100000E+00  9.18700000E+00  3.67980000E+01  1.34070000E+01
  9.38200000E+00  9.81700000E+00  8.90800000E+00  8.40700000E+00  8.05800000E+00
  1.29600000E+01  2.67920000E+01  2.49300000E+01  3.45630000E+01  1.11860000E+01
  1.09440000E+01  1.01270000E+01  9.40400000E+00  1.36660000E+01  7.81000000E+00
  6.93600000E+01  5.86630000E+01  4.79690000E+01  4.52740000E+01  3.92290000E+01
  3.30660000E+01  0.00000000E+00  0.00000000E+00  0.00000000E+00  0.00000000E+00
  0.00000000E+00  0.00000000E+00  0.00000000E+00  0.00000000E+00  0.00000000E+00
  0.00000000E+00  0.00000000E+00  0.00000000E+00  0.00000000E+00  0.00000000E+00
  0.00000000E+00  0.00000000E+00  0.00000000E+00  0.00000000E+00  0.00000000E+00
  0.00000000E+00  0.00000000E+00  0.00000000E+00  0.00000000E+00  0.00000000E+00
  0.00000000E+00  0.00000000E+00  0.00000000E+00  0.00000000E+00  0.00000000E+00
  0.00000000E+00  0.00000000E+00  0.00000000E+00  0.00000000E+00  0.00000000E+00
  0.00000000E+00  0.00000000E+00  0.00000000E+00  0.00000000E+00  0.00000000E+00
  0.00000000E+00  0.00000000E+00  0.00000000E+00  0.00000000E+00  0.00000000E+00
  0.00000000E+00  0.00000000E+00  0.00000000E+00  0.00000000E+00  0.00000000E+00
  0.00000000E+00  0.00000000E+00  0.00000000E+00  0.00000000E+00  0.00000000E+00
  0.00000000E+00  0.00000000E+00  0.00000000E+00  0.00000000E+00  0.00000000E+00
  0.00000000E+00  0.00000000E+00  0.00000000E+00  0.00000000E+00  0.00000000E+00
  0.00000000E+00  0.00000000E+00  0.00000000E+00  0.00000000E+00  0.00000000E+00
  0.00000000E+00  0.00000000E+00  0.00000000E+00  0.00000000E+00  0.00000000E+00
  0.00000000E+00  0.00000000E+00  0.00000000E+00  0.00000000E+00  0.00000000E+00
  0.00000000E+00  0.00000000E+00  0.00000000E+00  0.00000000E+00  0.00000000E+00
  0.00000000E+00  0.00000000E+00  0.00000000E+00  0.00000000E+00  0.00000000E+00
  0.00000000E+00  0.00000000E+00  0.00000000E+00  0.00000000E+00  0.00000000E+00
  0.00000000E+00  0.00000000E+00  0.00000000E+00  0.00000000E+00  0.00000000E+00
  0.00000000E+00  0.00000000E+00  0.00000000E+00  0.00000000E+00  0.00000000E+00
  0.00000000E+00  0.00000000E+00  0.00000000E+00  0.00000000E+00  0.00000000E+00
  0.00000000E+00  0.00000000E+00  0.00000000E+00  0.00000000E+00  0.00000000E+00
  0.00000000E+00  0.00000000E+00  0.00000000E+00  0.00000000E+00  0.00000000E+00
  0.00000000E+00  0.00000000E+00  0.00000000E+00  0.00000000E+00  0.00000000E+00
  0.00000000E+00  0.00000000E+00  0.00000000E+00  0.00000000E+00  0.00000000E+00
  0.00000000E+00  0.00000000E+00  0.00000000E+00  0.00000000E+00  0.00000000E+00
  0.00000000E+00  0.00000000E+00  0.00000000E+00  0.00000000E+00  0.00000000E+00
  0.00000000E+00  0.00000000E+00  0.00000000E+00  0.00000000E+00  0.00000000E+00
  0.00000000E+00  0.00000000E+00  0.00000000E+00  0.00000000E+00  0.00000000E+00
  0.00000000E+00  0.00000000E+00  0.00000000E+00  0.00000000E+00  0.00000000E+00
  0.00000000E+00  0.00000000E+00  0.00000000E+00  0.00000000E+00  0.00000000E+00
  0.00000000E+00  0.00000000E+00  0.00000000E+00  0.00000000E+00  0.00000000E+00
  0.00000000E+00  0.00000000E+00  0.00000000E+00  0.00000000E+00  0.00000000E+00
  0.00000000E+00  0.00000000E+00  0.00000000E+00  0.00000000E+00  0.00000000E+00
  0.00000000E+00  0.00000000E+00  0.00000000E+00  0.00000000E+00  0.00000000E+00
  0.00000000E+00  0.00000000E+00  0.00000000E+00  0.00000000E+00  0.00000000E+00
  0.00000000E+00  0.00000000E+00  0.00000000E+00  0.00000000E+00  0.00000000E+00
  0.00000000E+00  0.00000000E+00  0.00000000E+00  0.00000000E+00  0.00000000E+00
  0.00000000E+00  0.00000000E+00  0.00000000E+00  0.00000000E+00  0.00000000E+00
  0.00000000E+00  0.00000000E+00  0.00000000E+00  0.00000000E+00  0.00000000E+00
  0.00000000E+00  0.00000000E+00  0.00000000E+00  0.00000000E+00  0.00000000E+00
  0.00000000E+00  0.00000000E+00  0.00000000E+00  0.00000000E+00  0.00000000E+00
  0.00000000E+00  0.00000000E+00  0.00000000E+00  0.00000000E+00  0.00000000E+00
  0.00000000E+00  0.00000000E+00  0.00000000E+00  0.00000000E+00  0.00000000E+00
  0.00000000E+00  0.00000000E+00  0.00000000E+00  0.00000000E+00  0.00000000E+00
  0.00000000E+00  0.00000000E+00  0.00000000E+00  0.00000000E+00  0.00000000E+00
  0.00000000E+00  0.00000000E+00  0.00000000E+00  0.00000000E+00  0.00000000E+00
  0.00000000E+00  0.00000000E+00  0.00000000E+00  0.00000000E+00  0.00000000E+00
  0.00000000E+00  0.00000000E+00  0.00000000E+00  0.00000000E+00  0.00000000E+00
  0.00000000E+00  0.00000000E+00  0.00000000E+00  0.00000000E+00  0.00000000E+00
  0.00000000E+00  0.00000000E+00  0.00000000E+00  0.00000000E+00  0.00000000E+00
  0.00000000E+00  0.00000000E+00  0.00000000E+00  0.00000000E+00  0.00000000E+00
  0.00000000E+00  0.00000000E+00  0.00000000E+00  0.00000000E+00  0.00000000E+00
  0.00000000E+00  0.00000000E+00  0.00000000E+00  0.00000000E+00  0.00000000E+00
  0.00000000E+00  0.00000000E+00  0.00000000E+00  0.00000000E+00  0.00000000E+00
  0.00000000E+00  0.00000000E+00  0.00000000E+00  0.00000000E+00  0.00000000E+00
  0.00000000E+00  0.00000000E+00  0.00000000E+00  0.00000000E+00  0.00000000E+00
  0.00000000E+00  0.00000000E+00  0.00000000E+00  0.00000000E+00  0.00000000E+00
  0.00000000E+00  0.00000000E+00  0.00000000E+00  0.00000000E+00  0.00000000E+00
  0.00000000E+00  0.00000000E+00  0.00000000E+00  0.00000000E+00  0.00000000E+00
  0.00000000E+00  0.00000000E+00  0.00000000E+00  0.00000000E+00  0.00000000E+00
  0.00000000E+00  0.00000000E+00  0.00000000E+00  0.00000000E+00  0.00000000E+00
  0.00000000E+00  0.00000000E+00  0.00000000E+00  0.00000000E+00  0.00000000E+00
  0.00000000E+00  0.00000000E+00  0.00000000E+00  0.00000000E+00  0.00000000E+00
  0.00000000E+00  0.00000000E+00  0.00000000E+00  0.00000000E+00  0.00000000E+00
  0.00000000E+00  0.00000000E+00  0.00000000E+00  0.00000000E+00  0.00000000E+00
  0.00000000E+00  0.00000000E+00  0.00000000E+00  0.00000000E+00  0.00000000E+00
  0.00000000E+00  0.00000000E+00  0.00000000E+00  0.00000000E+00  0.00000000E+00
  0.00000000E+00  0.00000000E+00  0.00000000E+00  0.00000000E+00  0.00000000E+00
  0.00000000E+00  0.00000000E+00  0.00000000E+00  0.00000000E+00  0.00000000E+00
  0.00000000E+00  0.00000000E+00  0.00000000E+00  0.00000000E+00  0.00000000E+00
  0.00000000E+00  0.00000000E+00  0.00000000E+00  0.00000000E+00  0.00000000E+00
  0.00000000E+00  0.00000000E+00  0.00000000E+00  0.00000000E+00  0.00000000E+00
  0.00000000E+00  0.00000000E+00  0.00000000E+00  0.00000000E+00  0.00000000E+00
  0.00000000E+00  0.00000000E+00  0.00000000E+00  0.00000000E+00  0.00000000E+00
  0.00000000E+00  0.00000000E+00  0.00000000E+00  0.00000000E+00  0.00000000E+00
  0.00000000E+00  0.00000000E+00  0.00000000E+00  0.00000000E+00  0.00000000E+00
  0.00000000E+00  0.00000000E+00  0.00000000E+00  0.00000000E+00  0.00000000E+00
  0.00000000E+00  0.00000000E+00  0.00000000E+00  0.00000000E+00  0.00000000E+00
  0.00000000E+00  0.00000000E+00  0.00000000E+00  0.00000000E+00  0.00000000E+00
  0.00000000E+00  0.00000000E+00  0.00000000E+00  0.00000000E+00  0.00000000E+00
  0.00000000E+00  0.00000000E+00  0.00000000E+00  0.00000000E+00  0.00000000E+00
  0.00000000E+00  0.00000000E+00  0.00000000E+00  0.00000000E+00  0.00000000E+00
  0.00000000E+00  0.00000000E+00  0.00000000E+00  0.00000000E+00  0.00000000E+00
  0.00000000E+00  0.00000000E+00  0.00000000E+00  0.00000000E+00  0.00000000E+00
  0.00000000E+00  0.00000000E+00  0.00000000E+00  0.00000000E+00  0.00000000E+00
  0.00000000E+00  0.00000000E+00  0.00000000E+00  0.00000000E+00  0.00000000E+00
  0.00000000E+00  0.00000000E+00  0.00000000E+00  0.00000000E+00  0.00000000E+00
  0.00000000E+00  0.00000000E+00  0.00000000E+00  0.00000000E+00  0.00000000E+00
  0.00000000E+00  0.00000000E+00  0.00000000E+00  0.00000000E+00  0.00000000E+00
  0.00000000E+00  0.00000000E+00  0.00000000E+00  0.00000000E+00  0.00000000E+00
  0.00000000E+00  0.00000000E+00  0.00000000E+00  0.00000000E+00  0.00000000E+00
  0.00000000E+00  0.00000000E+00  0.00000000E+00  0.00000000E+00  0.00000000E+00
  0.00000000E+00  0.00000000E+00  0.00000000E+00  0.00000000E+00  0.00000000E+00
  0.00000000E+00  0.00000000E+00  0.00000000E+00  0.00000000E+00  0.00000000E+00
  0.00000000E+00  0.00000000E+00  0.00000000E+00  0.00000000E+00  0.00000000E+00
  0.00000000E+00  0.00000000E+00  0.00000000E+00  0.00000000E+00  0.00000000E+00
  0.00000000E+00  0.00000000E+00  0.00000000E+00  0.00000000E+00  0.00000000E+00
  0.00000000E+00  0.00000000E+00  0.00000000E+00  0.00000000E+00  0.00000000E+00
  0.00000000E+00  0.00000000E+00  0.00000000E+00  0.00000000E+00  0.00000000E+00
  0.00000000E+00  0.00000000E+00  0.00000000E+00  0.00000000E+00  0.00000000E+00
  0.00000000E+00  0.00000000E+00  0.00000000E+00  0.00000000E+00  0.00000000E+00
  0.00000000E+00  0.00000000E+00  0.00000000E+00  0.00000000E+00  0.00000000E+00
  0.00000000E+00  0.00000000E+00  0.00000000E+00  0.00000000E+00  0.00000000E+00
  0.00000000E+00  0.00000000E+00  0.00000000E+00  0.00000000E+00  0.00000000E+00
  0.00000000E+00  0.00000000E+00  0.00000000E+00  0.00000000E+00  0.00000000E+00
  0.00000000E+00  0.00000000E+00  0.00000000E+00  0.00000000E+00  0.00000000E+00
  0.00000000E+00  0.00000000E+00  0.00000000E+00  0.00000000E+00  0.00000000E+00
  0.00000000E+00  0.00000000E+00  0.00000000E+00  0.00000000E+00  0.00000000E+00
  0.00000000E+00  0.00000000E+00  0.00000000E+00  0.00000000E+00  0.00000000E+00
  0.00000000E+00  0.00000000E+00  0.00000000E+00  0.00000000E+00  0.00000000E+00
  0.00000000E+00  0.00000000E+00  0.00000000E+00  0.00000000E+00  0.00000000E+00
  0.00000000E+00  0.00000000E+00  0.00000000E+00  0.00000000E+00  0.00000000E+00
  0.00000000E+00  0.00000000E+00  0.00000000E+00  0.00000000E+00  0.00000000E+00
  0.00000000E+00  0.00000000E+00  0.00000000E+00  0.00000000E+00  0.00000000E+00
  0.00000000E+00  0.00000000E+00  0.00000000E+00  0.00000000E+00  0.00000000E+00
  0.00000000E+00  0.00000000E+00  0.00000000E+00  0.00000000E+00  0.00000000E+00
  0.00000000E+00  0.00000000E+00  0.00000000E+00  0.00000000E+00  0.00000000E+00
  0.00000000E+00  0.00000000E+00  0.00000000E+00  0.00000000E+00  0.00000000E+00
  0.00000000E+00  0.00000000E+00  0.00000000E+00  0.00000000E+00  0.00000000E+00
  0.00000000E+00  0.00000000E+00  0.00000000E+00  0.00000000E+00  0.00000000E+00
  0.00000000E+00  0.00000000E+00  0.00000000E+00  0.00000000E+00  0.00000000E+00
  0.00000000E+00  0.00000000E+00  0.00000000E+00  0.00000000E+00  0.00000000E+00
  0.00000000E+00  0.00000000E+00  0.00000000E+00  0.00000000E+00  0.00000000E+00
  0.00000000E+00  0.00000000E+00  0.00000000E+00  0.00000000E+00  0.00000000E+00
  0.00000000E+00  0.00000000E+00  0.00000000E+00  0.00000000E+00  0.00000000E+00
  0.00000000E+00  0.00000000E+00  0.00000000E+00  0.00000000E+00  0.00000000E+00
  0.00000000E+00  0.00000000E+00  0.00000000E+00  0.00000000E+00  0.00000000E+00
  0.00000000E+00  0.00000000E+00  0.00000000E+00  0.00000000E+00  0.00000000E+00
  0.00000000E+00  0.00000000E+00  0.00000000E+00  0.00000000E+00  0.00000000E+00
  0.00000000E+00  0.00000000E+00  0.00000000E+00  0.00000000E+00  0.00000000E+00
  0.00000000E+00  0.00000000E+00  0.00000000E+00  0.00000000E+00  0.00000000E+00
  0.00000000E+00  0.00000000E+00  0.00000000E+00  0.00000000E+00  0.00000000E+00
  0.00000000E+00  0.00000000E+00  0.00000000E+00  0.00000000E+00  0.00000000E+00
  0.00000000E+00  0.00000000E+00  0.00000000E+00  0.00000000E+00  0.00000000E+00
  0.00000000E+00  0.00000000E+00  0.00000000E+00  0.00000000E+00  0.00000000E+00
  0.00000000E+00  0.00000000E+00  0.00000000E+00  0.00000000E+00  0.00000000E+00
  0.00000000E+00  0.00000000E+00  0.00000000E+00  0.00000000E+00  0.00000000E+00
  0.00000000E+00  0.00000000E+00  0.00000000E+00  0.00000000E+00  0.00000000E+00
  0.00000000E+00  0.00000000E+00  0.00000000E+00  0.00000000E+00  0.00000000E+00
  0.00000000E+00  0.00000000E+00  0.00000000E+00  0.00000000E+00  0.00000000E+00
  0.00000000E+00  0.00000000E+00  0.00000000E+00  0.00000000E+00  0.00000000E+00
  0.00000000E+00  0.00000000E+00  0.00000000E+00  0.00000000E+00  0.00000000E+00
  0.00000000E+00  0.00000000E+00  0.00000000E+00  0.00000000E+00  0.00000000E+00
  0.00000000E+00  0.00000000E+00  0.00000000E+00  0.00000000E+00  0.00000000E+00
  0.00000000E+00  0.00000000E+00  0.00000000E+00  0.00000000E+00  0.00000000E+00
  0.00000000E+00  0.00000000E+00  0.00000000E+00  0.00000000E+00  0.00000000E+00
  0.00000000E+00  0.00000000E+00  0.00000000E+00  0.00000000E+00  0.00000000E+00
  0.00000000E+00  0.00000000E+00  0.00000000E+00  0.00000000E+00  0.00000000E+00
  0.00000000E+00  0.00000000E+00  0.00000000E+00  0.00000000E+00  0.00000000E+00
  0.00000000E+00  0.00000000E+00  0.00000000E+00  0.00000000E+00  0.00000000E+00
  0.00000000E+00  0.00000000E+00  0.00000000E+00  0.00000000E+00  0.00000000E+00
  0.00000000E+00  0.00000000E+00  0.00000000E+00  0.00000000E+00  0.00000000E+00
  0.00000000E+00  0.00000000E+00  0.00000000E+00  0.00000000E+00  0.00000000E+00
  0.00000000E+00  0.00000000E+00  0.00000000E+00  0.00000000E+00  0.00000000E+00
  0.00000000E+00  0.00000000E+00  0.00000000E+00  0.00000000E+00  0.00000000E+00
  0.00000000E+00  0.00000000E+00  0.00000000E+00  0.00000000E+00  0.00000000E+00
  0.00000000E+00  0.00000000E+00  0.00000000E+00  0.00000000E+00  0.00000000E+00
  0.00000000E+00  0.00000000E+00  0.00000000E+00  0.00000000E+00  0.00000000E+00
  0.00000000E+00  0.00000000E+00  0.00000000E+00  0.00000000E+00  0.00000000E+00
  0.00000000E+00  0.00000000E+00  0.00000000E+00  0.00000000E+00  0.00000000E+00
  0.00000000E+00  0.00000000E+00  0.00000000E+00  0.00000000E+00  0.00000000E+00
  0.00000000E+00  0.00000000E+00  0.00000000E+00  0.00000000E+00  0.00000000E+00
  0.00000000E+00  0.00000000E+00  0.00000000E+00  0.00000000E+00  0.00000000E+00
  0.00000000E+00  0.00000000E+00  0.00000000E+00  0.00000000E+00  0.00000000E+00
  0.00000000E+00  0.00000000E+00  0.00000000E+00  0.00000000E+00  0.00000000E+00
  0.00000000E+00  0.00000000E+00  0.00000000E+00  0.00000000E+00  0.00000000E+00
  0.00000000E+00  0.00000000E+00  0.00000000E+00  0.00000000E+00  0.00000000E+00
  0.00000000E+00  0.00000000E+00  0.00000000E+00  0.00000000E+00  0.00000000E+00
  0.00000000E+00  0.00000000E+00  0.00000000E+00  0.00000000E+00  0.00000000E+00
  0.00000000E+00  0.00000000E+00  0.00000000E+00  0.00000000E+00  0.00000000E+00
  0.00000000E+00  0.00000000E+00  0.00000000E+00  0.00000000E+00  0.00000000E+00
  0.00000000E+00  0.00000000E+00  0.00000000E+00  0.00000000E+00  0.00000000E+00
  0.00000000E+00  0.00000000E+00  0.00000000E+00  0.00000000E+00  0.00000000E+00
  0.00000000E+00  0.00000000E+00  0.00000000E+00  0.00000000E+00  0.00000000E+00
  0.00000000E+00  0.00000000E+00  0.00000000E+00  0.00000000E+00  0.00000000E+00
  0.00000000E+00  0.00000000E+00  0.00000000E+00  0.00000000E+00  0.00000000E+00
  0.00000000E+00  0.00000000E+00  0.00000000E+00  0.00000000E+00  0.00000000E+00
  0.00000000E+00  0.00000000E+00  0.00000000E+00  0.00000000E+00  0.00000000E+00
  0.00000000E+00  0.00000000E+00  0.00000000E+00  0.00000000E+00  0.00000000E+00
  0.00000000E+00  0.00000000E+00  0.00000000E+00  0.00000000E+00  0.00000000E+00
  0.00000000E+00  0.00000000E+00  0.00000000E+00  0.00000000E+00  0.00000000E+00
  0.00000000E+00  0.00000000E+00  0.00000000E+00  0.00000000E+00  0.00000000E+00
  0.00000000E+00  0.00000000E+00  0.00000000E+00  0.00000000E+00  0.00000000E+00
  0.00000000E+00  0.00000000E+00  0.00000000E+00  0.00000000E+00  0.00000000E+00
  0.00000000E+00  0.00000000E+00  0.00000000E+00  0.00000000E+00  0.00000000E+00
  0.00000000E+00  0.00000000E+00  0.00000000E+00  0.00000000E+00  0.00000000E+00
  0.00000000E+00  0.00000000E+00  0.00000000E+00  0.00000000E+00  0.00000000E+00
  0.00000000E+00  0.00000000E+00  0.00000000E+00  0.00000000E+00  0.00000000E+00
  0.00000000E+00  0.00000000E+00  0.00000000E+00  0.00000000E+00  0.00000000E+00
  0.00000000E+00  0.00000000E+00  0.00000000E+00  0.00000000E+00  0.00000000E+00
  0.00000000E+00  0.00000000E+00  0.00000000E+00  0.00000000E+00  0.00000000E+00
  0.00000000E+00  0.00000000E+00  0.00000000E+00  0.00000000E+00  0.00000000E+00
  0.00000000E+00  0.00000000E+00  0.00000000E+00  0.00000000E+00  0.00000000E+00
  0.00000000E+00  0.00000000E+00  0.00000000E+00  0.00000000E+00  0.00000000E+00
  0.00000000E+00  0.00000000E+00  0.00000000E+00  0.00000000E+00  0.00000000E+00
  0.00000000E+00  0.00000000E+00  0.00000000E+00  0.00000000E+00  0.00000000E+00
  0.00000000E+00  0.00000000E+00  0.00000000E+00  0.00000000E+00  0.00000000E+00
  0.00000000E+00  0.00000000E+00  0.00000000E+00  0.00000000E+00  0.00000000E+00
  0.00000000E+00  0.00000000E+00  0.00000000E+00  0.00000000E+00  0.00000000E+00
  0.00000000E+00  0.00000000E+00  0.00000000E+00  0.00000000E+00  0.00000000E+00
  0.00000000E+00  0.00000000E+00  0.00000000E+00  0.00000000E+00  0.00000000E+00
  0.00000000E+00  0.00000000E+00  0.00000000E+00  0.00000000E+00  0.00000000E+00
  0.00000000E+00  0.00000000E+00  0.00000000E+00  0.00000000E+00  0.00000000E+00
  0.00000000E+00  0.00000000E+00  0.00000000E+00  0.00000000E+00  0.00000000E+00
  0.00000000E+00  0.00000000E+00  0.00000000E+00  0.00000000E+00  0.00000000E+00
  0.00000000E+00  0.00000000E+00  0.00000000E+00  0.00000000E+00  0.00000000E+00
  0.00000000E+00  0.00000000E+00  0.00000000E+00  0.00000000E+00  0.00000000E+00
  0.00000000E+00  0.00000000E+00  0.00000000E+00  0.00000000E+00  0.00000000E+00
  0.00000000E+00  0.00000000E+00  0.00000000E+00  0.00000000E+00  0.00000000E+00
  0.00000000E+00  0.00000000E+00  0.00000000E+00  0.00000000E+00  0.00000000E+00
  0.00000000E+00  0.00000000E+00  0.00000000E+00  0.00000000E+00  0.00000000E+00
  0.00000000E+00  0.00000000E+00  0.00000000E+00  0.00000000E+00  0.00000000E+00
  0.00000000E+00  0.00000000E+00  0.00000000E+00  0.00000000E+00  0.00000000E+00
  0.00000000E+00  0.00000000E+00  0.00000000E+00  0.00000000E+00  0.00000000E+00
  0.00000000E+00  0.00000000E+00  0.00000000E+00  0.00000000E+00  0.00000000E+00
  0.00000000E+00  0.00000000E+00  0.00000000E+00  0.00000000E+00  0.00000000E+00
  0.00000000E+00  0.00000000E+00  0.00000000E+00  0.00000000E+00  0.00000000E+00
  0.00000000E+00  0.00000000E+00  0.00000000E+00  0.00000000E+00  0.00000000E+00
  0.00000000E+00  0.00000000E+00  0.00000000E+00  0.00000000E+00  0.00000000E+00
  0.00000000E+00  0.00000000E+00  0.00000000E+00  0.00000000E+00  0.00000000E+00
  0.00000000E+00  0.00000000E+00  0.00000000E+00  0.00000000E+00  0.00000000E+00
  0.00000000E+00  0.00000000E+00  0.00000000E+00  0.00000000E+00  0.00000000E+00
  0.00000000E+00  0.00000000E+00  0.00000000E+00  0.00000000E+00  0.00000000E+00
  0.00000000E+00  0.00000000E+00  0.00000000E+00  0.00000000E+00  0.00000000E+00
  0.00000000E+00  0.00000000E+00  0.00000000E+00  0.00000000E+00  0.00000000E+00
  0.00000000E+00  0.00000000E+00  0.00000000E+00  0.00000000E+00  0.00000000E+00
  0.00000000E+00  0.00000000E+00  0.00000000E+00  0.00000000E+00  0.00000000E+00
  0.00000000E+00  0.00000000E+00  0.00000000E+00  0.00000000E+00  0.00000000E+00
  0.00000000E+00  0.00000000E+00  0.00000000E+00  0.00000000E+00  0.00000000E+00
  0.00000000E+00  0.00000000E+00  0.00000000E+00  0.00000000E+00  0.00000000E+00
  0.00000000E+00  0.00000000E+00  0.00000000E+00  0.00000000E+00  0.00000000E+00
  0.00000000E+00  0.00000000E+00  0.00000000E+00  0.00000000E+00  0.00000000E+00
  0.00000000E+00  0.00000000E+00  0.00000000E+00  0.00000000E+00  0.00000000E+00
  0.00000000E+00  0.00000000E+00  0.00000000E+00  0.00000000E+00  0.00000000E+00
  0.00000000E+00  0.00000000E+00  0.00000000E+00  0.00000000E+00  0.00000000E+00
  0.00000000E+00  0.00000000E+00  0.00000000E+00  0.00000000E+00  0.00000000E+00
  0.00000000E+00  0.00000000E+00  0.00000000E+00  0.00000000E+00  0.00000000E+00
  0.00000000E+00  0.00000000E+00  0.00000000E+00  0.00000000E+00  0.00000000E+00
  0.00000000E+00  0.00000000E+00  0.00000000E+00  0.00000000E+00  0.00000000E+00
  0.00000000E+00  0.00000000E+00  0.00000000E+00  0.00000000E+00  0.00000000E+00
  0.00000000E+00  0.00000000E+00  0.00000000E+00  0.00000000E+00  0.00000000E+00
  0.00000000E+00  0.00000000E+00  0.00000000E+00  0.00000000E+00  0.00000000E+00
  0.00000000E+00  0.00000000E+00  0.00000000E+00  0.00000000E+00  0.00000000E+00
  0.00000000E+00  0.00000000E+00  0.00000000E+00  0.00000000E+00  0.00000000E+00
  0.00000000E+00  0.00000000E+00  0.00000000E+00  0.00000000E+00  0.00000000E+00
  0.00000000E+00  0.00000000E+00  0.00000000E+00  0.00000000E+00  0.00000000E+00
  0.00000000E+00  0.00000000E+00  0.00000000E+00  0.00000000E+00  0.00000000E+00
  0.00000000E+00  0.00000000E+00  0.00000000E+00  0.00000000E+00  0.00000000E+00
  0.00000000E+00  0.00000000E+00  0.00000000E+00  0.00000000E+00  0.00000000E+00
  0.00000000E+00  0.00000000E+00  0.00000000E+00  0.00000000E+00  0.00000000E+00
  0.00000000E+00  0.00000000E+00  0.00000000E+00  0.00000000E+00  0.00000000E+00
  0.00000000E+00  0.00000000E+00  0.00000000E+00  0.00000000E+00  0.00000000E+00
  0.00000000E+00  0.00000000E+00  0.00000000E+00  0.00000000E+00  0.00000000E+00
  0.00000000E+00  0.00000000E+00  0.00000000E+00  0.00000000E+00  0.00000000E+00
  0.00000000E+00  0.00000000E+00  0.00000000E+00  0.00000000E+00  0.00000000E+00
  0.00000000E+00  0.00000000E+00  0.00000000E+00  0.00000000E+00  0.00000000E+00
  0.00000000E+00  0.00000000E+00  0.00000000E+00  0.00000000E+00  0.00000000E+00
  0.00000000E+00  0.00000000E+00  0.00000000E+00  0.00000000E+00  0.00000000E+00
  0.00000000E+00  0.00000000E+00  0.00000000E+00  0.00000000E+00  0.00000000E+00
  0.00000000E+00  0.00000000E+00  0.00000000E+00  0.00000000E+00  0.00000000E+00
  0.00000000E+00  0.00000000E+00  0.00000000E+00  0.00000000E+00  0.00000000E+00
  0.00000000E+00  0.00000000E+00  0.00000000E+00  0.00000000E+00  0.00000000E+00
  0.00000000E+00  0.00000000E+00  0.00000000E+00  0.00000000E+00  0.00000000E+00
  0.00000000E+00  0.00000000E+00  0.00000000E+00  0.00000000E+00  0.00000000E+00
  0.00000000E+00  0.00000000E+00  0.00000000E+00  0.00000000E+00  0.00000000E+00
  0.00000000E+00  0.00000000E+00  0.00000000E+00  0.00000000E+00  0.00000000E+00
  0.00000000E+00  0.00000000E+00  0.00000000E+00  0.00000000E+00  0.00000000E+00
  0.00000000E+00  0.00000000E+00  0.00000000E+00  0.00000000E+00  0.00000000E+00
  0.00000000E+00  0.00000000E+00  0.00000000E+00  0.00000000E+00  0.00000000E+00
  0.00000000E+00  0.00000000E+00  0.00000000E+00  0.00000000E+00  0.00000000E+00
  0.00000000E+00  0.00000000E+00  0.00000000E+00  0.00000000E+00  0.00000000E+00
  0.00000000E+00  0.00000000E+00  0.00000000E+00  0.00000000E+00  0.00000000E+00
  0.00000000E+00  0.00000000E+00  0.00000000E+00  0.00000000E+00  0.00000000E+00
  0.00000000E+00  0.00000000E+00  0.00000000E+00  0.00000000E+00  0.00000000E+00
  0.00000000E+00  0.00000000E+00  0.00000000E+00  0.00000000E+00  0.00000000E+00
  0.00000000E+00  0.00000000E+00  0.00000000E+00  0.00000000E+00  0.00000000E+00
  0.00000000E+00  0.00000000E+00  0.00000000E+00  0.00000000E+00  0.00000000E+00
  0.00000000E+00  0.00000000E+00  0.00000000E+00  0.00000000E+00  0.00000000E+00
  0.00000000E+00  0.00000000E+00  0.00000000E+00  0.00000000E+00  0.00000000E+00
  0.00000000E+00  0.00000000E+00  0.00000000E+00  0.00000000E+00  0.00000000E+00
  0.00000000E+00  0.00000000E+00  0.00000000E+00  0.00000000E+00  0.00000000E+00
  0.00000000E+00  0.00000000E+00  0.00000000E+00  0.00000000E+00  0.00000000E+00
  0.00000000E+00  0.00000000E+00  0.00000000E+00  0.00000000E+00  0.00000000E+00
  0.00000000E+00  0.00000000E+00  0.00000000E+00  0.00000000E+00  0.00000000E+00
  0.00000000E+00  0.00000000E+00  0.00000000E+00  0.00000000E+00  0.00000000E+00
  0.00000000E+00  0.00000000E+00  0.00000000E+00  0.00000000E+00  0.00000000E+00
  0.00000000E+00  0.00000000E+00  0.00000000E+00  0.00000000E+00  0.00000000E+00
  0.00000000E+00  0.00000000E+00  0.00000000E+00  0.00000000E+00  0.00000000E+00
  0.00000000E+00  0.00000000E+00  0.00000000E+00  0.00000000E+00  0.00000000E+00
  0.00000000E+00  0.00000000E+00  0.00000000E+00  0.00000000E+00  0.00000000E+00
  0.00000000E+00  0.00000000E+00  0.00000000E+00  0.00000000E+00  0.00000000E+00
  0.00000000E+00  0.00000000E+00  0.00000000E+00  0.00000000E+00  0.00000000E+00
  0.00000000E+00  0.00000000E+00  0.00000000E+00  0.00000000E+00  0.00000000E+00
  0.00000000E+00  0.00000000E+00  0.00000000E+00  0.00000000E+00  0.00000000E+00
  0.00000000E+00  0.00000000E+00  0.00000000E+00  0.00000000E+00  0.00000000E+00
  0.00000000E+00  0.00000000E+00  0.00000000E+00  0.00000000E+00  0.00000000E+00
  0.00000000E+00  0.00000000E+00  0.00000000E+00  0.00000000E+00  0.00000000E+00
  0.00000000E+00  0.00000000E+00  0.00000000E+00  0.00000000E+00  0.00000000E+00
  0.00000000E+00  0.00000000E+00  0.00000000E+00  0.00000000E+00  0.00000000E+00
  0.00000000E+00  0.00000000E+00  0.00000000E+00  0.00000000E+00  0.00000000E+00
  0.00000000E+00  0.00000000E+00  0.00000000E+00  0.00000000E+00  0.00000000E+00
  0.00000000E+00  0.00000000E+00  0.00000000E+00  0.00000000E+00  0.00000000E+00
  0.00000000E+00  0.00000000E+00  0.00000000E+00  0.00000000E+00  0.00000000E+00
  0.00000000E+00  0.00000000E+00  0.00000000E+00  0.00000000E+00  0.00000000E+00
  0.00000000E+00  0.00000000E+00  0.00000000E+00  0.00000000E+00  0.00000000E+00
  0.00000000E+00  0.00000000E+00  0.00000000E+00  0.00000000E+00  0.00000000E+00
  0.00000000E+00  0.00000000E+00  0.00000000E+00  0.00000000E+00  0.00000000E+00
  0.00000000E+00  0.00000000E+00  0.00000000E+00  0.00000000E+00  0.00000000E+00
  0.00000000E+00  0.00000000E+00  0.00000000E+00  0.00000000E+00  0.00000000E+00
  0.00000000E+00  0.00000000E+00  0.00000000E+00  0.00000000E+00  0.00000000E+00
  0.00000000E+00  0.00000000E+00  0.00000000E+00  0.00000000E+00  0.00000000E+00
  0.00000000E+00  0.00000000E+00  0.00000000E+00  0.00000000E+00  0.00000000E+00
  0.00000000E+00  0.00000000E+00  0.00000000E+00  0.00000000E+00  0.00000000E+00
  0.00000000E+00  0.00000000E+00  0.00000000E+00  0.00000000E+00  0.00000000E+00
  0.00000000E+00  0.00000000E+00  0.00000000E+00  0.00000000E+00  0.00000000E+00
  0.00000000E+00  0.00000000E+00  0.00000000E+00  0.00000000E+00  0.00000000E+00
  0.00000000E+00  0.00000000E+00  0.00000000E+00  0.00000000E+00  0.00000000E+00
  0.00000000E+00  0.00000000E+00  0.00000000E+00  0.00000000E+00  0.00000000E+00
  0.00000000E+00  0.00000000E+00  0.00000000E+00  0.00000000E+00  0.00000000E+00
  0.00000000E+00  0.00000000E+00  0.00000000E+00  0.00000000E+00  0.00000000E+00
  0.00000000E+00  0.00000000E+00  0.00000000E+00  0.00000000E+00  0.00000000E+00
  0.00000000E+00  0.00000000E+00  0.00000000E+00  0.00000000E+00  0.00000000E+00
  0.00000000E+00  0.00000000E+00  0.00000000E+00  0.00000000E+00  0.00000000E+00
  0.00000000E+00  0.00000000E+00  0.00000000E+00  0.00000000E+00  0.00000000E+00
  0.00000000E+00  0.00000000E+00  0.00000000E+00  0.00000000E+00  0.00000000E+00
  0.00000000E+00  0.00000000E+00  0.00000000E+00  0.00000000E+00  0.00000000E+00
  0.00000000E+00  0.00000000E+00  0.00000000E+00  0.00000000E+00  0.00000000E+00
  0.00000000E+00  0.00000000E+00  0.00000000E+00  0.00000000E+00  0.00000000E+00
  0.00000000E+00  0.00000000E+00  0.00000000E+00  0.00000000E+00  0.00000000E+00
  0.00000000E+00  0.00000000E+00  0.00000000E+00  0.00000000E+00  0.00000000E+00
  0.00000000E+00  0.00000000E+00  0.00000000E+00  0.00000000E+00  0.00000000E+00
  0.00000000E+00  0.00000000E+00  0.00000000E+00  0.00000000E+00  0.00000000E+00
  0.00000000E+00  0.00000000E+00  0.00000000E+00  0.00000000E+00  0.00000000E+00
  0.00000000E+00  0.00000000E+00  0.00000000E+00  0.00000000E+00  0.00000000E+00
  0.00000000E+00  0.00000000E+00  0.00000000E+00  0.00000000E+00  0.00000000E+00
  0.00000000E+00  0.00000000E+00  0.00000000E+00  0.00000000E+00  0.00000000E+00
  0.00000000E+00  0.00000000E+00  0.00000000E+00  0.00000000E+00  0.00000000E+00
  0.00000000E+00  0.00000000E+00  0.00000000E+00  0.00000000E+00  0.00000000E+00
  0.00000000E+00  0.00000000E+00  0.00000000E+00  0.00000000E+00  0.00000000E+00
  0.00000000E+00  0.00000000E+00  0.00000000E+00  0.00000000E+00  0.00000000E+00
  0.00000000E+00  0.00000000E+00  0.00000000E+00  0.00000000E+00  0.00000000E+00
  0.00000000E+00  0.00000000E+00  0.00000000E+00  0.00000000E+00  0.00000000E+00
  0.00000000E+00  0.00000000E+00  0.00000000E+00  0.00000000E+00  0.00000000E+00
  0.00000000E+00  0.00000000E+00  0.00000000E+00  0.00000000E+00  0.00000000E+00
  0.00000000E+00  0.00000000E+00  0.00000000E+00  0.00000000E+00  0.00000000E+00
  0.00000000E+00  0.00000000E+00  0.00000000E+00  0.00000000E+00  0.00000000E+00
  0.00000000E+00  0.00000000E+00  0.00000000E+00  0.00000000E+00  0.00000000E+00
  0.00000000E+00  0.00000000E+00  0.00000000E+00  0.00000000E+00  0.00000000E+00
  0.00000000E+00  0.00000000E+00  0.00000000E+00  0.00000000E+00  0.00000000E+00
  0.00000000E+00  0.00000000E+00  0.00000000E+00  0.00000000E+00  0.00000000E+00
  0.00000000E+00  0.00000000E+00  0.00000000E+00  0.00000000E+00  0.00000000E+00
  0.00000000E+00  0.00000000E+00  0.00000000E+00  0.00000000E+00  0.00000000E+00
  0.00000000E+00  0.00000000E+00  0.00000000E+00  0.00000000E+00  0.00000000E+00
  0.00000000E+00  0.00000000E+00  0.00000000E+00  0.00000000E+00  0.00000000E+00
  0.00000000E+00  0.00000000E+00  0.00000000E+00  0.00000000E+00  0.00000000E+00
  0.00000000E+00  0.00000000E+00  0.00000000E+00  0.00000000E+00  0.00000000E+00
  0.00000000E+00  0.00000000E+00  0.00000000E+00  0.00000000E+00  0.00000000E+00
  0.00000000E+00  0.00000000E+00  0.00000000E+00  0.00000000E+00  0.00000000E+00
  0.00000000E+00  0.00000000E+00  0.00000000E+00  0.00000000E+00  0.00000000E+00
  0.00000000E+00  0.00000000E+00  0.00000000E+00  0.00000000E+00  0.00000000E+00
  0.00000000E+00  0.00000000E+00  0.00000000E+00  0.00000000E+00  0.00000000E+00
  0.00000000E+00  0.00000000E+00  0.00000000E+00  0.00000000E+00  0.00000000E+00
  0.00000000E+00  0.00000000E+00  0.00000000E+00  0.00000000E+00  0.00000000E+00
  0.00000000E+00  0.00000000E+00  0.00000000E+00  0.00000000E+00  0.00000000E+00
  0.00000000E+00  0.00000000E+00  0.00000000E+00  0.00000000E+00  0.00000000E+00
  0.00000000E+00  0.00000000E+00  0.00000000E+00  0.00000000E+00  0.00000000E+00
  0.00000000E+00  0.00000000E+00  0.00000000E+00  0.00000000E+00  0.00000000E+00
  0.00000000E+00  0.00000000E+00  0.00000000E+00  0.00000000E+00  0.00000000E+00
  0.00000000E+00  0.00000000E+00  0.00000000E+00  0.00000000E+00  0.00000000E+00
  0.00000000E+00  0.00000000E+00  0.00000000E+00  0.00000000E+00  0.00000000E+00
  0.00000000E+00  0.00000000E+00  0.00000000E+00  0.00000000E+00  0.00000000E+00
  0.00000000E+00  0.00000000E+00  0.00000000E+00  0.00000000E+00  0.00000000E+00
  0.00000000E+00  0.00000000E+00  0.00000000E+00  0.00000000E+00  0.00000000E+00
  0.00000000E+00  0.00000000E+00  0.00000000E+00  0.00000000E+00  0.00000000E+00
  0.00000000E+00  0.00000000E+00  0.00000000E+00  0.00000000E+00  0.00000000E+00
  0.00000000E+00  0.00000000E+00  0.00000000E+00  0.00000000E+00  0.00000000E+00
  0.00000000E+00  0.00000000E+00  0.00000000E+00  0.00000000E+00  0.00000000E+00
  0.00000000E+00  0.00000000E+00  0.00000000E+00  0.00000000E+00  0.00000000E+00
  0.00000000E+00  0.00000000E+00  0.00000000E+00  0.00000000E+00  0.00000000E+00
  0.00000000E+00  0.00000000E+00  0.00000000E+00  0.00000000E+00  0.00000000E+00
  0.00000000E+00  0.00000000E+00  0.00000000E+00  0.00000000E+00  0.00000000E+00
Gaussian Version                           C   N=           2
ES64L-G16RevA.03        
