 Entering Gaussian System, Link 0=g16
 Initial command:
 /sw/cluster/pub/apps//g16/l1.exe "/data/mmaximo/44353/Gau-1957078.inp" -scrdir="/data/mmaximo/44353/"
 Entering Link 1 = /sw/cluster/pub/apps//g16/l1.exe PID=   1957079.
  
 Copyright (c) 1988,1990,1992,1993,1995,1998,2003,2009,2016,
            Gaussian, Inc.  All Rights Reserved.
  
 This is part of the Gaussian(R) 16 program.  It is based on
 the Gaussian(R) 09 system (copyright 2009, Gaussian, Inc.),
 the Gaussian(R) 03 system (copyright 2003, Gaussian, Inc.),
 the Gaussian(R) 98 system (copyright 1998, Gaussian, Inc.),
 the Gaussian(R) 94 system (copyright 1995, Gaussian, Inc.),
 the Gaussian 92(TM) system (copyright 1992, Gaussian, Inc.),
 the Gaussian 90(TM) system (copyright 1990, Gaussian, Inc.),
 the Gaussian 88(TM) system (copyright 1988, Gaussian, Inc.),
 the Gaussian 86(TM) system (copyright 1986, Carnegie Mellon
 University), and the Gaussian 82(TM) system (copyright 1983,
 Carnegie Mellon University). Gaussian is a federally registered
 trademark of Gaussian, Inc.
  
 This software contains proprietary and confidential information,
 including trade secrets, belonging to Gaussian, Inc.
  
 This software is provided under written license and may be
 used, copied, transmitted, or stored only in accord with that
 written license.
  
 The following legend is applicable only to US Government
 contracts under FAR:
  
                    RESTRICTED RIGHTS LEGEND
  
 Use, reproduction and disclosure by the US Government is
 subject to restrictions as set forth in subparagraphs (a)
 and (c) of the Commercial Computer Software - Restricted
 Rights clause in FAR 52.227-19.
  
 Gaussian, Inc.
 340 Quinnipiac St., Bldg. 40, Wallingford CT 06492
  
  
 ---------------------------------------------------------------
 Warning -- This program may not be used in any manner that
 competes with the business of Gaussian, Inc. or will provide
 assistance to any competitor of Gaussian, Inc.  The licensee
 of this program is prohibited from giving any competitor of
 Gaussian, Inc. access to this program.  By using this program,
 the user acknowledges that Gaussian, Inc. is engaged in the
 business of creating and licensing software in the field of
 computational chemistry and represents and warrants to the
 licensee that it is not a competitor of Gaussian, Inc. and that
 it will not use this program in any manner prohibited above.
 ---------------------------------------------------------------
  

 Cite this work as:
 Gaussian 16, Revision A.03,
 M. J. Frisch, G. W. Trucks, H. B. Schlegel, G. E. Scuseria, 
 M. A. Robb, J. R. Cheeseman, G. Scalmani, V. Barone, 
 G. A. Petersson, H. Nakatsuji, X. Li, M. Caricato, A. V. Marenich, 
 J. Bloino, B. G. Janesko, R. Gomperts, B. Mennucci, H. P. Hratchian, 
 J. V. Ortiz, A. F. Izmaylov, J. L. Sonnenberg, D. Williams-Young, 
 F. Ding, F. Lipparini, F. Egidi, J. Goings, B. Peng, A. Petrone, 
 T. Henderson, D. Ranasinghe, V. G. Zakrzewski, J. Gao, N. Rega, 
 G. Zheng, W. Liang, M. Hada, M. Ehara, K. Toyota, R. Fukuda, 
 J. Hasegawa, M. Ishida, T. Nakajima, Y. Honda, O. Kitao, H. Nakai, 
 T. Vreven, K. Throssell, J. A. Montgomery, Jr., J. E. Peralta, 
 F. Ogliaro, M. J. Bearpark, J. J. Heyd, E. N. Brothers, K. N. Kudin, 
 V. N. Staroverov, T. A. Keith, R. Kobayashi, J. Normand, 
 K. Raghavachari, A. P. Rendell, J. C. Burant, S. S. Iyengar, 
 J. Tomasi, M. Cossi, J. M. Millam, M. Klene, C. Adamo, R. Cammi, 
 J. W. Ochterski, R. L. Martin, K. Morokuma, O. Farkas, 
 J. B. Foresman, and D. J. Fox, Gaussian, Inc., Wallingford CT, 2016.
 
 ******************************************
 Gaussian 16:  ES64L-G16RevA.03 25-Dec-2016
                18-Mar-2026 
 ******************************************
 %chk=bz-6-31+Gstar_SP.chk
 ------------------------------------------
 #p B3LYP/6-31+G* nosymm density=current sp
 ------------------------------------------
 1/30=1,38=1,172=1/1;
 2/12=2,15=1,17=6,18=5,40=1/2;
 3/5=1,6=6,7=11,11=2,25=1,30=1,74=-5/1,2,3;
 4//1;
 5/5=2,38=5/2;
 6/7=2,8=2,9=2,10=2,22=-1,28=1/1;
 99/5=1,9=1/99;
 Leave Link    1 at Wed Mar 18 10:31:41 2026, MaxMem=           0 cpu:               0.0 elap:               0.0
 (Enter /sw/cluster/pub/apps//g16/l101.exe)
 ----------------------
 Generated by extraQ₂
 ----------------------
 Symbolic Z-matrix:
 Charge =  0 Multiplicity = 1
 C                    -1.27287  -0.57968   0. 
 C                    -0.13441  -1.39218   0. 
 C                     1.13846  -0.81249   0. 
 C                     1.27287   0.57968   0. 
 C                     0.13441   1.39218   0. 
 C                    -1.13846   0.81249   0. 
 H                    -2.26249  -1.03037  0. 
 H                    -0.23892  -2.47456   0. 
 H                     2.02358  -1.44419   0. 
 H                     2.26249   1.03037   0. 
 H                     0.23892   2.47456   0. 
 H                    -2.02358   1.44419   0. 
 
 ITRead=  0  0  0  0  0  0  0  0  0  0  0  0
 MicOpt= -1 -1 -1 -1 -1 -1 -1 -1 -1 -1 -1 -1
 NAtoms=     12 NQM=       12 NQMF=       0 NMMI=      0 NMMIF=      0
                NMic=       0 NMicF=      0.
                    Isotopes and Nuclear Properties:
 (Nuclear quadrupole moments (NQMom) in fm**2, nuclear magnetic moments (NMagM)
  in nuclear magnetons)

  Atom         1           2           3           4           5           6           7           8           9          10
 IAtWgt=          12          12          12          12          12          12           1           1           1           1
 AtmWgt=  12.0000000  12.0000000  12.0000000  12.0000000  12.0000000  12.0000000   1.0078250   1.0078250   1.0078250   1.0078250
 NucSpn=           0           0           0           0           0           0           1           1           1           1
 AtZEff=  -0.0000000  -0.0000000  -0.0000000  -0.0000000  -0.0000000  -0.0000000  -0.0000000  -0.0000000  -0.0000000  -0.0000000
 NQMom=    0.0000000   0.0000000   0.0000000   0.0000000   0.0000000   0.0000000   0.0000000   0.0000000   0.0000000   0.0000000
 NMagM=    0.0000000   0.0000000   0.0000000   0.0000000   0.0000000   0.0000000   2.7928460   2.7928460   2.7928460   2.7928460
 AtZNuc=   6.0000000   6.0000000   6.0000000   6.0000000   6.0000000   6.0000000   1.0000000   1.0000000   1.0000000   1.0000000

  Atom        11          12
 IAtWgt=           1           1
 AtmWgt=   1.0078250   1.0078250
 NucSpn=           1           1
 AtZEff=  -0.0000000  -0.0000000
 NQMom=    0.0000000   0.0000000
 NMagM=    2.7928460   2.7928460
 AtZNuc=   1.0000000   1.0000000
 Leave Link  101 at Wed Mar 18 10:31:41 2026, MaxMem=   104857600 cpu:               0.0 elap:               0.0
 (Enter /sw/cluster/pub/apps//g16/l202.exe)
                          Input orientation:                          
 ---------------------------------------------------------------------
 Center     Atomic      Atomic             Coordinates (Angstroms)
 Number     Number       Type             X           Y           Z
 ---------------------------------------------------------------------
      1          6           0       -1.272869   -0.579684    0.000000
      2          6           0       -0.134413   -1.392175    0.000000
      3          6           0        1.138460   -0.812492    0.000000
      4          6           0        1.272869    0.579684    0.000000
      5          6           0        0.134413    1.392175    0.000000
      6          6           0       -1.138460    0.812492    0.000000
      7          1           0       -2.262491   -1.030370   -0.000001
      8          1           0       -0.238922   -2.474556    0.000000
      9          1           0        2.023578   -1.444185    0.000000
     10          1           0        2.262491    1.030370    0.000000
     11          1           0        0.238922    2.474556    0.000000
     12          1           0       -2.023578    1.444185    0.000000
 ---------------------------------------------------------------------
                    Distance matrix (angstroms):
                    1          2          3          4          5
     1  C    0.000000
     2  C    1.398651   0.000000
     3  C    2.422541   1.398656   0.000000
     4  C    2.797305   2.422534   1.398649   0.000000
     5  C    2.422534   2.797297   2.422533   1.398651   0.000000
     6  C    1.398649   2.422533   2.797309   2.422541   1.398656
     7  H    1.087414   2.158615   3.407923   3.884719   3.407913
     8  H    2.158607   1.087415   2.158619   3.407916   3.884712
     9  H    3.407921   2.158618   1.087414   2.158613   3.407915
    10  H    3.884719   3.407913   2.158607   1.087414   2.158615
    11  H    3.407916   3.884712   3.407910   2.158607   1.087415
    12  H    2.158613   3.407915   3.884723   3.407921   2.158618
                    6          7          8          9         10
     6  C    0.000000
     7  H    2.158607   0.000000
     8  H    3.407910   2.486062   0.000000
     9  H    3.884723   4.305999   2.486075   0.000000
    10  H    3.407923   4.972133   4.305993   2.486062   0.000000
    11  H    2.158619   4.305993   4.972127   4.305987   2.486062
    12  H    1.087414   2.486062   4.305987   4.972138   4.305999
                   11         12
    11  H    0.000000
    12  H    2.486075   0.000000
 Symmetry turned off by external request.
 Stoichiometry    C6H6
 Framework group  C2[X(C6H6)]
 Deg. of freedom    16
 Full point group                 C2      NOp   2
 Rotational constants (GHZ):           5.6713757           5.6713293           2.8356763
 Leave Link  202 at Wed Mar 18 10:31:41 2026, MaxMem=   104857600 cpu:               0.0 elap:               0.0
 (Enter /sw/cluster/pub/apps//g16/l301.exe)
 Standard basis: 6-31+G(d) (6D, 7F)
 Ernie: Thresh=  0.10000D-02 Tol=  0.10000D-05 Strict=F.
   126 basis functions,   216 primitive gaussians,   126 cartesian basis functions
    21 alpha electrons       21 beta electrons
       nuclear repulsion energy       202.9242009593 Hartrees.
 IExCor=  402 DFT=T Ex+Corr=B3LYP ExCW=0 ScaHFX=  0.200000
 ScaDFX=  0.800000  0.720000  1.000000  0.810000 ScalE2=  1.000000  1.000000
 IRadAn=      5 IRanWt=     -1 IRanGd=            0 ICorTp=0 IEmpDi=  4
 NAtoms=   12 NActive=   12 NUniq=   12 SFac= 1.00D+00 NAtFMM=   60 NAOKFM=F Big=F
 Integral buffers will be    131072 words long.
 Raffenetti 2 integral format.
 Two-electron integral symmetry is turned off.
 Leave Link  301 at Wed Mar 18 10:31:41 2026, MaxMem=   104857600 cpu:               0.0 elap:               0.0
 (Enter /sw/cluster/pub/apps//g16/l302.exe)
 NPDir=0 NMtPBC=     1 NCelOv=     1 NCel=       1 NClECP=     1 NCelD=      1
         NCelK=      1 NCelE2=     1 NClLst=     1 CellRange=     0.0.
 One-electron integrals computed using PRISM.
 NBasis=   126 RedAO= T EigKep=  6.53D-06  NBF=   126
 NBsUse=   126 1.00D-06 EigRej= -1.00D+00 NBFU=   126
 Precomputing XC quadrature grid using
 IXCGrd= 4 IRadAn=           5 IRanWt=          -1 IRanGd=           0 AccXCQ= 0.00D+00.
 Generated NRdTot=       0 NPtTot=           0 NUsed=           0 NTot=          32
 NSgBfM=   126   126   126   126   126 MxSgAt=    12 MxSgA2=    12.
 Leave Link  302 at Wed Mar 18 10:31:41 2026, MaxMem=   104857600 cpu:               0.1 elap:               0.1
 (Enter /sw/cluster/pub/apps//g16/l303.exe)
 DipDrv:  MaxL=1.
 Leave Link  303 at Wed Mar 18 10:31:42 2026, MaxMem=   104857600 cpu:               0.0 elap:               0.0
 (Enter /sw/cluster/pub/apps//g16/l401.exe)
 ExpMin= 4.38D-02 ExpMax= 3.05D+03 ExpMxC= 4.57D+02 IAcc=3 IRadAn=         5 AccDes= 0.00D+00
 Harris functional with IExCor=  402 and IRadAn=       5 diagonalized for initial guess.
 HarFok:  IExCor=  402 AccDes= 0.00D+00 IRadAn=         5 IDoV= 1 UseB2=F ITyADJ=14
 ICtDFT=  3500011 ScaDFX=  1.000000  1.000000  1.000000  1.000000
 FoFCou: FMM=F IPFlag=           0 FMFlag=      100000 FMFlg1=           0
         NFxFlg=           0 DoJE=T BraDBF=F KetDBF=T FulRan=T
         wScrn=  0.000000 ICntrl=       500 IOpCl=  0 I1Cent=   200000004 NGrid=           0
         NMat0=    1 NMatS0=      1 NMatT0=    0 NMatD0=    1 NMtDS0=    0 NMtDT0=    0
 Symmetry not used in FoFCou.
 Harris En= -232.279878619259    
 JPrj=0 DoOrth=F DoCkMO=F.
 Leave Link  401 at Wed Mar 18 10:31:42 2026, MaxMem=   104857600 cpu:               0.8 elap:               0.8
 (Enter /sw/cluster/pub/apps//g16/l502.exe)
 Keep R1 ints in memory in canonical form, NReq=33036678.
 FoFCou: FMM=F IPFlag=           0 FMFlag=           0 FMFlg1=           0
         NFxFlg=           0 DoJE=F BraDBF=F KetDBF=F FulRan=T
         wScrn=  0.000000 ICntrl=       600 IOpCl=  0 I1Cent=           0 NGrid=           0
         NMat0=    1 NMatS0=   8001 NMatT0=    0 NMatD0=    1 NMtDS0=    0 NMtDT0=    0
 Symmetry not used in FoFCou.
 Two-electron integral symmetry not used.
 Closed shell SCF:
 Using DIIS extrapolation, IDIIS=  1040.
 NGot=   104857600 LenX=    72811941 LenY=    72795624
 Requested convergence on RMS density matrix=1.00D-08 within 128 cycles.
 Requested convergence on MAX density matrix=1.00D-06.
 Requested convergence on             energy=1.00D-06.
 No special actions if energy rises.

 Cycle   1  Pass 1  IDiag  1:
 E= -232.105672586125    
 DIIS: error= 3.10D-02 at cycle   1 NSaved=   1.
 NSaved= 1 IEnMin= 1 EnMin= -232.105672586125     IErMin= 1 ErrMin= 3.10D-02
 ErrMax= 3.10D-02  0.00D+00 EMaxC= 1.00D-01 BMatC= 1.32D-01 BMatP= 1.32D-01
 IDIUse=3 WtCom= 6.90D-01 WtEn= 3.10D-01
 Coeff-Com:  0.100D+01
 Coeff-En:   0.100D+01
 Coeff:      0.100D+01
 Gap=     0.244 Goal=   None    Shift=    0.000
 GapD=    0.244 DampG=1.000 DampE=0.500 DampFc=0.5000 IDamp=-1.
 Damping current iteration by 5.00D-01
 RMSDP=1.08D-02 MaxDP=1.28D-01              OVMax= 1.83D-01

 Cycle   2  Pass 1  IDiag  1:
 E= -232.171806248352     Delta-E=       -0.066133662227 Rises=F Damp=T
 DIIS: error= 7.97D-03 at cycle   2 NSaved=   2.
 NSaved= 2 IEnMin= 2 EnMin= -232.171806248352     IErMin= 2 ErrMin= 7.97D-03
 ErrMax= 7.97D-03  0.00D+00 EMaxC= 1.00D-01 BMatC= 7.59D-03 BMatP= 1.32D-01
 IDIUse=3 WtCom= 9.20D-01 WtEn= 7.97D-02
 Coeff-Com:  0.540D-01 0.946D+00
 Coeff-En:   0.117D+00 0.883D+00
 Coeff:      0.590D-01 0.941D+00
 Gap=     0.270 Goal=   None    Shift=    0.000
 RMSDP=3.67D-03 MaxDP=7.83D-02 DE=-6.61D-02 OVMax= 1.04D-01

 Cycle   3  Pass 1  IDiag  1:
 E= -232.257594518859     Delta-E=       -0.085788270507 Rises=F Damp=F
 DIIS: error= 4.54D-03 at cycle   3 NSaved=   3.
 NSaved= 3 IEnMin= 3 EnMin= -232.257594518859     IErMin= 3 ErrMin= 4.54D-03
 ErrMax= 4.54D-03  0.00D+00 EMaxC= 1.00D-01 BMatC= 1.38D-03 BMatP= 7.59D-03
 IDIUse=3 WtCom= 9.55D-01 WtEn= 4.54D-02
 Coeff-Com: -0.384D-01 0.250D+00 0.788D+00
 Coeff-En:   0.000D+00 0.000D+00 0.100D+01
 Coeff:     -0.366D-01 0.239D+00 0.798D+00
 Gap=     0.242 Goal=   None    Shift=    0.000
 RMSDP=1.19D-03 MaxDP=1.94D-02 DE=-8.58D-02 OVMax= 8.91D-03

 Cycle   4  Pass 1  IDiag  1:
 E= -232.258890500981     Delta-E=       -0.001295982122 Rises=F Damp=F
 DIIS: error= 5.44D-04 at cycle   4 NSaved=   4.
 NSaved= 4 IEnMin= 4 EnMin= -232.258890500981     IErMin= 4 ErrMin= 5.44D-04
 ErrMax= 5.44D-04  0.00D+00 EMaxC= 1.00D-01 BMatC= 3.27D-05 BMatP= 1.38D-03
 IDIUse=3 WtCom= 9.95D-01 WtEn= 5.44D-03
 Coeff-Com: -0.123D-01 0.228D-01 0.175D+00 0.814D+00
 Coeff-En:   0.000D+00 0.000D+00 0.000D+00 0.100D+01
 Coeff:     -0.122D-01 0.227D-01 0.174D+00 0.815D+00
 Gap=     0.243 Goal=   None    Shift=    0.000
 RMSDP=1.81D-04 MaxDP=3.08D-03 DE=-1.30D-03 OVMax= 1.13D-03

 Cycle   5  Pass 1  IDiag  1:
 E= -232.258921974839     Delta-E=       -0.000031473858 Rises=F Damp=F
 DIIS: error= 1.60D-05 at cycle   5 NSaved=   5.
 NSaved= 5 IEnMin= 5 EnMin= -232.258921974839     IErMin= 5 ErrMin= 1.60D-05
 ErrMax= 1.60D-05  0.00D+00 EMaxC= 1.00D-01 BMatC= 4.32D-08 BMatP= 3.27D-05
 IDIUse=1 WtCom= 1.00D+00 WtEn= 0.00D+00
 Coeff-Com: -0.580D-03 0.292D-04 0.498D-02 0.511D-01 0.944D+00
 Coeff:     -0.580D-03 0.292D-04 0.498D-02 0.511D-01 0.944D+00
 Gap=     0.243 Goal=   None    Shift=    0.000
 RMSDP=1.36D-05 MaxDP=2.38D-04 DE=-3.15D-05 OVMax= 4.08D-05

 Cycle   6  Pass 1  IDiag  1:
 E= -232.258922013712     Delta-E=       -0.000000038873 Rises=F Damp=F
 DIIS: error= 2.35D-06 at cycle   6 NSaved=   6.
 NSaved= 6 IEnMin= 6 EnMin= -232.258922013712     IErMin= 6 ErrMin= 2.35D-06
 ErrMax= 2.35D-06  0.00D+00 EMaxC= 1.00D-01 BMatC= 4.63D-10 BMatP= 4.32D-08
 IDIUse=1 WtCom= 1.00D+00 WtEn= 0.00D+00
 Coeff-Com:  0.430D-04-0.871D-04-0.124D-02-0.383D-02-0.180D-02 0.101D+01
 Coeff:      0.430D-04-0.871D-04-0.124D-02-0.383D-02-0.180D-02 0.101D+01
 Gap=     0.243 Goal=   None    Shift=    0.000
 RMSDP=5.03D-07 MaxDP=4.82D-06 DE=-3.89D-08 OVMax= 7.13D-06

 Cycle   7  Pass 1  IDiag  1:
 E= -232.258922014244     Delta-E=       -0.000000000532 Rises=F Damp=F
 DIIS: error= 1.39D-07 at cycle   7 NSaved=   7.
 NSaved= 7 IEnMin= 7 EnMin= -232.258922014244     IErMin= 7 ErrMin= 1.39D-07
 ErrMax= 1.39D-07  0.00D+00 EMaxC= 1.00D-01 BMatC= 3.34D-12 BMatP= 4.63D-10
 IDIUse=1 WtCom= 1.00D+00 WtEn= 0.00D+00
 Coeff-Com:  0.169D-05-0.383D-05-0.104D-03-0.362D-03-0.203D-02 0.683D-01
 Coeff-Com:  0.934D+00
 Coeff:      0.169D-05-0.383D-05-0.104D-03-0.362D-03-0.203D-02 0.683D-01
 Coeff:      0.934D+00
 Gap=     0.243 Goal=   None    Shift=    0.000
 RMSDP=4.82D-08 MaxDP=6.24D-07 DE=-5.32D-10 OVMax= 9.59D-07

 Cycle   8  Pass 1  IDiag  1:
 E= -232.258922014247     Delta-E=       -0.000000000003 Rises=F Damp=F
 DIIS: error= 1.63D-07 at cycle   8 NSaved=   8.
 NSaved= 8 IEnMin= 8 EnMin= -232.258922014247     IErMin= 7 ErrMin= 1.39D-07
 ErrMax= 1.63D-07  0.00D+00 EMaxC= 1.00D-01 BMatC= 2.66D-12 BMatP= 3.34D-12
 IDIUse=1 WtCom= 1.00D+00 WtEn= 0.00D+00
 Coeff-Com: -0.527D-06 0.806D-06-0.196D-04-0.854D-04-0.115D-02 0.617D-02
 Coeff-Com:  0.554D+00 0.441D+00
 Coeff:     -0.527D-06 0.806D-06-0.196D-04-0.854D-04-0.115D-02 0.617D-02
 Coeff:      0.554D+00 0.441D+00
 Gap=     0.243 Goal=   None    Shift=    0.000
 RMSDP=1.43D-08 MaxDP=2.74D-07 DE=-3.01D-12 OVMax= 5.56D-07

 Cycle   9  Pass 1  IDiag  1:
 E= -232.258922014249     Delta-E=       -0.000000000002 Rises=F Damp=F
 DIIS: error= 4.92D-09 at cycle   9 NSaved=   9.
 NSaved= 9 IEnMin= 9 EnMin= -232.258922014249     IErMin= 9 ErrMin= 4.92D-09
 ErrMax= 4.92D-09  0.00D+00 EMaxC= 1.00D-01 BMatC= 2.85D-15 BMatP= 2.66D-12
 IDIUse=1 WtCom= 1.00D+00 WtEn= 0.00D+00
 Coeff-Com: -0.101D-06 0.303D-06 0.414D-05 0.998D-05 0.914D-05-0.290D-02
 Coeff-Com: -0.179D-01 0.161D-01 0.100D+01
 Coeff:     -0.101D-06 0.303D-06 0.414D-05 0.998D-05 0.914D-05-0.290D-02
 Coeff:     -0.179D-01 0.161D-01 0.100D+01
 Gap=     0.243 Goal=   None    Shift=    0.000
 RMSDP=1.41D-09 MaxDP=1.84D-08 DE=-1.71D-12 OVMax= 2.58D-08

 SCF Done:  E(RB3LYP) =  -232.258922014     A.U. after    9 cycles
            NFock=  9  Conv=0.14D-08     -V/T= 2.0103
 KE= 2.298888508831D+02 PE=-9.427653104008D+02 EE= 2.776933365441D+02
 Leave Link  502 at Wed Mar 18 10:31:50 2026, MaxMem=   104857600 cpu:               7.8 elap:               7.9
 (Enter /sw/cluster/pub/apps//g16/l601.exe)
 Copying SCF densities to generalized density rwf, IOpCl= 0 IROHF=0.

 **********************************************************************

            Population analysis using the SCF density.

 **********************************************************************

 Alpha  occ. eigenvalues --  -10.19876 -10.19849 -10.19849 -10.19794 -10.19794
 Alpha  occ. eigenvalues --  -10.19767  -0.85667  -0.74981  -0.74981  -0.60692
 Alpha  occ. eigenvalues --   -0.60692  -0.52737  -0.46769  -0.44849  -0.42662
 Alpha  occ. eigenvalues --   -0.42662  -0.36924  -0.34973  -0.34973  -0.25706
 Alpha  occ. eigenvalues --   -0.25706
 Alpha virt. eigenvalues --   -0.01445  -0.01445   0.00891   0.02620   0.02620
 Alpha virt. eigenvalues --    0.04595   0.04595   0.06681   0.07803   0.07954
 Alpha virt. eigenvalues --    0.09227   0.09227   0.09976   0.12675   0.14273
 Alpha virt. eigenvalues --    0.14273   0.14481   0.14481   0.15521   0.15521
 Alpha virt. eigenvalues --    0.19586   0.19679   0.19679   0.20507   0.21166
 Alpha virt. eigenvalues --    0.21167   0.23513   0.24368   0.24368   0.26632
 Alpha virt. eigenvalues --    0.27899   0.27899   0.32463   0.34764   0.34764
 Alpha virt. eigenvalues --    0.34895   0.34896   0.56534   0.57547   0.60102
 Alpha virt. eigenvalues --    0.62032   0.65912   0.71729   0.71729   0.72078
 Alpha virt. eigenvalues --    0.72079   0.74664   0.74664   0.76856   0.76856
 Alpha virt. eigenvalues --    0.80333   0.82791   0.89550   0.93106   0.93106
 Alpha virt. eigenvalues --    0.96412   0.96413   0.97514   1.03176   1.07387
 Alpha virt. eigenvalues --    1.07387   1.13607   1.13607   1.16985   1.16985
 Alpha virt. eigenvalues --    1.25088   1.30879   1.39154   1.43428   1.43429
 Alpha virt. eigenvalues --    1.47805   1.47805   1.50508   1.50508   1.74917
 Alpha virt. eigenvalues --    1.81567   1.88311   1.90351   1.98660   1.98661
 Alpha virt. eigenvalues --    2.10329   2.10329   2.14988   2.14989   2.16129
 Alpha virt. eigenvalues --    2.16129   2.30072   2.30072   2.31958   2.57125
 Alpha virt. eigenvalues --    2.57125   2.64221   2.69955   2.69956   2.73057
 Alpha virt. eigenvalues --    2.73058   2.82537   3.01768   3.39426   4.22098
 Alpha virt. eigenvalues --    4.23786   4.23786   4.37584   4.37584   4.67621
          Condensed to atoms (all electrons):
               1          2          3          4          5          6
     1  C    4.966419   0.548846  -0.079471  -0.018132  -0.079479   0.548840
     2  C    0.548846   4.966437   0.548840  -0.079479  -0.018137  -0.079474
     3  C   -0.079471   0.548840   4.966422   0.548840  -0.079474  -0.018131
     4  C   -0.018132  -0.079479   0.548840   4.966419   0.548846  -0.079471
     5  C   -0.079479  -0.018137  -0.079474   0.548846   4.966437   0.548840
     6  C    0.548840  -0.079474  -0.018131  -0.079471   0.548840   4.966422
     7  H    0.275274   0.001916   0.009109  -0.006371   0.009112   0.001916
     8  H    0.001915   0.275276   0.001915   0.009109  -0.006371   0.009111
     9  H    0.009110   0.001912   0.275282   0.001916   0.009110  -0.006372
    10  H   -0.006371   0.009112   0.001916   0.275274   0.001916   0.009109
    11  H    0.009109  -0.006371   0.009111   0.001915   0.275276   0.001915
    12  H    0.001916   0.009110  -0.006372   0.009110   0.001912   0.275282
               7          8          9         10         11         12
     1  C    0.275274   0.001915   0.009110  -0.006371   0.009109   0.001916
     2  C    0.001916   0.275276   0.001912   0.009112  -0.006371   0.009110
     3  C    0.009109   0.001915   0.275282   0.001916   0.009111  -0.006372
     4  C   -0.006371   0.009109   0.001916   0.275274   0.001915   0.009110
     5  C    0.009112  -0.006371   0.009110   0.001916   0.275276   0.001912
     6  C    0.001916   0.009111  -0.006372   0.009109   0.001915   0.275282
     7  H    0.541748  -0.005194  -0.000157   0.000015  -0.000157  -0.005194
     8  H   -0.005194   0.541748  -0.005194  -0.000157   0.000015  -0.000157
     9  H   -0.000157  -0.005194   0.541745  -0.005194  -0.000157   0.000015
    10  H    0.000015  -0.000157  -0.005194   0.541748  -0.005194  -0.000157
    11  H   -0.000157   0.000015  -0.000157  -0.005194   0.541748  -0.005194
    12  H   -0.005194  -0.000157   0.000015  -0.000157  -0.005194   0.541745
 Mulliken charges:
               1
     1  C   -0.177976
     2  C   -0.177989
     3  C   -0.177987
     4  C   -0.177976
     5  C   -0.177989
     6  C   -0.177987
     7  H    0.177983
     8  H    0.177983
     9  H    0.177985
    10  H    0.177983
    11  H    0.177983
    12  H    0.177985
 Sum of Mulliken charges =  -0.00000
 Mulliken charges with hydrogens summed into heavy atoms:
               1
     1  C    0.000008
     2  C   -0.000005
     3  C   -0.000002
     4  C    0.000008
     5  C   -0.000005
     6  C   -0.000002
 Electronic spatial extent (au):  <R**2>=            461.8562
 Charge=             -0.0000 electrons
 Dipole moment (field-independent basis, Debye):
    X=             -0.0000    Y=              0.0000    Z=             -0.0000  Tot=              0.0000
 Quadrupole moment (field-independent basis, Debye-Ang):
   XX=            -32.1982   YY=            -32.1984   ZZ=            -40.4361
   XY=             -0.0000   XZ=              0.0000   YZ=              0.0000
 Traceless Quadrupole moment (field-independent basis, Debye-Ang):
   XX=              2.7460   YY=              2.7459   ZZ=             -5.4918
   XY=             -0.0000   XZ=              0.0000   YZ=              0.0000
 Octapole moment (field-independent basis, Debye-Ang**2):
  XXX=             -0.0000  YYY=              0.0000  ZZZ=              0.0000  XYY=              0.0000
  XXY=              0.0000  XXZ=             -0.0000  XZZ=              0.0000  YZZ=              0.0000
  YYZ=             -0.0000  XYZ=             -0.0000
 Hexadecapole moment (field-independent basis, Debye-Ang**3):
 XXXX=           -280.8726 YYYY=           -280.8718 ZZZZ=            -52.2500 XXXY=             -0.0003
 XXXZ=              0.0000 YYYX=              0.0000 YYYZ=             -0.0000 ZZZX=             -0.0000
 ZZZY=             -0.0000 XXYY=            -93.6240 XXZZ=            -66.4171 YYZZ=            -66.4168
 XXYZ=              0.0000 YYXZ=              0.0000 ZZXY=             -0.0000
 N-N= 2.029242009593D+02 E-N=-9.427653105041D+02  KE= 2.298888508831D+02
 No NMR shielding tensors so no spin-rotation constants.
 Leave Link  601 at Wed Mar 18 10:31:50 2026, MaxMem=   104857600 cpu:               0.0 elap:               0.0
 (Enter /sw/cluster/pub/apps//g16/l9999.exe)
 1\1\GINC-N07\SP\RB3LYP\6-31+G(d)\C6H6\UNKNOWN\18-Mar-2026\0\\#p B3LYP/
 6-31+G* nosymm density=current sp\\Generated by extraQ₂\\0,1\C,0,-1.
 272869,-0.579684,0.\C,0,-0.134413,-1.392175,0.\C,0,1.13846,-0.812492,0
 .\C,0,1.272869,0.579684,0.\C,0,0.134413,1.392175,0.\C,0,-1.13846,0.812
 492,0.\H,0,-2.262491,-1.03037,-0.000001\H,0,-0.238922,-2.474556,0.\H,0
 ,2.023578,-1.444185,0.\H,0,2.262491,1.03037,0.\H,0,0.238922,2.474556,0
 .\H,0,-2.023578,1.444185,0.\\Version=ES64L-G16RevA.03\HF=-232.258922\R
 MSD=1.414e-09\Dipole=0.,0.,-0.0000003\Quadrupole=2.0415785,2.0414747,-
 4.0830532,-0.0000121,0.0000015,0.0000007\PG=C02 [X(C6H6)]\\@


 DESK:  A WASTEBASKET WITH DRAWERS.
 Job cpu time:       0 days  0 hours  0 minutes  8.8 seconds.
 Elapsed time:       0 days  0 hours  0 minutes  8.8 seconds.
 File lengths (MBytes):  RWF=     10 Int=      0 D2E=      0 Chk=      2 Scr=      1
 Normal termination of Gaussian 16 at Wed Mar 18 10:31:50 2026.
