 Entering Gaussian System, Link 0=g16
 Initial command:
 /sw/cluster/pub/apps//g16/l1.exe "/data/mmaximo/41235/Gau-1556841.inp" -scrdir="/data/mmaximo/41235/"
 Entering Link 1 = /sw/cluster/pub/apps//g16/l1.exe PID=   1556842.
  
 Copyright (c) 1988,1990,1992,1993,1995,1998,2003,2009,2016,
            Gaussian, Inc.  All Rights Reserved.
  
 This is part of the Gaussian(R) 16 program.  It is based on
 the Gaussian(R) 09 system (copyright 2009, Gaussian, Inc.),
 the Gaussian(R) 03 system (copyright 2003, Gaussian, Inc.),
 the Gaussian(R) 98 system (copyright 1998, Gaussian, Inc.),
 the Gaussian(R) 94 system (copyright 1995, Gaussian, Inc.),
 the Gaussian 92(TM) system (copyright 1992, Gaussian, Inc.),
 the Gaussian 90(TM) system (copyright 1990, Gaussian, Inc.),
 the Gaussian 88(TM) system (copyright 1988, Gaussian, Inc.),
 the Gaussian 86(TM) system (copyright 1986, Carnegie Mellon
 University), and the Gaussian 82(TM) system (copyright 1983,
 Carnegie Mellon University). Gaussian is a federally registered
 trademark of Gaussian, Inc.
  
 This software contains proprietary and confidential information,
 including trade secrets, belonging to Gaussian, Inc.
  
 This software is provided under written license and may be
 used, copied, transmitted, or stored only in accord with that
 written license.
  
 The following legend is applicable only to US Government
 contracts under FAR:
  
                    RESTRICTED RIGHTS LEGEND
  
 Use, reproduction and disclosure by the US Government is
 subject to restrictions as set forth in subparagraphs (a)
 and (c) of the Commercial Computer Software - Restricted
 Rights clause in FAR 52.227-19.
  
 Gaussian, Inc.
 340 Quinnipiac St., Bldg. 40, Wallingford CT 06492
  
  
 ---------------------------------------------------------------
 Warning -- This program may not be used in any manner that
 competes with the business of Gaussian, Inc. or will provide
 assistance to any competitor of Gaussian, Inc.  The licensee
 of this program is prohibited from giving any competitor of
 Gaussian, Inc. access to this program.  By using this program,
 the user acknowledges that Gaussian, Inc. is engaged in the
 business of creating and licensing software in the field of
 computational chemistry and represents and warrants to the
 licensee that it is not a competitor of Gaussian, Inc. and that
 it will not use this program in any manner prohibited above.
 ---------------------------------------------------------------
  

 Cite this work as:
 Gaussian 16, Revision A.03,
 M. J. Frisch, G. W. Trucks, H. B. Schlegel, G. E. Scuseria, 
 M. A. Robb, J. R. Cheeseman, G. Scalmani, V. Barone, 
 G. A. Petersson, H. Nakatsuji, X. Li, M. Caricato, A. V. Marenich, 
 J. Bloino, B. G. Janesko, R. Gomperts, B. Mennucci, H. P. Hratchian, 
 J. V. Ortiz, A. F. Izmaylov, J. L. Sonnenberg, D. Williams-Young, 
 F. Ding, F. Lipparini, F. Egidi, J. Goings, B. Peng, A. Petrone, 
 T. Henderson, D. Ranasinghe, V. G. Zakrzewski, J. Gao, N. Rega, 
 G. Zheng, W. Liang, M. Hada, M. Ehara, K. Toyota, R. Fukuda, 
 J. Hasegawa, M. Ishida, T. Nakajima, Y. Honda, O. Kitao, H. Nakai, 
 T. Vreven, K. Throssell, J. A. Montgomery, Jr., J. E. Peralta, 
 F. Ogliaro, M. J. Bearpark, J. J. Heyd, E. N. Brothers, K. N. Kudin, 
 V. N. Staroverov, T. A. Keith, R. Kobayashi, J. Normand, 
 K. Raghavachari, A. P. Rendell, J. C. Burant, S. S. Iyengar, 
 J. Tomasi, M. Cossi, J. M. Millam, M. Klene, C. Adamo, R. Cammi, 
 J. W. Ochterski, R. L. Martin, K. Morokuma, O. Farkas, 
 J. B. Foresman, and D. J. Fox, Gaussian, Inc., Wallingford CT, 2016.
 
 ******************************************
 Gaussian 16:  ES64L-G16RevA.03 25-Dec-2016
                11-Mar-2026 
 ******************************************
 %chk=f1-def2TZVP.chk
 --------------------------
 #P B3LYP/def2TZVP OPT FREQ
 --------------------------
 1/18=20,19=15,26=3,38=1/1,3;
 2/9=110,12=2,17=6,18=5,40=1/2;
 3/5=44,7=101,11=2,25=1,30=1,71=1,74=-5/1,2,3;
 4//1;
 5/5=2,38=5/2;
 6/7=2,8=2,9=2,10=2,28=1/1;
 7//1,2,3,16;
 1/18=20,19=15,26=3/3(2);
 2/9=110/2;
 99//99;
 2/9=110/2;
 3/5=44,7=101,11=2,25=1,30=1,71=1,74=-5/1,2,3;
 4/5=5,16=3,69=1/1;
 5/5=2,38=5/2;
 7//1,2,3,16;
 1/18=20,19=15,26=3/3(-5);
 2/9=110/2;
 6/7=2,8=2,9=2,10=2,19=2,28=1/1;
 99/9=1/99;
 Leave Link    1 at Wed Mar 11 11:58:08 2026, MaxMem=           0 cpu:               0.0 elap:               0.0
 (Enter /sw/cluster/pub/apps//g16/l101.exe)
 --------------------
 OPT FREQ F1 def2TZVP
 --------------------
 Symbolic Z-matrix:
 Charge =  0 Multiplicity = 1
 C                     0.00976   0.00468   0.0399 
 C                     1.53762  -0.04442   0.05212 
 C                     2.08255   1.25515   0.03278 
 C                     0.978     2.22309   0.00747 
 C                    -0.23896   1.51251   0.01131 
 C                    -1.44928   2.19661  -0.00993 
 C                    -1.44228   3.59641  -0.03495 
 C                    -0.23374   4.30058  -0.03862 
 C                     0.9853    3.61916  -0.01755 
 H                     1.92176   4.17143  -0.02068 
 H                    -0.24329   5.38719  -0.05813 
 H                    -2.38324   4.13996  -0.05169 
 H                    -2.39456   1.65842  -0.00744 
 C                     3.46572   1.44614   0.03935 
 C                     4.30154   0.32743   0.06541 
 C                     3.76206  -0.96297   0.08471 
 C                     2.37513  -1.15407   0.07812 
 H                     1.96617  -2.16185   0.09321 
 H                     4.42468  -1.82418   0.10491 
 H                     5.38017   0.46062   0.07078 
 H                     3.88965   2.44711   0.02446 
 C                    -0.58466  -0.64101   1.312 
 H                    -0.18958  -0.16733   2.2163 
 H                    -1.67634  -0.54198   1.32268 
 H                    -0.34382  -1.70967   1.35207 
 C                    -0.56537  -0.68566  -1.21755 
 H                    -0.3249   -1.75522  -1.21604 
 H                    -1.65668  -0.5866   -1.24882 
 H                    -0.15575  -0.24451  -2.13179 
 
 ITRead=  0  0  0  0  0  0  0  0  0  0  0  0  0  0  0  0  0  0  0  0
 ITRead=  0  0  0  0  0  0  0  0  0
 MicOpt= -1 -1 -1 -1 -1 -1 -1 -1 -1 -1 -1 -1 -1 -1 -1 -1 -1 -1 -1 -1
 MicOpt= -1 -1 -1 -1 -1 -1 -1 -1 -1
 NAtoms=     29 NQM=       29 NQMF=       0 NMMI=      0 NMMIF=      0
                NMic=       0 NMicF=      0.
                    Isotopes and Nuclear Properties:
 (Nuclear quadrupole moments (NQMom) in fm**2, nuclear magnetic moments (NMagM)
  in nuclear magnetons)

  Atom         1           2           3           4           5           6           7           8           9          10
 IAtWgt=          12          12          12          12          12          12          12          12          12           1
 AtmWgt=  12.0000000  12.0000000  12.0000000  12.0000000  12.0000000  12.0000000  12.0000000  12.0000000  12.0000000   1.0078250
 NucSpn=           0           0           0           0           0           0           0           0           0           1
 AtZEff=  -0.0000000  -0.0000000  -0.0000000  -0.0000000  -0.0000000  -0.0000000  -0.0000000  -0.0000000  -0.0000000  -0.0000000
 NQMom=    0.0000000   0.0000000   0.0000000   0.0000000   0.0000000   0.0000000   0.0000000   0.0000000   0.0000000   0.0000000
 NMagM=    0.0000000   0.0000000   0.0000000   0.0000000   0.0000000   0.0000000   0.0000000   0.0000000   0.0000000   2.7928460
 AtZNuc=   6.0000000   6.0000000   6.0000000   6.0000000   6.0000000   6.0000000   6.0000000   6.0000000   6.0000000   1.0000000

  Atom        11          12          13          14          15          16          17          18          19          20
 IAtWgt=           1           1           1          12          12          12          12           1           1           1
 AtmWgt=   1.0078250   1.0078250   1.0078250  12.0000000  12.0000000  12.0000000  12.0000000   1.0078250   1.0078250   1.0078250
 NucSpn=           1           1           1           0           0           0           0           1           1           1
 AtZEff=  -0.0000000  -0.0000000  -0.0000000  -0.0000000  -0.0000000  -0.0000000  -0.0000000  -0.0000000  -0.0000000  -0.0000000
 NQMom=    0.0000000   0.0000000   0.0000000   0.0000000   0.0000000   0.0000000   0.0000000   0.0000000   0.0000000   0.0000000
 NMagM=    2.7928460   2.7928460   2.7928460   0.0000000   0.0000000   0.0000000   0.0000000   2.7928460   2.7928460   2.7928460
 AtZNuc=   1.0000000   1.0000000   1.0000000   6.0000000   6.0000000   6.0000000   6.0000000   1.0000000   1.0000000   1.0000000

  Atom        21          22          23          24          25          26          27          28          29
 IAtWgt=           1          12           1           1           1          12           1           1           1
 AtmWgt=   1.0078250  12.0000000   1.0078250   1.0078250   1.0078250  12.0000000   1.0078250   1.0078250   1.0078250
 NucSpn=           1           0           1           1           1           0           1           1           1
 AtZEff=  -0.0000000  -0.0000000  -0.0000000  -0.0000000  -0.0000000  -0.0000000  -0.0000000  -0.0000000  -0.0000000
 NQMom=    0.0000000   0.0000000   0.0000000   0.0000000   0.0000000   0.0000000   0.0000000   0.0000000   0.0000000
 NMagM=    2.7928460   0.0000000   2.7928460   2.7928460   2.7928460   0.0000000   2.7928460   2.7928460   2.7928460
 AtZNuc=   1.0000000   6.0000000   1.0000000   1.0000000   1.0000000   6.0000000   1.0000000   1.0000000   1.0000000
 Leave Link  101 at Wed Mar 11 11:58:08 2026, MaxMem=   104857600 cpu:               0.0 elap:               0.0
 (Enter /sw/cluster/pub/apps//g16/l103.exe)

 GradGradGradGradGradGradGradGradGradGradGradGradGradGradGradGradGradGrad
 Berny optimization.
 Initialization pass.
                           ----------------------------
                           !    Initial Parameters    !
                           ! (Angstroms and Degrees)  !
 --------------------------                            --------------------------
 ! Name  Definition              Value          Derivative Info.                !
 --------------------------------------------------------------------------------
 ! R1    R(1,2)                  1.5287         estimate D2E/DX2                !
 ! R2    R(1,5)                  1.5285         estimate D2E/DX2                !
 ! R3    R(1,22)                 1.5455         estimate D2E/DX2                !
 ! R4    R(1,26)                 1.5455         estimate D2E/DX2                !
 ! R5    R(2,3)                  1.4093         estimate D2E/DX2                !
 ! R6    R(2,17)                 1.3905         estimate D2E/DX2                !
 ! R7    R(3,4)                  1.4689         estimate D2E/DX2                !
 ! R8    R(3,14)                 1.3963         estimate D2E/DX2                !
 ! R9    R(4,5)                  1.4092         estimate D2E/DX2                !
 ! R10   R(4,9)                  1.3963         estimate D2E/DX2                !
 ! R11   R(5,6)                  1.3904         estimate D2E/DX2                !
 ! R12   R(6,7)                  1.4            estimate D2E/DX2                !
 ! R13   R(6,13)                 1.0878         estimate D2E/DX2                !
 ! R14   R(7,8)                  1.3987         estimate D2E/DX2                !
 ! R15   R(7,12)                 1.0868         estimate D2E/DX2                !
 ! R16   R(8,9)                  1.3967         estimate D2E/DX2                !
 ! R17   R(8,11)                 1.0868         estimate D2E/DX2                !
 ! R18   R(9,10)                 1.0872         estimate D2E/DX2                !
 ! R19   R(14,15)                1.3967         estimate D2E/DX2                !
 ! R20   R(14,21)                1.0871         estimate D2E/DX2                !
 ! R21   R(15,16)                1.3988         estimate D2E/DX2                !
 ! R22   R(15,20)                1.0868         estimate D2E/DX2                !
 ! R23   R(16,17)                1.4            estimate D2E/DX2                !
 ! R24   R(16,19)                1.0868         estimate D2E/DX2                !
 ! R25   R(17,18)                1.0877         estimate D2E/DX2                !
 ! R26   R(22,23)                1.0946         estimate D2E/DX2                !
 ! R27   R(22,24)                1.0962         estimate D2E/DX2                !
 ! R28   R(22,25)                1.0962         estimate D2E/DX2                !
 ! R29   R(26,27)                1.0963         estimate D2E/DX2                !
 ! R30   R(26,28)                1.0962         estimate D2E/DX2                !
 ! R31   R(26,29)                1.0946         estimate D2E/DX2                !
 ! A1    A(2,1,5)              101.2135         estimate D2E/DX2                !
 ! A2    A(2,1,22)             111.371          estimate D2E/DX2                !
 ! A3    A(2,1,26)             111.3517         estimate D2E/DX2                !
 ! A4    A(5,1,22)             111.4048         estimate D2E/DX2                !
 ! A5    A(5,1,26)             111.3999         estimate D2E/DX2                !
 ! A6    A(22,1,26)            109.8749         estimate D2E/DX2                !
 ! A7    A(1,2,3)              110.8991         estimate D2E/DX2                !
 ! A8    A(1,2,17)             128.8858         estimate D2E/DX2                !
 ! A9    A(3,2,17)             120.2151         estimate D2E/DX2                !
 ! A10   A(2,3,4)              108.4892         estimate D2E/DX2                !
 ! A11   A(2,3,14)             120.603          estimate D2E/DX2                !
 ! A12   A(4,3,14)             130.9078         estimate D2E/DX2                !
 ! A13   A(3,4,5)              108.4854         estimate D2E/DX2                !
 ! A14   A(3,4,9)              130.9374         estimate D2E/DX2                !
 ! A15   A(5,4,9)              120.5772         estimate D2E/DX2                !
 ! A16   A(1,5,4)              110.9129         estimate D2E/DX2                !
 ! A17   A(1,5,6)              128.8498         estimate D2E/DX2                !
 ! A18   A(4,5,6)              120.2373         estimate D2E/DX2                !
 ! A19   A(5,6,7)              119.1983         estimate D2E/DX2                !
 ! A20   A(5,6,13)             120.863          estimate D2E/DX2                !
 ! A21   A(7,6,13)             119.9387         estimate D2E/DX2                !
 ! A22   A(6,7,8)              120.5117         estimate D2E/DX2                !
 ! A23   A(6,7,12)             119.736          estimate D2E/DX2                !
 ! A24   A(8,7,12)             119.7522         estimate D2E/DX2                !
 ! A25   A(7,8,9)              120.5617         estimate D2E/DX2                !
 ! A26   A(7,8,11)             119.7218         estimate D2E/DX2                !
 ! A27   A(9,8,11)             119.7165         estimate D2E/DX2                !
 ! A28   A(4,9,8)              118.9138         estimate D2E/DX2                !
 ! A29   A(4,9,10)             120.8268         estimate D2E/DX2                !
 ! A30   A(8,9,10)             120.2594         estimate D2E/DX2                !
 ! A31   A(3,14,15)            118.9025         estimate D2E/DX2                !
 ! A32   A(3,14,21)            120.8075         estimate D2E/DX2                !
 ! A33   A(15,14,21)           120.29           estimate D2E/DX2                !
 ! A34   A(14,15,16)           120.5553         estimate D2E/DX2                !
 ! A35   A(14,15,20)           119.725          estimate D2E/DX2                !
 ! A36   A(16,15,20)           119.7197         estimate D2E/DX2                !
 ! A37   A(15,16,17)           120.5257         estimate D2E/DX2                !
 ! A38   A(15,16,19)           119.7451         estimate D2E/DX2                !
 ! A39   A(17,16,19)           119.7292         estimate D2E/DX2                !
 ! A40   A(2,17,16)            119.1984         estimate D2E/DX2                !
 ! A41   A(2,17,18)            120.8768         estimate D2E/DX2                !
 ! A42   A(16,17,18)           119.9248         estimate D2E/DX2                !
 ! A43   A(1,22,23)            111.1243         estimate D2E/DX2                !
 ! A44   A(1,22,24)            110.6894         estimate D2E/DX2                !
 ! A45   A(1,22,25)            110.6637         estimate D2E/DX2                !
 ! A46   A(23,22,24)           108.1974         estimate D2E/DX2                !
 ! A47   A(23,22,25)           108.2021         estimate D2E/DX2                !
 ! A48   A(24,22,25)           107.8485         estimate D2E/DX2                !
 ! A49   A(1,26,27)            110.6735         estimate D2E/DX2                !
 ! A50   A(1,26,28)            110.6897         estimate D2E/DX2                !
 ! A51   A(1,26,29)            111.1168         estimate D2E/DX2                !
 ! A52   A(27,26,28)           107.8525         estimate D2E/DX2                !
 ! A53   A(27,26,29)           108.1958         estimate D2E/DX2                !
 ! A54   A(28,26,29)           108.197          estimate D2E/DX2                !
 ! D1    D(5,1,2,3)             -0.015          estimate D2E/DX2                !
 ! D2    D(5,1,2,17)           179.9944         estimate D2E/DX2                !
 ! D3    D(22,1,2,3)          -118.5117         estimate D2E/DX2                !
 ! D4    D(22,1,2,17)           61.4978         estimate D2E/DX2                !
 ! D5    D(26,1,2,3)           118.4674         estimate D2E/DX2                !
 ! D6    D(26,1,2,17)          -61.5231         estimate D2E/DX2                !
 ! D7    D(2,1,5,4)              0.0126         estimate D2E/DX2                !
 ! D8    D(2,1,5,6)            179.9938         estimate D2E/DX2                !
 ! D9    D(22,1,5,4)           118.4848         estimate D2E/DX2                !
 ! D10   D(22,1,5,6)           -61.534          estimate D2E/DX2                !
 ! D11   D(26,1,5,4)          -118.435          estimate D2E/DX2                !
 ! D12   D(26,1,5,6)            61.5461         estimate D2E/DX2                !
 ! D13   D(2,1,22,23)           56.0788         estimate D2E/DX2                !
 ! D14   D(2,1,22,24)          176.3291         estimate D2E/DX2                !
 ! D15   D(2,1,22,25)          -64.1602         estimate D2E/DX2                !
 ! D16   D(5,1,22,23)          -56.1116         estimate D2E/DX2                !
 ! D17   D(5,1,22,24)           64.1387         estimate D2E/DX2                !
 ! D18   D(5,1,22,25)         -176.3506         estimate D2E/DX2                !
 ! D19   D(26,1,22,23)         179.9409         estimate D2E/DX2                !
 ! D20   D(26,1,22,24)         -59.8089         estimate D2E/DX2                !
 ! D21   D(26,1,22,25)          59.7019         estimate D2E/DX2                !
 ! D22   D(2,1,26,27)           64.2096         estimate D2E/DX2                !
 ! D23   D(2,1,26,28)         -176.268          estimate D2E/DX2                !
 ! D24   D(2,1,26,29)          -56.023          estimate D2E/DX2                !
 ! D25   D(5,1,26,27)          176.3859         estimate D2E/DX2                !
 ! D26   D(5,1,26,28)          -64.0917         estimate D2E/DX2                !
 ! D27   D(5,1,26,29)           56.1532         estimate D2E/DX2                !
 ! D28   D(22,1,26,27)         -59.6637         estimate D2E/DX2                !
 ! D29   D(22,1,26,28)          59.8587         estimate D2E/DX2                !
 ! D30   D(22,1,26,29)        -179.8964         estimate D2E/DX2                !
 ! D31   D(1,2,3,4)              0.0124         estimate D2E/DX2                !
 ! D32   D(1,2,3,14)          -179.9878         estimate D2E/DX2                !
 ! D33   D(17,2,3,4)          -179.9962         estimate D2E/DX2                !
 ! D34   D(17,2,3,14)            0.0036         estimate D2E/DX2                !
 ! D35   D(1,2,17,16)          179.9854         estimate D2E/DX2                !
 ! D36   D(1,2,17,18)           -0.0099         estimate D2E/DX2                !
 ! D37   D(3,2,17,16)           -0.0043         estimate D2E/DX2                !
 ! D38   D(3,2,17,18)         -179.9996         estimate D2E/DX2                !
 ! D39   D(2,3,4,5)             -0.0039         estimate D2E/DX2                !
 ! D40   D(2,3,4,9)           -179.9964         estimate D2E/DX2                !
 ! D41   D(14,3,4,5)           179.9964         estimate D2E/DX2                !
 ! D42   D(14,3,4,9)             0.0038         estimate D2E/DX2                !
 ! D43   D(2,3,14,15)            0.0011         estimate D2E/DX2                !
 ! D44   D(2,3,14,21)          179.9985         estimate D2E/DX2                !
 ! D45   D(4,3,14,15)         -179.9992         estimate D2E/DX2                !
 ! D46   D(4,3,14,21)           -0.0017         estimate D2E/DX2                !
 ! D47   D(3,4,5,1)             -0.0061         estimate D2E/DX2                !
 ! D48   D(3,4,5,6)           -179.9891         estimate D2E/DX2                !
 ! D49   D(9,4,5,1)            179.9873         estimate D2E/DX2                !
 ! D50   D(9,4,5,6)              0.0043         estimate D2E/DX2                !
 ! D51   D(3,4,9,8)            179.9962         estimate D2E/DX2                !
 ! D52   D(3,4,9,10)            -0.0042         estimate D2E/DX2                !
 ! D53   D(5,4,9,8)              0.0045         estimate D2E/DX2                !
 ! D54   D(5,4,9,10)          -179.996          estimate D2E/DX2                !
 ! D55   D(1,5,6,7)           -179.9871         estimate D2E/DX2                !
 ! D56   D(1,5,6,13)             0.0049         estimate D2E/DX2                !
 ! D57   D(4,5,6,7)             -0.0075         estimate D2E/DX2                !
 ! D58   D(4,5,6,13)           179.9845         estimate D2E/DX2                !
 ! D59   D(5,6,7,8)              0.002          estimate D2E/DX2                !
 ! D60   D(5,6,7,12)           179.9989         estimate D2E/DX2                !
 ! D61   D(13,6,7,8)          -179.9901         estimate D2E/DX2                !
 ! D62   D(13,6,7,12)            0.0068         estimate D2E/DX2                !
 ! D63   D(6,7,8,9)              0.0069         estimate D2E/DX2                !
 ! D64   D(6,7,8,11)          -179.9985         estimate D2E/DX2                !
 ! D65   D(12,7,8,9)          -179.9901         estimate D2E/DX2                !
 ! D66   D(12,7,8,11)            0.0046         estimate D2E/DX2                !
 ! D67   D(7,8,9,4)             -0.01           estimate D2E/DX2                !
 ! D68   D(7,8,9,10)           179.9904         estimate D2E/DX2                !
 ! D69   D(11,8,9,4)           179.9953         estimate D2E/DX2                !
 ! D70   D(11,8,9,10)           -0.0042         estimate D2E/DX2                !
 ! D71   D(3,14,15,16)          -0.005          estimate D2E/DX2                !
 ! D72   D(3,14,15,20)         179.998          estimate D2E/DX2                !
 ! D73   D(21,14,15,16)        179.9975         estimate D2E/DX2                !
 ! D74   D(21,14,15,20)          0.0005         estimate D2E/DX2                !
 ! D75   D(14,15,16,17)          0.0043         estimate D2E/DX2                !
 ! D76   D(14,15,16,19)       -179.9998         estimate D2E/DX2                !
 ! D77   D(20,15,16,17)       -179.9987         estimate D2E/DX2                !
 ! D78   D(20,15,16,19)         -0.0028         estimate D2E/DX2                !
 ! D79   D(15,16,17,2)           0.0004         estimate D2E/DX2                !
 ! D80   D(15,16,17,18)        179.9958         estimate D2E/DX2                !
 ! D81   D(19,16,17,2)        -179.9955         estimate D2E/DX2                !
 ! D82   D(19,16,17,18)         -0.0001         estimate D2E/DX2                !
 --------------------------------------------------------------------------------
 Trust Radius=3.00D-01 FncErr=1.00D-07 GrdErr=1.00D-06 EigMax=2.50D+02 EigMin=1.00D-04
 Number of steps in this run=    174 maximum allowed number of steps=    174.
 GradGradGradGradGradGradGradGradGradGradGradGradGradGradGradGradGradGrad

 Leave Link  103 at Wed Mar 11 11:58:08 2026, MaxMem=   104857600 cpu:               0.0 elap:               0.0
 (Enter /sw/cluster/pub/apps//g16/l202.exe)
                          Input orientation:                          
 ---------------------------------------------------------------------
 Center     Atomic      Atomic             Coordinates (Angstroms)
 Number     Number       Type             X           Y           Z
 ---------------------------------------------------------------------
      1          6           0        0.009757    0.004675    0.039896
      2          6           0        1.537621   -0.044423    0.052119
      3          6           0        2.082553    1.255147    0.032779
      4          6           0        0.978003    2.223085    0.007465
      5          6           0       -0.238959    1.512514    0.011312
      6          6           0       -1.449284    2.196606   -0.009929
      7          6           0       -1.442284    3.596408   -0.034947
      8          6           0       -0.233743    4.300575   -0.038624
      9          6           0        0.985297    3.619162   -0.017553
     10          1           0        1.921761    4.171435   -0.020677
     11          1           0       -0.243293    5.387194   -0.058130
     12          1           0       -2.383239    4.139964   -0.051688
     13          1           0       -2.394560    1.658417   -0.007441
     14          6           0        3.465719    1.446136    0.039353
     15          6           0        4.301536    0.327427    0.065408
     16          6           0        3.762060   -0.962970    0.084706
     17          6           0        2.375132   -1.154071    0.078123
     18          1           0        1.966173   -2.161849    0.093214
     19          1           0        4.424676   -1.824180    0.104905
     20          1           0        5.380166    0.460619    0.070783
     21          1           0        3.889652    2.447112    0.024463
     22          6           0       -0.584656   -0.641007    1.312001
     23          1           0       -0.189582   -0.167328    2.216301
     24          1           0       -1.676341   -0.541982    1.322677
     25          1           0       -0.343820   -1.709673    1.352070
     26          6           0       -0.565371   -0.685656   -1.217553
     27          1           0       -0.324895   -1.755220   -1.216038
     28          1           0       -1.656675   -0.586603   -1.248819
     29          1           0       -0.155754   -0.244505   -2.131788
 ---------------------------------------------------------------------
                    Distance matrix (angstroms):
                    1          2          3          4          5
     1  C    0.000000
     2  C    1.528702   0.000000
     3  C    2.420788   1.409329   0.000000
     4  C    2.420722   2.335971   1.468869   0.000000
     5  C    1.528481   2.362616   2.335833   1.409228   0.000000
     6  C    2.633599   3.734657   3.655413   2.427494   1.390439
     7  C    3.874864   4.705642   4.232088   2.783093   2.406812
     8  C    4.303512   4.693077   3.826873   2.405497   2.788513
     9  C    3.744262   3.705640   2.606736   1.396320   2.436719
    10  H    4.584901   4.233949   2.921206   2.165072   3.426309
    11  H    5.389356   5.717191   4.742535   3.392264   3.875305
    12  H    4.778643   5.735243   5.317199   3.869867   3.391961
    13  H    2.918535   4.285471   4.495418   3.419540   2.160615
    14  C    3.744527   2.437107   1.396305   2.606415   3.705379
    15  C    4.303973   2.788848   2.405330   3.826584   4.692915
    16  C    3.875322   2.406848   2.782711   4.231771   4.705482
    17  C    2.634227   1.390475   2.427342   3.655427   3.734784
    18  H    2.919629   2.160750   3.419511   4.495718   4.286054
    19  H    4.779168   3.391962   3.869496   5.316898   5.735135
    20  H    5.389817   3.875638   3.392193   4.742292   5.717043
    21  H    4.584683   3.426450   2.164823   2.920304   4.233093
    22  C    1.545472   2.539148   3.513661   3.513793   2.539478
    23  H    2.192273   2.771646   3.457427   3.457786   2.772415
    24  H    2.187987   3.491623   4.361513   4.052273   2.829611
    25  H    2.187649   2.828913   4.051910   4.361395   3.491578
    26  C    1.545480   2.538862   3.513054   3.513324   2.539410
    27  H    2.187828   2.829137   4.051871   4.361355   3.491684
    28  H    2.188011   3.491407   4.360775   4.051435   2.829159
    29  H    2.192190   2.770740   3.456056   3.456994   2.772529
                    6          7          8          9         10
     6  C    0.000000
     7  C    1.400043   0.000000
     8  C    2.430031   1.398727   0.000000
     9  C    2.819736   2.427750   1.396720   0.000000
    10  H    3.906918   3.412867   2.159444   1.087189   0.000000
    11  H    3.411245   2.155233   1.086836   2.153373   2.483331
    12  H    2.156538   1.086798   2.155528   3.408729   4.305227
    13  H    1.087750   2.159490   3.413371   3.907436   4.994603
    14  C    4.972212   5.358888   4.673320   3.298147   3.132837
    15  C    6.047432   6.609673   6.030380   4.673312   4.521851
    16  C    6.095079   6.920075   6.609581   5.358806   5.455265
    17  C    5.085366   6.095285   6.047563   4.972379   5.345682
    18  H    5.538241   6.692647   6.827879   5.864680   6.334464
    19  H    7.119221   7.988964   7.696369   6.440054   6.498289
    20  H    7.047095   7.509339   6.802441   5.412862   5.073370
    21  H    5.344920   5.454718   4.521249   3.132211   2.616854
    22  C    3.247634   4.528298   5.134838   4.730910   5.587285
    23  H    3.482978   4.561040   5.004877   4.550599   5.318525
    24  H    3.054056   4.361674   5.233029   5.118169   6.080069
    25  H    4.282068   5.593294   6.170027   5.660292   6.450172
    26  C    3.247629   4.528091   5.134428   4.730331   5.586562
    27  H    4.282041   5.593162   6.169868   5.660119   6.449930
    28  H    3.053541   4.360852   5.231999   5.117078   6.078854
    29  H    3.483465   4.561197   5.004515   4.549715   5.317272
                   11         12         13         14         15
    11  H    0.000000
    12  H    2.476892   0.000000
    13  H    4.305148   2.481967   0.000000
    14  C    5.412782   6.440133   5.864309   0.000000
    15  C    6.802351   7.696452   6.827484   1.396703   0.000000
    16  C    7.509184   7.988945   6.692095   2.427688   1.398761
    17  C    7.047188   7.119393   5.537813   2.819922   2.430233
    18  H    7.867191   7.658409   5.798324   3.907569   3.413384
    19  H    8.591882   9.052251   7.657877   3.408645   2.155490
    20  H    7.477369   8.592033   7.866842   2.153448   1.086836
    21  H    5.072685   6.497746   6.333591   1.087149   2.159720
    22  C    6.191365   5.286987   3.209989   4.730892   5.134855
    23  H    6.002386   5.339351   3.624955   4.550120   5.004125
    24  H    6.254229   4.930436   2.669608   5.660416   6.170220
    25  H    7.236317   6.352009   4.171071   5.118100   5.233030
    26  C    6.190921   5.286823   3.210137   4.730120   5.134112
    27  H    7.236124   6.351825   4.170988   5.117953   5.232914
    28  H    6.253130   4.929650   2.669384   5.659535   6.169516
    29  H    6.001979   5.339670   3.625771   4.548317   5.002221
                   16         17         18         19         20
    16  C    0.000000
    17  C    1.400047   0.000000
    18  H    2.159304   1.087700   0.000000
    19  H    1.086808   2.156477   2.481611   0.000000
    20  H    2.155242   3.411379   4.305019   2.476779   0.000000
    21  H    3.413000   3.907067   4.994699   4.305422   2.483935
    22  C    4.528118   3.247466   3.210161   5.286812   6.191389
    23  H    4.559848   3.481842   3.623933   5.338027   6.001638
    24  H    5.593390   4.282289   4.171745   6.352118   7.236487
    25  H    4.361425   3.053577   2.669316   4.930222   6.254269
    26  C    4.527631   3.247268   3.210291   5.286369   6.190571
    27  H    4.361513   3.053912   2.669921   4.930322   6.254084
    28  H    5.593088   4.282320   4.172227   6.351928   7.235686
    29  H    4.558323   3.480862   3.623454   5.336526   5.999577
                   21         22         23         24         25
    21  H    0.000000
    22  C    5.586919   0.000000
    23  H    5.317857   1.094630   0.000000
    24  H    6.449831   1.096219   1.774650   0.000000
    25  H    6.079777   1.096200   1.774687   1.771998   0.000000
    26  C    5.586060   2.530022   3.493027   2.776268   2.775006
    27  H    6.079543   2.774874   3.784265   3.121446   2.568582
    28  H    6.448753   2.776686   3.786187   2.571958   3.122419
    29  H    5.315969   3.492972   4.348905   3.786028   3.784092
                   26         27         28         29
    26  C    0.000000
    27  H    1.096266   0.000000
    28  H    1.096236   1.772111   0.000000
    29  H    1.094635   1.774674   1.774663   0.000000
 Stoichiometry    C15H14
 Framework group  C1[X(C15H14)]
 Deg. of freedom    81
 Full point group                 C1      NOp   1
 Largest Abelian subgroup         C1      NOp   1
 Largest concise Abelian subgroup C1      NOp   1
                         Standard orientation:                         
 ---------------------------------------------------------------------
 Center     Atomic      Atomic             Coordinates (Angstroms)
 Number     Number       Type             X           Y           Z
 ---------------------------------------------------------------------
      1          6           0       -0.000255    1.416281   -0.000029
      2          6           0        1.181301    0.446305   -0.000200
      3          6           0        0.734475   -0.890315   -0.000099
      4          6           0       -0.734394   -0.890434   -0.000161
      5          6           0       -1.181315    0.446048   -0.000211
      6          6           0       -2.542631    0.729135   -0.000047
      7          6           0       -3.460138   -0.328363    0.000006
      8          6           0       -3.015327   -1.654477   -0.000062
      9          6           0       -1.649225   -1.945324   -0.000040
     10          1           0       -1.308930   -2.977884    0.000064
     11          1           0       -3.738826   -2.465502   -0.000045
     12          1           0       -4.526202   -0.117091    0.000151
     13          1           0       -2.898844    1.756906    0.000169
     14          6           0        1.648922   -1.945519    0.000031
     15          6           0        3.015053   -1.654892    0.000081
     16          6           0        3.459938   -0.328766   -0.000102
     17          6           0        2.542735    0.729001   -0.000247
     18          1           0        2.899480    1.756535   -0.000320
     19          1           0        4.526048   -0.117677   -0.000064
     20          1           0        3.738543   -2.465924    0.000215
     21          1           0        1.307924   -2.977805    0.000133
     22          6           0        0.000152    2.304579   -1.264707
     23          1           0        0.000770    1.695770   -2.174413
     24          1           0       -0.885888    2.949725   -1.285133
     25          1           0        0.886110    2.949841   -1.283912
     26          6           0        0.000374    2.303644    1.265315
     27          1           0        0.885987    2.949486    1.284669
     28          1           0       -0.886122    2.948156    1.286825
     29          1           0        0.001946    1.694038    2.174492
 ---------------------------------------------------------------------
 Rotational constants (GHZ):           1.0556965           0.5493218           0.3919087
 Leave Link  202 at Wed Mar 11 11:58:08 2026, MaxMem=   104857600 cpu:               0.0 elap:               0.0
 (Enter /sw/cluster/pub/apps//g16/l301.exe)
 Standard basis: def2TZVP (5D, 7F)
 Ernie: Thresh=  0.10000D-02 Tol=  0.10000D-05 Strict=F.
 There are   624 symmetry adapted cartesian basis functions of A   symmetry.
 There are   549 symmetry adapted basis functions of A   symmetry.
   549 basis functions,   877 primitive gaussians,   624 cartesian basis functions
    52 alpha electrons       52 beta electrons
       nuclear repulsion energy       926.0282672228 Hartrees.
 IExCor=  402 DFT=T Ex+Corr=B3LYP ExCW=0 ScaHFX=  0.200000
 ScaDFX=  0.800000  0.720000  1.000000  0.810000 ScalE2=  1.000000  1.000000
 IRadAn=      5 IRanWt=     -1 IRanGd=            0 ICorTp=0 IEmpDi=  4
 NAtoms=   29 NActive=   29 NUniq=   29 SFac= 1.00D+00 NAtFMM=   60 NAOKFM=F Big=F
 Integral buffers will be    131072 words long.
 Raffenetti 2 integral format.
 Two-electron integral symmetry is turned on.
 Leave Link  301 at Wed Mar 11 11:58:08 2026, MaxMem=   104857600 cpu:               0.0 elap:               0.0
 (Enter /sw/cluster/pub/apps//g16/l302.exe)
 NPDir=0 NMtPBC=     1 NCelOv=     1 NCel=       1 NClECP=     1 NCelD=      1
         NCelK=      1 NCelE2=     1 NClLst=     1 CellRange=     0.0.
 One-electron integrals computed using PRISM.
 One-electron integral symmetry used in STVInt
   1 Symmetry operations used in ECPInt.
 ECPInt:  NShTT=   24531 NPrTT=   74292 LenC2=   23157 LenP2D=   52772.
 LDataN:  DoStor=T MaxTD1= 6 Len=  172
 NBasis=   549 RedAO= T EigKep=  6.31D-06  NBF=   549
 NBsUse=   549 1.00D-06 EigRej= -1.00D+00 NBFU=   549
 Precomputing XC quadrature grid using
 IXCGrd= 4 IRadAn=           5 IRanWt=          -1 IRanGd=           0 AccXCQ= 0.00D+00.
 Generated NRdTot=       0 NPtTot=           0 NUsed=           0 NTot=          32
 NSgBfM=   618   618   618   618   618 MxSgAt=    29 MxSgA2=    29.
 Leave Link  302 at Wed Mar 11 11:58:09 2026, MaxMem=   104857600 cpu:               0.6 elap:               0.6
 (Enter /sw/cluster/pub/apps//g16/l303.exe)
 DipDrv:  MaxL=1.
 Leave Link  303 at Wed Mar 11 11:58:09 2026, MaxMem=   104857600 cpu:               0.0 elap:               0.0
 (Enter /sw/cluster/pub/apps//g16/l401.exe)
 ExpMin= 9.52D-02 ExpMax= 1.36D+04 ExpMxC= 4.63D+02 IAcc=3 IRadAn=         5 AccDes= 0.00D+00
 Harris functional with IExCor=  402 and IRadAn=       5 diagonalized for initial guess.
 HarFok:  IExCor=  402 AccDes= 0.00D+00 IRadAn=         5 IDoV= 1 UseB2=F ITyADJ=14
 ICtDFT=  3500011 ScaDFX=  1.000000  1.000000  1.000000  1.000000
 FoFCou: FMM=F IPFlag=           0 FMFlag=      100000 FMFlg1=           0
         NFxFlg=           0 DoJE=T BraDBF=F KetDBF=T FulRan=T
         wScrn=  0.000000 ICntrl=       500 IOpCl=  0 I1Cent=   200000004 NGrid=           0
         NMat0=    1 NMatS0=      1 NMatT0=    0 NMatD0=    1 NMtDS0=    0 NMtDT0=    0
 Petite list used in FoFCou.
 Harris En= -580.329815422374    
 JPrj=0 DoOrth=F DoCkMO=F.
 Leave Link  401 at Wed Mar 11 11:58:19 2026, MaxMem=   104857600 cpu:               9.5 elap:               9.5
 (Enter /sw/cluster/pub/apps//g16/l502.exe)
 Integral symmetry usage will be decided dynamically.
 Closed shell SCF:
 Using DIIS extrapolation, IDIIS=  1040.
 NGot=   104857600 LenX=   104069519 LenY=   103679519
 Requested convergence on RMS density matrix=1.00D-08 within 128 cycles.
 Requested convergence on MAX density matrix=1.00D-06.
 Requested convergence on             energy=1.00D-06.
 No special actions if energy rises.
 Fock matrices will be formed incrementally for  20 cycles.
 Integral accuracy reduced to 1.0D-05 until final iterations.

 Cycle   1  Pass 0  IDiag  1:
 FoFJK:  IHMeth= 1 ICntrl=       0 DoSepK=F KAlg= 0 I1Cent=           0 FoldK=F
 IRaf= 900000000 NMat=       1 IRICut=       1 DoRegI=T DoRafI=F ISym2E= 0 IDoP0=0 IntGTp=1.
 FoFCou: FMM=F IPFlag=           0 FMFlag=      100000 FMFlg1=           0
         NFxFlg=           0 DoJE=F BraDBF=F KetDBF=F FulRan=T
         wScrn=  0.000000 ICntrl=         0 IOpCl=  0 I1Cent=           0 NGrid=           0
         NMat0=    1 NMatS0=      1 NMatT0=    0 NMatD0=    1 NMtDS0=    0 NMtDT0=    0
 Symmetry not used in FoFCou.
 E= -579.848257753604    
 DIIS: error= 3.05D-02 at cycle   1 NSaved=   1.
 NSaved= 1 IEnMin= 1 EnMin= -579.848257753604     IErMin= 1 ErrMin= 3.05D-02
 ErrMax= 3.05D-02  0.00D+00 EMaxC= 1.00D-01 BMatC= 4.02D-01 BMatP= 4.02D-01
 IDIUse=3 WtCom= 6.95D-01 WtEn= 3.05D-01
 Coeff-Com:  0.100D+01
 Coeff-En:   0.100D+01
 Coeff:      0.100D+01
 Gap=     0.180 Goal=   None    Shift=    0.000
 GapD=    0.180 DampG=1.000 DampE=0.500 DampFc=0.5000 IDamp=-1.
 Damping current iteration by 5.00D-01
 RMSDP=3.02D-03 MaxDP=9.09D-02              OVMax= 1.77D-01

 Cycle   2  Pass 0  IDiag  1:
 RMSU=  1.49D-03    CP:  9.64D-01
 E= -580.033204072392     Delta-E=       -0.184946318788 Rises=F Damp=T
 DIIS: error= 5.62D-03 at cycle   2 NSaved=   2.
 NSaved= 2 IEnMin= 2 EnMin= -580.033204072392     IErMin= 2 ErrMin= 5.62D-03
 ErrMax= 5.62D-03  0.00D+00 EMaxC= 1.00D-01 BMatC= 2.05D-02 BMatP= 4.02D-01
 IDIUse=3 WtCom= 9.44D-01 WtEn= 5.62D-02
 Coeff-Com:  0.137D-01 0.986D+00
 Coeff-En:   0.719D-01 0.928D+00
 Coeff:      0.169D-01 0.983D+00
 Gap=     0.190 Goal=   None    Shift=    0.000
 RMSDP=1.01D-03 MaxDP=4.34D-02 DE=-1.85D-01 OVMax= 1.04D-01

 Cycle   3  Pass 0  IDiag  1:
 RMSU=  9.72D-04    CP:  9.55D-01  8.15D-01
 E= -580.249999097842     Delta-E=       -0.216795025450 Rises=F Damp=F
 DIIS: error= 4.29D-03 at cycle   3 NSaved=   3.
 NSaved= 3 IEnMin= 3 EnMin= -580.249999097842     IErMin= 3 ErrMin= 4.29D-03
 ErrMax= 4.29D-03  0.00D+00 EMaxC= 1.00D-01 BMatC= 6.38D-03 BMatP= 2.05D-02
 IDIUse=3 WtCom= 9.57D-01 WtEn= 4.29D-02
 Coeff-Com: -0.508D-01 0.324D+00 0.726D+00
 Coeff-En:   0.000D+00 0.000D+00 0.100D+01
 Coeff:     -0.486D-01 0.311D+00 0.738D+00
 Gap=     0.178 Goal=   None    Shift=    0.000
 RMSDP=3.30D-04 MaxDP=1.10D-02 DE=-2.17D-01 OVMax= 3.33D-02

 Cycle   4  Pass 0  IDiag  1:
 RMSU=  3.14D-04    CP:  9.52D-01  8.68D-01  9.37D-01
 E= -580.254178058839     Delta-E=       -0.004178960997 Rises=F Damp=F
 DIIS: error= 3.31D-03 at cycle   4 NSaved=   4.
 NSaved= 4 IEnMin= 4 EnMin= -580.254178058839     IErMin= 4 ErrMin= 3.31D-03
 ErrMax= 3.31D-03  0.00D+00 EMaxC= 1.00D-01 BMatC= 2.44D-03 BMatP= 6.38D-03
 IDIUse=3 WtCom= 9.67D-01 WtEn= 3.31D-02
 Coeff-Com: -0.320D-01 0.142D+00 0.443D+00 0.447D+00
 Coeff-En:   0.000D+00 0.000D+00 0.255D+00 0.745D+00
 Coeff:     -0.309D-01 0.137D+00 0.437D+00 0.456D+00
 Gap=     0.179 Goal=   None    Shift=    0.000
 RMSDP=1.16D-04 MaxDP=4.87D-03 DE=-4.18D-03 OVMax= 2.44D-02

 Cycle   5  Pass 0  IDiag  1:
 RMSU=  9.37D-05    CP:  9.51D-01  8.66D-01  9.67D-01  8.04D-01
 E= -580.256432797589     Delta-E=       -0.002254738750 Rises=F Damp=F
 DIIS: error= 1.46D-03 at cycle   5 NSaved=   5.
 NSaved= 5 IEnMin= 5 EnMin= -580.256432797589     IErMin= 5 ErrMin= 1.46D-03
 ErrMax= 1.46D-03  0.00D+00 EMaxC= 1.00D-01 BMatC= 3.66D-04 BMatP= 2.44D-03
 IDIUse=3 WtCom= 9.85D-01 WtEn= 1.46D-02
 Coeff-Com: -0.990D-02 0.231D-01 0.131D+00 0.297D+00 0.558D+00
 Coeff-En:   0.000D+00 0.000D+00 0.000D+00 0.160D+00 0.840D+00
 Coeff:     -0.975D-02 0.227D-01 0.129D+00 0.295D+00 0.562D+00
 Gap=     0.179 Goal=   None    Shift=    0.000
 RMSDP=5.49D-05 MaxDP=2.26D-03 DE=-2.25D-03 OVMax= 7.51D-03

 Cycle   6  Pass 0  IDiag  1:
 RMSU=  4.73D-05    CP:  9.50D-01  8.63D-01  9.69D-01  8.87D-01  9.34D-01
 E= -580.256815593718     Delta-E=       -0.000382796129 Rises=F Damp=F
 DIIS: error= 2.27D-04 at cycle   6 NSaved=   6.
 NSaved= 6 IEnMin= 6 EnMin= -580.256815593718     IErMin= 6 ErrMin= 2.27D-04
 ErrMax= 2.27D-04  0.00D+00 EMaxC= 1.00D-01 BMatC= 1.39D-05 BMatP= 3.66D-04
 IDIUse=3 WtCom= 9.98D-01 WtEn= 2.27D-03
 Coeff-Com: -0.433D-02 0.786D-02 0.575D-01 0.150D+00 0.318D+00 0.471D+00
 Coeff-En:   0.000D+00 0.000D+00 0.000D+00 0.000D+00 0.000D+00 0.100D+01
 Coeff:     -0.432D-02 0.784D-02 0.573D-01 0.150D+00 0.317D+00 0.472D+00
 Gap=     0.179 Goal=   None    Shift=    0.000
 RMSDP=2.53D-05 MaxDP=9.63D-04 DE=-3.83D-04 OVMax= 1.43D-03

 Cycle   7  Pass 0  IDiag  1:
 RMSU=  2.43D-05    CP:  9.50D-01  8.62D-01  9.67D-01  9.01D-01  9.71D-01
                    CP:  1.07D+00
 E= -580.256829762436     Delta-E=       -0.000014168719 Rises=F Damp=F
 DIIS: error= 9.34D-05 at cycle   7 NSaved=   7.
 NSaved= 7 IEnMin= 7 EnMin= -580.256829762436     IErMin= 7 ErrMin= 9.34D-05
 ErrMax= 9.34D-05  0.00D+00 EMaxC= 1.00D-01 BMatC= 1.31D-06 BMatP= 1.39D-05
 IDIUse=1 WtCom= 1.00D+00 WtEn= 0.00D+00
 Coeff-Com: -0.917D-03 0.770D-03 0.132D-01 0.409D-01 0.949D-01 0.263D+00
 Coeff-Com:  0.588D+00
 Coeff:     -0.917D-03 0.770D-03 0.132D-01 0.409D-01 0.949D-01 0.263D+00
 Coeff:      0.588D+00
 Gap=     0.179 Goal=   None    Shift=    0.000
 RMSDP=3.20D-05 MaxDP=1.20D-03 DE=-1.42D-05 OVMax= 4.66D-04

 Cycle   8  Pass 0  IDiag  1:
 RMSU=  1.60D-05    CP:  9.50D-01  8.61D-01  9.63D-01  9.37D-01  1.02D+00
                    CP:  1.19D+00  1.98D+00
 E= -580.256832748555     Delta-E=       -0.000002986119 Rises=F Damp=F
 DIIS: error= 4.43D-05 at cycle   8 NSaved=   8.
 NSaved= 8 IEnMin= 8 EnMin= -580.256832748555     IErMin= 8 ErrMin= 4.43D-05
 ErrMax= 4.43D-05  0.00D+00 EMaxC= 1.00D-01 BMatC= 3.52D-07 BMatP= 1.31D-06
 IDIUse=1 WtCom= 1.00D+00 WtEn= 0.00D+00
 Coeff-Com: -0.304D-03-0.163D-04 0.475D-02 0.171D-01 0.417D-01 0.146D+00
 Coeff-Com:  0.403D+00 0.387D+00
 Coeff:     -0.304D-03-0.163D-04 0.475D-02 0.171D-01 0.417D-01 0.146D+00
 Coeff:      0.403D+00 0.387D+00
 Gap=     0.179 Goal=   None    Shift=    0.000
 RMSDP=3.70D-05 MaxDP=1.22D-03 DE=-2.99D-06 OVMax= 1.77D-04

 Cycle   9  Pass 0  IDiag  1:
 RMSU=  1.49D-05    CP:  9.50D-01  8.59D-01  9.60D-01  9.77D-01  1.06D+00
                    CP:  1.23D+00  2.87D+00  2.40D+00
 E= -580.256832851122     Delta-E=       -0.000000102566 Rises=F Damp=F
 DIIS: error= 5.15D-05 at cycle   9 NSaved=   9.
 NSaved= 9 IEnMin= 9 EnMin= -580.256832851122     IErMin= 8 ErrMin= 4.43D-05
 ErrMax= 5.15D-05  0.00D+00 EMaxC= 1.00D-01 BMatC= 2.81D-07 BMatP= 3.52D-07
 IDIUse=1 WtCom= 1.00D+00 WtEn= 0.00D+00
 Coeff-Com: -0.313D-03-0.759D-04 0.496D-02 0.183D-01 0.451D-01 0.163D+00
 Coeff-Com:  0.459D+00 0.471D+00-0.161D+00
 Coeff:     -0.313D-03-0.759D-04 0.496D-02 0.183D-01 0.451D-01 0.163D+00
 Coeff:      0.459D+00 0.471D+00-0.161D+00
 Gap=     0.179 Goal=   None    Shift=    0.000
 RMSDP=2.34D-05 MaxDP=7.04D-04 DE=-1.03D-07 OVMax= 1.70D-05

 Cycle  10  Pass 0  IDiag  1:
 RMSU=  2.51D-06    CP:  9.50D-01  8.60D-01  9.62D-01  9.53D-01  1.04D+00
                    CP:  1.24D+00  2.39D+00  1.52D+00  1.97D-01
 E= -580.256833383616     Delta-E=       -0.000000532495 Rises=F Damp=F
 DIIS: error= 3.41D-05 at cycle  10 NSaved=  10.
 NSaved=10 IEnMin=10 EnMin= -580.256833383616     IErMin=10 ErrMin= 3.41D-05
 ErrMax= 3.41D-05  0.00D+00 EMaxC= 1.00D-01 BMatC= 1.52D-07 BMatP= 2.81D-07
 IDIUse=1 WtCom= 1.00D+00 WtEn= 0.00D+00
 Coeff-Com: -0.109D-04-0.276D-03 0.497D-03 0.385D-02 0.107D-01 0.567D-01
 Coeff-Com:  0.196D+00 0.393D+00-0.134D+01 0.168D+01
 Coeff:     -0.109D-04-0.276D-03 0.497D-03 0.385D-02 0.107D-01 0.567D-01
 Coeff:      0.196D+00 0.393D+00-0.134D+01 0.168D+01
 Gap=     0.179 Goal=   None    Shift=    0.000
 RMSDP=3.54D-05 MaxDP=1.17D-03 DE=-5.32D-07 OVMax= 3.15D-05

 Cycle  11  Pass 0  IDiag  1:
 RMSU=  1.74D-05    CP:  9.50D-01  8.63D-01  9.60D-01  9.02D-01  1.04D+00
                    CP:  1.35D+00  1.97D+00  6.73D-01 -9.13D-01  3.00D+00
 E= -580.256835861753     Delta-E=       -0.000002478137 Rises=F Damp=F
 DIIS: error= 1.83D-05 at cycle  11 NSaved=  11.
 NSaved=11 IEnMin=11 EnMin= -580.256835861753     IErMin=11 ErrMin= 1.83D-05
 ErrMax= 1.83D-05  0.00D+00 EMaxC= 1.00D-01 BMatC= 5.29D-08 BMatP= 1.52D-07
 IDIUse=1 WtCom= 1.00D+00 WtEn= 0.00D+00
 Coeff-Com: -0.115D-04-0.263D-03 0.473D-03 0.366D-02 0.102D-01 0.535D-01
 Coeff-Com:  0.184D+00 0.364D+00-0.123D+01 0.152D+01 0.102D+00
 Coeff:     -0.115D-04-0.263D-03 0.473D-03 0.366D-02 0.102D-01 0.535D-01
 Coeff:      0.184D+00 0.364D+00-0.123D+01 0.152D+01 0.102D+00
 Gap=     0.179 Goal=   None    Shift=    0.000
 RMSDP=3.29D-06 MaxDP=1.90D-04 DE=-2.48D-06 OVMax= 2.51D-06

 Initial convergence to 1.0D-05 achieved.  Increase integral accuracy.
 Cycle  12  Pass 1  IDiag  1:
 E= -580.256796762367     Delta-E=        0.000039099386 Rises=F Damp=F
 DIIS: error= 5.10D-04 at cycle   1 NSaved=   1.
 NSaved= 1 IEnMin= 1 EnMin= -580.256796762367     IErMin= 1 ErrMin= 5.10D-04
 ErrMax= 5.10D-04  0.00D+00 EMaxC= 1.00D-01 BMatC= 4.54D-05 BMatP= 4.54D-05
 IDIUse=3 WtCom= 9.95D-01 WtEn= 5.10D-03
 Coeff-Com:  0.100D+01
 Coeff-En:   0.100D+01
 Coeff:      0.100D+01
 Gap=     0.179 Goal=   None    Shift=    0.000
 RMSDP=3.29D-06 MaxDP=1.90D-04 DE= 3.91D-05 OVMax= 8.88D-04

 Cycle  13  Pass 1  IDiag  1:
 RMSU=  1.23D-03    CP:  9.64D-01
 E= -580.256819060167     Delta-E=       -0.000022297799 Rises=F Damp=F
 DIIS: error= 5.06D-06 at cycle   2 NSaved=   2.
 NSaved= 2 IEnMin= 2 EnMin= -580.256819060167     IErMin= 2 ErrMin= 5.06D-06
 ErrMax= 5.06D-06  0.00D+00 EMaxC= 1.00D-01 BMatC= 5.32D-09 BMatP= 4.54D-05
 IDIUse=1 WtCom= 1.00D+00 WtEn= 0.00D+00
 Coeff-Com: -0.530D-02 0.101D+01
 Coeff:     -0.530D-02 0.101D+01
 Gap=     0.179 Goal=   None    Shift=    0.000
 RMSDP=1.58D-05 MaxDP=7.14D-04 DE=-2.23D-05 OVMax= 4.80D-05

 Cycle  14  Pass 1  IDiag  1:
 RMSU=  8.10D-06    CP:  9.64D-01  1.01D+00
 E= -580.256819053807     Delta-E=        0.000000006359 Rises=F Damp=F
 DIIS: error= 8.93D-06 at cycle   3 NSaved=   3.
 NSaved= 3 IEnMin= 2 EnMin= -580.256819060167     IErMin= 2 ErrMin= 5.06D-06
 ErrMax= 8.93D-06  0.00D+00 EMaxC= 1.00D-01 BMatC= 1.16D-08 BMatP= 5.32D-09
 IDIUse=1 WtCom= 1.00D+00 WtEn= 0.00D+00
 Coeff-Com: -0.348D-02 0.647D+00 0.357D+00
 Coeff:     -0.348D-02 0.647D+00 0.357D+00
 Gap=     0.179 Goal=   None    Shift=    0.000
 RMSDP=2.23D-07 MaxDP=8.61D-06 DE= 6.36D-09 OVMax= 3.85D-05

 Cycle  15  Pass 1  IDiag  1:
 RMSU=  1.99D-07    CP:  9.64D-01  1.01D+00  1.01D+00
 E= -580.256819065767     Delta-E=       -0.000000011959 Rises=F Damp=F
 DIIS: error= 1.67D-06 at cycle   4 NSaved=   4.
 NSaved= 4 IEnMin= 4 EnMin= -580.256819065767     IErMin= 4 ErrMin= 1.67D-06
 ErrMax= 1.67D-06  0.00D+00 EMaxC= 1.00D-01 BMatC= 4.13D-10 BMatP= 5.32D-09
 IDIUse=1 WtCom= 1.00D+00 WtEn= 0.00D+00
 Coeff-Com: -0.613D-03 0.110D+00 0.170D+00 0.721D+00
 Coeff:     -0.613D-03 0.110D+00 0.170D+00 0.721D+00
 Gap=     0.179 Goal=   None    Shift=    0.000
 RMSDP=1.28D-07 MaxDP=6.33D-06 DE=-1.20D-08 OVMax= 8.43D-06

 Cycle  16  Pass 1  IDiag  1:
 RMSU=  6.22D-08    CP:  9.64D-01  1.01D+00  1.02D+00  9.30D-01
 E= -580.256819066117     Delta-E=       -0.000000000351 Rises=F Damp=F
 DIIS: error= 4.97D-07 at cycle   5 NSaved=   5.
 NSaved= 5 IEnMin= 5 EnMin= -580.256819066117     IErMin= 5 ErrMin= 4.97D-07
 ErrMax= 4.97D-07  0.00D+00 EMaxC= 1.00D-01 BMatC= 1.02D-10 BMatP= 4.13D-10
 IDIUse=1 WtCom= 1.00D+00 WtEn= 0.00D+00
 Coeff-Com: -0.929D-05-0.692D-03 0.662D-01 0.443D+00 0.491D+00
 Coeff:     -0.929D-05-0.692D-03 0.662D-01 0.443D+00 0.491D+00
 Gap=     0.179 Goal=   None    Shift=    0.000
 RMSDP=3.66D-08 MaxDP=1.71D-06 DE=-3.51D-10 OVMax= 2.28D-06

 Cycle  17  Pass 1  IDiag  1:
 RMSU=  2.12D-08    CP:  9.64D-01  1.01D+00  1.02D+00  9.71D-01  1.08D+00
 E= -580.256819066233     Delta-E=       -0.000000000116 Rises=F Damp=F
 DIIS: error= 5.75D-08 at cycle   6 NSaved=   6.
 NSaved= 6 IEnMin= 6 EnMin= -580.256819066233     IErMin= 6 ErrMin= 5.75D-08
 ErrMax= 5.75D-08  0.00D+00 EMaxC= 1.00D-01 BMatC= 1.36D-12 BMatP= 1.02D-10
 IDIUse=1 WtCom= 1.00D+00 WtEn= 0.00D+00
 Coeff-Com:  0.151D-04-0.375D-02 0.249D-01 0.178D+00 0.222D+00 0.579D+00
 Coeff:      0.151D-04-0.375D-02 0.249D-01 0.178D+00 0.222D+00 0.579D+00
 Gap=     0.179 Goal=   None    Shift=    0.000
 RMSDP=4.05D-09 MaxDP=1.47D-07 DE=-1.16D-10 OVMax= 4.23D-07

 SCF Done:  E(RB3LYP) =  -580.256819066     A.U. after   17 cycles
            NFock= 17  Conv=0.41D-08     -V/T= 2.0058
 KE= 5.768977973833D+02 PE=-3.196850923358D+03 EE= 1.113668039686D+03
 Leave Link  502 at Wed Mar 11 12:13:19 2026, MaxMem=   104857600 cpu:             899.4 elap:             900.5
 (Enter /sw/cluster/pub/apps//g16/l601.exe)
 Copying SCF densities to generalized density rwf, IOpCl= 0 IROHF=0.

 **********************************************************************

            Population analysis using the SCF density.

 **********************************************************************

 Orbital symmetries:
       Occupied  (A) (A) (A) (A) (A) (A) (A) (A) (A) (A) (A) (A)
                 (A) (A) (A) (A) (A) (A) (A) (A) (A) (A) (A) (A)
                 (A) (A) (A) (A) (A) (A) (A) (A) (A) (A) (A) (A)
                 (A) (A) (A) (A) (A) (A) (A) (A) (A) (A) (A) (A)
                 (A) (A) (A) (A)
       Virtual   (A) (A) (A) (A) (A) (A) (A) (A) (A) (A) (A) (A)
                 (A) (A) (A) (A) (A) (A) (A) (A) (A) (A) (A) (A)
                 (A) (A) (A) (A) (A) (A) (A) (A) (A) (A) (A) (A)
                 (A) (A) (A) (A) (A) (A) (A) (A) (A) (A) (A) (A)
                 (A) (A) (A) (A) (A) (A) (A) (A) (A) (A) (A) (A)
                 (A) (A) (A) (A) (A) (A) (A) (A) (A) (A) (A) (A)
                 (A) (A) (A) (A) (A) (A) (A) (A) (A) (A) (A) (A)
                 (A) (A) (A) (A) (A) (A) (A) (A) (A) (A) (A) (A)
                 (A) (A) (A) (A) (A) (A) (A) (A) (A) (A) (A) (A)
                 (A) (A) (A) (A) (A) (A) (A) (A) (A) (A) (A) (A)
                 (A) (A) (A) (A) (A) (A) (A) (A) (A) (A) (A) (A)
                 (A) (A) (A) (A) (A) (A) (A) (A) (A) (A) (A) (A)
                 (A) (A) (A) (A) (A) (A) (A) (A) (A) (A) (A) (A)
                 (A) (A) (A) (A) (A) (A) (A) (A) (A) (A) (A) (A)
                 (A) (A) (A) (A) (A) (A) (A) (A) (A) (A) (A) (A)
                 (A) (A) (A) (A) (A) (A) (A) (A) (A) (A) (A) (A)
                 (A) (A) (A) (A) (A) (A) (A) (A) (A) (A) (A) (A)
                 (A) (A) (A) (A) (A) (A) (A) (A) (A) (A) (A) (A)
                 (A) (A) (A) (A) (A) (A) (A) (A) (A) (A) (A) (A)
                 (A) (A) (A) (A) (A) (A) (A) (A) (A) (A) (A) (A)
                 (A) (A) (A) (A) (A) (A) (A) (A) (A) (A) (A) (A)
                 (A) (A) (A) (A) (A) (A) (A) (A) (A) (A) (A) (A)
                 (A) (A) (A) (A) (A) (A) (A) (A) (A) (A) (A) (A)
                 (A) (A) (A) (A) (A) (A) (A) (A) (A) (A) (A) (A)
                 (A) (A) (A) (A) (A) (A) (A) (A) (A) (A) (A) (A)
                 (A) (A) (A) (A) (A) (A) (A) (A) (A) (A) (A) (A)
                 (A) (A) (A) (A) (A) (A) (A) (A) (A) (A) (A) (A)
                 (A) (A) (A) (A) (A) (A) (A) (A) (A) (A) (A) (A)
                 (A) (A) (A) (A) (A) (A) (A) (A) (A) (A) (A) (A)
                 (A) (A) (A) (A) (A) (A) (A) (A) (A) (A) (A) (A)
                 (A) (A) (A) (A) (A) (A) (A) (A) (A) (A) (A) (A)
                 (A) (A) (A) (A) (A) (A) (A) (A) (A) (A) (A) (A)
                 (A) (A) (A) (A) (A) (A) (A) (A) (A) (A) (A) (A)
                 (A) (A) (A) (A) (A) (A) (A) (A) (A) (A) (A) (A)
                 (A) (A) (A) (A) (A) (A) (A) (A) (A) (A) (A) (A)
                 (A) (A) (A) (A) (A) (A) (A) (A) (A) (A) (A) (A)
                 (A) (A) (A) (A) (A) (A) (A) (A) (A) (A) (A) (A)
                 (A) (A) (A) (A) (A) (A) (A) (A) (A) (A) (A) (A)
                 (A) (A) (A) (A) (A) (A) (A) (A) (A) (A) (A) (A)
                 (A) (A) (A) (A) (A) (A) (A) (A) (A) (A) (A) (A)
                 (A) (A) (A) (A) (A) (A) (A) (A) (A) (A) (A) (A)
                 (A) (A) (A) (A) (A)
 The electronic state is 1-A.
 Alpha  occ. eigenvalues --  -10.19869 -10.18213 -10.18182 -10.17938 -10.17934
 Alpha  occ. eigenvalues --  -10.17815 -10.17814 -10.17799 -10.17798 -10.17733
 Alpha  occ. eigenvalues --  -10.17732 -10.17678 -10.17677 -10.16854 -10.16854
 Alpha  occ. eigenvalues --   -0.89205  -0.84662  -0.81532  -0.77701  -0.74531
 Alpha  occ. eigenvalues --   -0.73503  -0.71633  -0.69131  -0.64710  -0.62463
 Alpha  occ. eigenvalues --   -0.58721  -0.57856  -0.56071  -0.51325  -0.49887
 Alpha  occ. eigenvalues --   -0.47764  -0.45536  -0.45102  -0.44001  -0.43644
 Alpha  occ. eigenvalues --   -0.43291  -0.42238  -0.42149  -0.39657  -0.38641
 Alpha  occ. eigenvalues --   -0.38621  -0.37967  -0.35735  -0.35147  -0.34918
 Alpha  occ. eigenvalues --   -0.34560  -0.32472  -0.32400  -0.28839  -0.25547
 Alpha  occ. eigenvalues --   -0.25180  -0.22198
 Alpha virt. eigenvalues --   -0.04289  -0.02337  -0.00388   0.02676   0.03145
 Alpha virt. eigenvalues --    0.05179   0.05287   0.07141   0.07147   0.08319
 Alpha virt. eigenvalues --    0.08661   0.09767   0.09961   0.11365   0.11420
 Alpha virt. eigenvalues --    0.12412   0.12649   0.13298   0.14014   0.14147
 Alpha virt. eigenvalues --    0.15640   0.15736   0.16844   0.18242   0.19055
 Alpha virt. eigenvalues --    0.19105   0.19145   0.20422   0.20437   0.20744
 Alpha virt. eigenvalues --    0.21252   0.21576   0.22174   0.22439   0.23867
 Alpha virt. eigenvalues --    0.24205   0.24513   0.24655   0.27295   0.28821
 Alpha virt. eigenvalues --    0.29344   0.29569   0.29773   0.29896   0.31028
 Alpha virt. eigenvalues --    0.31039   0.32547   0.32987   0.33265   0.34153
 Alpha virt. eigenvalues --    0.34703   0.34723   0.35162   0.35885   0.36495
 Alpha virt. eigenvalues --    0.36981   0.37001   0.38348   0.38906   0.39815
 Alpha virt. eigenvalues --    0.40007   0.40567   0.41285   0.41549   0.42015
 Alpha virt. eigenvalues --    0.42571   0.43009   0.43159   0.43204   0.43980
 Alpha virt. eigenvalues --    0.45068   0.45856   0.46497   0.46573   0.47396
 Alpha virt. eigenvalues --    0.47744   0.47965   0.49265   0.49378   0.49585
 Alpha virt. eigenvalues --    0.50596   0.51177   0.52138   0.52925   0.55183
 Alpha virt. eigenvalues --    0.55473   0.56288   0.57763   0.58747   0.59458
 Alpha virt. eigenvalues --    0.59715   0.62282   0.62383   0.63704   0.64695
 Alpha virt. eigenvalues --    0.65254   0.65823   0.66682   0.66980   0.67819
 Alpha virt. eigenvalues --    0.69076   0.70235   0.70392   0.70812   0.71416
 Alpha virt. eigenvalues --    0.72740   0.73024   0.74579   0.75603   0.76586
 Alpha virt. eigenvalues --    0.77068   0.79015   0.80161   0.81112   0.81339
 Alpha virt. eigenvalues --    0.81592   0.84783   0.85402   0.86513   0.86532
 Alpha virt. eigenvalues --    0.86758   0.88939   0.89976   0.90022   0.90027
 Alpha virt. eigenvalues --    0.91779   0.92868   0.93012   0.94436   0.95851
 Alpha virt. eigenvalues --    0.97790   0.98755   0.99146   0.99662   1.00197
 Alpha virt. eigenvalues --    1.02243   1.03922   1.05109   1.05582   1.05647
 Alpha virt. eigenvalues --    1.08351   1.08607   1.08852   1.09797   1.11687
 Alpha virt. eigenvalues --    1.12165   1.13648   1.13801   1.14367   1.19044
 Alpha virt. eigenvalues --    1.19141   1.19660   1.21541   1.21691   1.21938
 Alpha virt. eigenvalues --    1.23041   1.24501   1.24630   1.25032   1.25597
 Alpha virt. eigenvalues --    1.27204   1.27439   1.29785   1.31132   1.33027
 Alpha virt. eigenvalues --    1.33053   1.34775   1.34835   1.37880   1.38723
 Alpha virt. eigenvalues --    1.39024   1.39829   1.41206   1.41844   1.44550
 Alpha virt. eigenvalues --    1.45223   1.45592   1.46402   1.48246   1.48371
 Alpha virt. eigenvalues --    1.48817   1.50928   1.52089   1.52256   1.54408
 Alpha virt. eigenvalues --    1.54788   1.55482   1.55684   1.57552   1.58421
 Alpha virt. eigenvalues --    1.58963   1.59521   1.60033   1.60965   1.61335
 Alpha virt. eigenvalues --    1.62562   1.63108   1.63606   1.65823   1.67435
 Alpha virt. eigenvalues --    1.68022   1.69680   1.70240   1.70984   1.71464
 Alpha virt. eigenvalues --    1.73277   1.74209   1.74969   1.75014   1.78067
 Alpha virt. eigenvalues --    1.79082   1.79115   1.81109   1.81293   1.84214
 Alpha virt. eigenvalues --    1.85009   1.87793   1.88947   1.89254   1.91153
 Alpha virt. eigenvalues --    1.94135   1.94212   1.97176   2.00543   2.01528
 Alpha virt. eigenvalues --    2.02094   2.03679   2.04461   2.04527   2.05974
 Alpha virt. eigenvalues --    2.06882   2.09983   2.10899   2.10924   2.13023
 Alpha virt. eigenvalues --    2.13539   2.13656   2.15411   2.16338   2.17762
 Alpha virt. eigenvalues --    2.18408   2.19117   2.21390   2.22796   2.24066
 Alpha virt. eigenvalues --    2.24432   2.24512   2.26586   2.27968   2.28888
 Alpha virt. eigenvalues --    2.31361   2.32996   2.33137   2.34417   2.34706
 Alpha virt. eigenvalues --    2.37352   2.39260   2.41252   2.41796   2.42668
 Alpha virt. eigenvalues --    2.43954   2.45672   2.45931   2.48771   2.49121
 Alpha virt. eigenvalues --    2.49950   2.51337   2.54137   2.54240   2.54265
 Alpha virt. eigenvalues --    2.55454   2.55516   2.58580   2.59869   2.60671
 Alpha virt. eigenvalues --    2.61123   2.63291   2.63775   2.64250   2.64412
 Alpha virt. eigenvalues --    2.64656   2.64933   2.65371   2.66853   2.67364
 Alpha virt. eigenvalues --    2.69967   2.71501   2.72532   2.72557   2.73436
 Alpha virt. eigenvalues --    2.73509   2.74044   2.74131   2.75231   2.75911
 Alpha virt. eigenvalues --    2.76956   2.78370   2.79771   2.80447   2.80481
 Alpha virt. eigenvalues --    2.81099   2.82013   2.83966   2.84740   2.85099
 Alpha virt. eigenvalues --    2.87603   2.88283   2.88724   2.89740   2.90251
 Alpha virt. eigenvalues --    2.91163   2.92264   2.92417   2.94209   2.95454
 Alpha virt. eigenvalues --    2.95851   2.97960   2.98512   3.01564   3.02156
 Alpha virt. eigenvalues --    3.03559   3.03747   3.05016   3.06232   3.06627
 Alpha virt. eigenvalues --    3.09148   3.09365   3.11600   3.12445   3.13891
 Alpha virt. eigenvalues --    3.14120   3.14906   3.15933   3.16583   3.17547
 Alpha virt. eigenvalues --    3.17971   3.18388   3.19148   3.20509   3.20920
 Alpha virt. eigenvalues --    3.21425   3.22341   3.22802   3.23261   3.26001
 Alpha virt. eigenvalues --    3.27214   3.28283   3.28424   3.28909   3.29630
 Alpha virt. eigenvalues --    3.31680   3.32231   3.32255   3.32409   3.32718
 Alpha virt. eigenvalues --    3.35181   3.35333   3.35528   3.35992   3.37606
 Alpha virt. eigenvalues --    3.37891   3.38320   3.39096   3.41359   3.43013
 Alpha virt. eigenvalues --    3.43305   3.45809   3.46001   3.47027   3.47036
 Alpha virt. eigenvalues --    3.47331   3.50761   3.50857   3.51051   3.51543
 Alpha virt. eigenvalues --    3.53349   3.54031   3.54147   3.56074   3.56644
 Alpha virt. eigenvalues --    3.57725   3.57979   3.58784   3.61031   3.61196
 Alpha virt. eigenvalues --    3.62031   3.63718   3.64594   3.66818   3.68567
 Alpha virt. eigenvalues --    3.68822   3.69911   3.73717   3.73963   3.76445
 Alpha virt. eigenvalues --    3.79659   3.81844   3.83941   3.85480   3.86912
 Alpha virt. eigenvalues --    3.87186   3.89243   3.89871   3.91852   3.94622
 Alpha virt. eigenvalues --    3.94628   3.95877   3.97960   3.98928   4.02893
 Alpha virt. eigenvalues --    4.03576   4.04935   4.09001   4.10055   4.10479
 Alpha virt. eigenvalues --    4.11082   4.11862   4.13651   4.14321   4.14711
 Alpha virt. eigenvalues --    4.16971   4.18775   4.19028   4.19657   4.21880
 Alpha virt. eigenvalues --    4.22588   4.25149   4.25894   4.26702   4.28818
 Alpha virt. eigenvalues --    4.29298   4.30458   4.31033   4.32160   4.34318
 Alpha virt. eigenvalues --    4.34458   4.35193   4.36910   4.40372   4.40868
 Alpha virt. eigenvalues --    4.42774   4.45903   4.46445   4.50973   4.51691
 Alpha virt. eigenvalues --    4.52351   4.57723   4.58084   4.60256   4.61083
 Alpha virt. eigenvalues --    4.62213   4.70737   4.73681   4.74961   4.75258
 Alpha virt. eigenvalues --    4.78999   4.80960   4.80996   4.82354   4.83946
 Alpha virt. eigenvalues --    4.89814   4.91536   4.91615   4.95324   4.97395
 Alpha virt. eigenvalues --    5.00450   5.01376   5.10065   5.10885   5.17421
 Alpha virt. eigenvalues --    5.24705   5.28121   5.33232   5.33681   5.41814
 Alpha virt. eigenvalues --    5.48513   5.56109   5.59629   5.60409   5.74485
 Alpha virt. eigenvalues --    5.75946   6.07531  22.02849  22.39511  22.44866
 Alpha virt. eigenvalues --   22.45584  22.56969  22.59291  22.62196  22.66756
 Alpha virt. eigenvalues --   22.68704  22.80244  22.94165  22.97674  23.09063
 Alpha virt. eigenvalues --   23.56671  23.75119
          Condensed to atoms (all electrons):
               1          2          3          4          5          6
     1  C    5.259754   0.210108  -0.059292  -0.059168   0.209802  -0.104212
     2  C    0.210108   5.352688   0.401475  -0.128265  -0.013128   0.022522
     3  C   -0.059292   0.401475   5.113564   0.332514  -0.128294   0.003287
     4  C   -0.059168  -0.128265   0.332514   5.113732   0.401278   0.014062
     5  C    0.209802  -0.013128  -0.128294   0.401278   5.352526   0.408287
     6  C   -0.104212   0.022522   0.003287   0.014062   0.408287   5.075001
     7  C    0.006221   0.000365  -0.005545  -0.081254   0.001585   0.462144
     8  C   -0.002201  -0.000803   0.004775  -0.012918  -0.078818   0.002213
     9  C    0.006741   0.018191  -0.105025   0.447294  -0.015105  -0.062061
    10  H   -0.000115   0.000137  -0.012261  -0.056309   0.011664  -0.001998
    11  H    0.000114  -0.000002  -0.000203   0.010355   0.000154   0.008472
    12  H   -0.000248   0.000013   0.000179  -0.000341   0.010360  -0.054479
    13  H   -0.003551   0.000117  -0.000324   0.015147  -0.070765   0.432131
    14  C    0.006759  -0.015155   0.447363  -0.104951   0.018219  -0.001529
    15  C   -0.002199  -0.078752  -0.013002   0.004756  -0.000809   0.000176
    16  C    0.006231   0.001648  -0.081284  -0.005538   0.000361   0.000009
    17  C   -0.104241   0.408370   0.013877   0.003240   0.022547  -0.000214
    18  H   -0.003572  -0.070755   0.015167  -0.000325   0.000121  -0.000079
    19  H   -0.000248   0.010361  -0.000340   0.000179   0.000012  -0.000001
    20  H    0.000114   0.000154   0.010351  -0.000204  -0.000002   0.000000
    21  H   -0.000117   0.011661  -0.056304  -0.012278   0.000138  -0.000192
    22  C    0.280164  -0.029868  -0.004513  -0.004518  -0.029910  -0.001265
    23  H   -0.034485  -0.006093   0.001953   0.001947  -0.006091  -0.000233
    24  H   -0.031890   0.016179  -0.000277  -0.000392  -0.024109   0.005850
    25  H   -0.031841  -0.024144  -0.000396  -0.000281   0.016209  -0.000436
    26  C    0.280177  -0.029883  -0.004516  -0.004528  -0.029880  -0.001253
    27  H   -0.031814  -0.024125  -0.000401  -0.000277   0.016197  -0.000436
    28  H   -0.031862   0.016155  -0.000268  -0.000396  -0.024127   0.005860
    29  H   -0.034453  -0.006119   0.001968   0.001939  -0.006120  -0.000237
               7          8          9         10         11         12
     1  C    0.006221  -0.002201   0.006741  -0.000115   0.000114  -0.000248
     2  C    0.000365  -0.000803   0.018191   0.000137  -0.000002   0.000013
     3  C   -0.005545   0.004775  -0.105025  -0.012261  -0.000203   0.000179
     4  C   -0.081254  -0.012918   0.447294  -0.056309   0.010355  -0.000341
     5  C    0.001585  -0.078818  -0.015105   0.011664   0.000154   0.010360
     6  C    0.462144   0.002213  -0.062061  -0.001998   0.008472  -0.054479
     7  C    4.903209   0.478951   0.000155   0.008991  -0.048692   0.426741
     8  C    0.478951   4.891530   0.474875  -0.049213   0.425028  -0.048930
     9  C    0.000155   0.474875   5.054631   0.428412  -0.053357   0.008736
    10  H    0.008991  -0.049213   0.428412   0.564999  -0.006847  -0.000298
    11  H   -0.048692   0.425028  -0.053357  -0.006847   0.566111  -0.007351
    12  H    0.426741  -0.048930   0.008736  -0.000298  -0.007351   0.565953
    13  H   -0.049535   0.009677  -0.002624   0.000077  -0.000319  -0.006882
    14  C    0.000170  -0.000511   0.004820   0.006936   0.000024  -0.000004
    15  C   -0.000019   0.000020  -0.000511  -0.000392   0.000000   0.000000
    16  C    0.000002  -0.000019   0.000170   0.000087  -0.000000   0.000000
    17  C    0.000009   0.000176  -0.001528  -0.000192   0.000000  -0.000001
    18  H    0.000005  -0.000004   0.000055   0.000001   0.000000  -0.000000
    19  H    0.000000   0.000000  -0.000004  -0.000000  -0.000000  -0.000000
    20  H   -0.000000   0.000000   0.000024   0.000000   0.000000  -0.000000
    21  H    0.000087  -0.000391   0.006947   0.004226   0.000000  -0.000000
    22  C    0.001548  -0.000369   0.000378   0.000044  -0.000003   0.000017
    23  H    0.000080  -0.000108   0.000088   0.000006  -0.000001   0.000005
    24  H   -0.000449   0.000108  -0.000107   0.000001   0.000000  -0.000006
    25  H   -0.000005   0.000006   0.000001  -0.000002   0.000000  -0.000001
    26  C    0.001543  -0.000366   0.000373   0.000044  -0.000003   0.000017
    27  H   -0.000005   0.000006   0.000001  -0.000002   0.000000  -0.000001
    28  H   -0.000450   0.000109  -0.000108   0.000001   0.000000  -0.000006
    29  H    0.000082  -0.000109   0.000091   0.000006  -0.000001   0.000005
              13         14         15         16         17         18
     1  C   -0.003551   0.006759  -0.002199   0.006231  -0.104241  -0.003572
     2  C    0.000117  -0.015155  -0.078752   0.001648   0.408370  -0.070755
     3  C   -0.000324   0.447363  -0.013002  -0.081284   0.013877   0.015167
     4  C    0.015147  -0.104951   0.004756  -0.005538   0.003240  -0.000325
     5  C   -0.070765   0.018219  -0.000809   0.000361   0.022547   0.000121
     6  C    0.432131  -0.001529   0.000176   0.000009  -0.000214  -0.000079
     7  C   -0.049535   0.000170  -0.000019   0.000002   0.000009   0.000005
     8  C    0.009677  -0.000511   0.000020  -0.000019   0.000176  -0.000004
     9  C   -0.002624   0.004820  -0.000511   0.000170  -0.001528   0.000055
    10  H    0.000077   0.006936  -0.000392   0.000087  -0.000192   0.000001
    11  H   -0.000319   0.000024   0.000000  -0.000000   0.000000   0.000000
    12  H   -0.006882  -0.000004   0.000000   0.000000  -0.000001  -0.000000
    13  H    0.569745   0.000055  -0.000004   0.000005  -0.000079  -0.000007
    14  C    0.000055   5.054512   0.474846   0.000104  -0.062009  -0.002624
    15  C   -0.000004   0.474846   4.891595   0.478968   0.002230   0.009675
    16  C    0.000005   0.000104   0.478968   4.903166   0.462171  -0.049551
    17  C   -0.000079  -0.062009   0.002230   0.462171   5.074825   0.432125
    18  H   -0.000007  -0.002624   0.009675  -0.049551   0.432125   0.569783
    19  H   -0.000000   0.008738  -0.048940   0.426734  -0.054482  -0.006885
    20  H    0.000000  -0.053353   0.425030  -0.048685   0.008470  -0.000319
    21  H    0.000001   0.428428  -0.049200   0.008987  -0.001996   0.000077
    22  C   -0.000293   0.000367  -0.000366   0.001542  -0.001233  -0.000292
    23  H    0.000009   0.000088  -0.000108   0.000080  -0.000234   0.000011
    24  H    0.002460   0.000001   0.000006  -0.000004  -0.000438  -0.000149
    25  H   -0.000149  -0.000106   0.000108  -0.000449   0.005856   0.002459
    26  C   -0.000293   0.000373  -0.000368   0.001548  -0.001263  -0.000293
    27  H   -0.000149  -0.000107   0.000108  -0.000450   0.005852   0.002454
    28  H    0.002462   0.000001   0.000006  -0.000005  -0.000436  -0.000149
    29  H    0.000009   0.000088  -0.000108   0.000080  -0.000235   0.000012
              19         20         21         22         23         24
     1  C   -0.000248   0.000114  -0.000117   0.280164  -0.034485  -0.031890
     2  C    0.010361   0.000154   0.011661  -0.029868  -0.006093   0.016179
     3  C   -0.000340   0.010351  -0.056304  -0.004513   0.001953  -0.000277
     4  C    0.000179  -0.000204  -0.012278  -0.004518   0.001947  -0.000392
     5  C    0.000012  -0.000002   0.000138  -0.029910  -0.006091  -0.024109
     6  C   -0.000001   0.000000  -0.000192  -0.001265  -0.000233   0.005850
     7  C    0.000000  -0.000000   0.000087   0.001548   0.000080  -0.000449
     8  C    0.000000   0.000000  -0.000391  -0.000369  -0.000108   0.000108
     9  C   -0.000004   0.000024   0.006947   0.000378   0.000088  -0.000107
    10  H   -0.000000   0.000000   0.004226   0.000044   0.000006   0.000001
    11  H   -0.000000   0.000000   0.000000  -0.000003  -0.000001   0.000000
    12  H   -0.000000  -0.000000  -0.000000   0.000017   0.000005  -0.000006
    13  H   -0.000000   0.000000   0.000001  -0.000293   0.000009   0.002460
    14  C    0.008738  -0.053353   0.428428   0.000367   0.000088   0.000001
    15  C   -0.048940   0.425030  -0.049200  -0.000366  -0.000108   0.000006
    16  C    0.426734  -0.048685   0.008987   0.001542   0.000080  -0.000004
    17  C   -0.054482   0.008470  -0.001996  -0.001233  -0.000234  -0.000438
    18  H   -0.006885  -0.000319   0.000077  -0.000292   0.000011  -0.000149
    19  H    0.565979  -0.007352  -0.000298   0.000017   0.000005  -0.000001
    20  H   -0.007352   0.566095  -0.006840  -0.000003  -0.000001   0.000000
    21  H   -0.000298  -0.006840   0.564951   0.000044   0.000006  -0.000002
    22  C    0.000017  -0.000003   0.000044   5.027388   0.404680   0.399706
    23  H    0.000005  -0.000001   0.000006   0.404680   0.549487  -0.022658
    24  H   -0.000001   0.000000  -0.000002   0.399706  -0.022658   0.577005
    25  H   -0.000006   0.000000   0.000001   0.399702  -0.022650  -0.026746
    26  C    0.000017  -0.000003   0.000044  -0.091565   0.011629  -0.004231
    27  H   -0.000006   0.000000   0.000001  -0.004302  -0.000168   0.000044
    28  H   -0.000001   0.000000  -0.000002  -0.004226  -0.000171   0.001828
    29  H    0.000005  -0.000001   0.000006   0.011632  -0.000447  -0.000170
              25         26         27         28         29
     1  C   -0.031841   0.280177  -0.031814  -0.031862  -0.034453
     2  C   -0.024144  -0.029883  -0.024125   0.016155  -0.006119
     3  C   -0.000396  -0.004516  -0.000401  -0.000268   0.001968
     4  C   -0.000281  -0.004528  -0.000277  -0.000396   0.001939
     5  C    0.016209  -0.029880   0.016197  -0.024127  -0.006120
     6  C   -0.000436  -0.001253  -0.000436   0.005860  -0.000237
     7  C   -0.000005   0.001543  -0.000005  -0.000450   0.000082
     8  C    0.000006  -0.000366   0.000006   0.000109  -0.000109
     9  C    0.000001   0.000373   0.000001  -0.000108   0.000091
    10  H   -0.000002   0.000044  -0.000002   0.000001   0.000006
    11  H    0.000000  -0.000003   0.000000   0.000000  -0.000001
    12  H   -0.000001   0.000017  -0.000001  -0.000006   0.000005
    13  H   -0.000149  -0.000293  -0.000149   0.002462   0.000009
    14  C   -0.000106   0.000373  -0.000107   0.000001   0.000088
    15  C    0.000108  -0.000368   0.000108   0.000006  -0.000108
    16  C   -0.000449   0.001548  -0.000450  -0.000005   0.000080
    17  C    0.005856  -0.001263   0.005852  -0.000436  -0.000235
    18  H    0.002459  -0.000293   0.002454  -0.000149   0.000012
    19  H   -0.000006   0.000017  -0.000006  -0.000001   0.000005
    20  H    0.000000  -0.000003   0.000000   0.000000  -0.000001
    21  H    0.000001   0.000044   0.000001  -0.000002   0.000006
    22  C    0.399702  -0.091565  -0.004302  -0.004226   0.011632
    23  H   -0.022650   0.011629  -0.000168  -0.000171  -0.000447
    24  H   -0.026746  -0.004231   0.000044   0.001828  -0.000170
    25  H    0.577026  -0.004295   0.001837   0.000044  -0.000169
    26  C   -0.004295   5.027422   0.399683   0.399679   0.404696
    27  H    0.001837   0.399683   0.577041  -0.026742  -0.022661
    28  H    0.000044   0.399679  -0.026742   0.577016  -0.022651
    29  H   -0.000169   0.404696  -0.022661  -0.022651   0.549479
 Mulliken charges:
               1
     1  C    0.269325
     2  C   -0.043051
     3  C    0.125770
     4  C    0.125501
     5  C   -0.042300
     6  C   -0.211387
     7  C   -0.105933
     8  C   -0.092716
     9  C   -0.211554
    10  H    0.101996
    11  H    0.106521
    12  H    0.106525
    13  H    0.103079
    14  C   -0.211544
    15  C   -0.092749
    16  C   -0.105910
    17  C   -0.211168
    18  H    0.103060
    19  H    0.106518
    20  H    0.106524
    21  H    0.102013
    22  C   -0.354504
    23  H    0.123373
    24  H    0.108442
    25  H    0.108426
    26  C   -0.354502
    27  H    0.108422
    28  H    0.108438
    29  H    0.123384
 Sum of Mulliken charges =  -0.00000
 Mulliken charges with hydrogens summed into heavy atoms:
               1
     1  C    0.269325
     2  C   -0.043051
     3  C    0.125770
     4  C    0.125501
     5  C   -0.042300
     6  C   -0.108308
     7  C    0.000591
     8  C    0.013806
     9  C   -0.109558
    14  C   -0.109530
    15  C    0.013776
    16  C    0.000608
    17  C   -0.108108
    22  C   -0.014263
    26  C   -0.014259
 Electronic spatial extent (au):  <R**2>=           2921.0049
 Charge=             -0.0000 electrons
 Dipole moment (field-independent basis, Debye):
    X=              0.0000    Y=              0.4995    Z=              0.0007  Tot=              0.4995
 Quadrupole moment (field-independent basis, Debye-Ang):
   XX=            -83.0117   YY=            -81.4028   ZZ=            -94.8651
   XY=              0.0010   XZ=             -0.0003   YZ=             -0.0004
 Traceless Quadrupole moment (field-independent basis, Debye-Ang):
   XX=              3.4148   YY=              5.0237   ZZ=             -8.4386
   XY=              0.0010   XZ=             -0.0003   YZ=             -0.0004
 Octapole moment (field-independent basis, Debye-Ang**2):
  XXX=             -0.0048  YYY=            -11.2151  ZZZ=              0.0003  XYY=             -0.0010
  XXY=             -0.8532  XXZ=              0.0063  XZZ=              0.0008  YZZ=              5.1133
  YYZ=              0.0036  XYZ=             -0.0027
 Hexadecapole moment (field-independent basis, Debye-Ang**3):
 XXXX=          -2303.9628 YYYY=          -1287.5618 ZZZZ=           -286.9994 XXXY=             -0.0008
 XXXZ=             -0.0124 YYYX=              0.0159 YYYZ=             -0.0018 ZZZX=              0.0043
 ZZZY=             -0.0055 XXYY=           -590.7015 XXZZ=           -520.5428 YYZZ=           -292.3650
 XXYZ=             -0.0009 YYXZ=              0.0001 ZZXY=             -0.0045
 N-N= 9.260282672228D+02 E-N=-3.196850923876D+03  KE= 5.768977973833D+02
 No NMR shielding tensors so no spin-rotation constants.
 Leave Link  601 at Wed Mar 11 12:13:19 2026, MaxMem=   104857600 cpu:               0.3 elap:               0.3
 (Enter /sw/cluster/pub/apps//g16/l701.exe)
 ... and contract with generalized density number  0.
 Compute integral first derivatives.
   1 Symmetry operations used in ECPInt.
 ECPInt:  NShTT=   24531 NPrTT=   74292 LenC2=   23157 LenP2D=   52772.
 LDataN:  DoStor=T MaxTD1= 7 Len=  274
 Leave Link  701 at Wed Mar 11 12:13:20 2026, MaxMem=   104857600 cpu:               0.2 elap:               0.2
 (Enter /sw/cluster/pub/apps//g16/l702.exe)
 L702 exits ... SP integral derivatives will be done elsewhere.
 Leave Link  702 at Wed Mar 11 12:13:20 2026, MaxMem=   104857600 cpu:               0.0 elap:               0.0
 (Enter /sw/cluster/pub/apps//g16/l703.exe)
 Integral derivatives from FoFJK, PRISM(SPDF).
 Compute integral first derivatives, UseDBF=F ICtDFT=           0.
 Calling FoFJK, ICntrl=      2127 FMM=F ISym2X=0 I1Cent= 0 IOpClX= 0 NMat=1 NMatS=1 NMatT=0.
 FoFJK:  IHMeth= 1 ICntrl=    2127 DoSepK=F KAlg= 0 I1Cent=           0 FoldK=F
 IRaf=         0 NMat=       1 IRICut=       1 DoRegI=T DoRafI=F ISym2E= 0 IDoP0=0 IntGTp=1.
 FoFCou: FMM=F IPFlag=           0 FMFlag=      100000 FMFlg1=         800
         NFxFlg=           0 DoJE=F BraDBF=F KetDBF=F FulRan=T
         wScrn=  0.000000 ICntrl=      2127 IOpCl=  0 I1Cent=           0 NGrid=           0
         NMat0=    1 NMatS0=      1 NMatT0=    0 NMatD0=    1 NMtDS0=    0 NMtDT0=    0
 Symmetry not used in FoFCou.
 Leave Link  703 at Wed Mar 11 12:18:13 2026, MaxMem=   104857600 cpu:             293.1 elap:             293.5
 (Enter /sw/cluster/pub/apps//g16/l716.exe)
 Dipole        = 9.09878864D-06 1.96535895D-01 2.67212906D-04
 ***** Axes restored to original set *****
 -------------------------------------------------------------------
 Center     Atomic                   Forces (Hartrees/Bohr)
 Number     Number              X              Y              Z
 -------------------------------------------------------------------
      1        6          -0.000054911   -0.000326072    0.000012383
      2        6           0.002721746    0.001099772    0.000009804
      3        6           0.000419954   -0.002150472    0.000048977
      4        6          -0.002241128    0.000163176   -0.000023831
      5        6           0.000592807    0.002758550   -0.000068504
      6        6           0.002333090    0.001031409   -0.000004920
      7        6           0.002015131   -0.001187097    0.000039586
      8        6           0.000190477   -0.002342668    0.000036456
      9        6          -0.002290798   -0.000942431    0.000009269
     10        1          -0.002473791   -0.001259367    0.000006986
     11        1          -0.000098163   -0.002787146    0.000047103
     12        1           0.002456786   -0.001324468    0.000044638
     13        1           0.002244880    0.001617289   -0.000005904
     14        6          -0.000692954   -0.002464295    0.000035779
     15        6          -0.002350597   -0.000136722   -0.000008524
     16        6          -0.001403323    0.001848776   -0.000047120
     17        6           0.000691926    0.002482743   -0.000044328
     18        1           0.001275868    0.002414687   -0.000032761
     19        1          -0.001640198    0.002263189   -0.000050452
     20        1          -0.002751046   -0.000460662   -0.000011582
     21        1          -0.000874440   -0.002614874    0.000040888
     22        6          -0.000390346   -0.000399047    0.000431278
     23        1          -0.000858504   -0.001033437   -0.002251627
     24        1           0.002776076   -0.000172454   -0.000155468
     25        1          -0.000536384    0.002718765   -0.000200082
     26        6          -0.000397442   -0.000432167   -0.000446325
     27        1          -0.000544065    0.002764806    0.000111087
     28        1           0.002783548   -0.000178274    0.000206238
     29        1          -0.000904199   -0.000951509    0.002270958
 -------------------------------------------------------------------
 Cartesian Forces:  Max     0.002787146 RMS     0.001446208
 Leave Link  716 at Wed Mar 11 12:18:13 2026, MaxMem=   104857600 cpu:               0.0 elap:               0.0
 (Enter /sw/cluster/pub/apps//g16/l103.exe)

 GradGradGradGradGradGradGradGradGradGradGradGradGradGradGradGradGradGrad
 Berny optimization.
 FormGI is forming the generalized inverse of G from B-inverse, IUseBI=4.
 Internal  Forces:  Max     0.005379112 RMS     0.001655417
 Search for a local minimum.
 Step number   1 out of a maximum of  174
 All quantities printed in internal units (Hartrees-Bohrs-Radians)
 RMS Force = .16554D-02 SwitMx=.10000D-02 MixMth= 1
 Mixed Optimization -- RFO/linear search
 Second derivative matrix not updated -- first step.
 ITU=  0
     Eigenvalues ---    0.00230   0.00230   0.00755   0.01247   0.01447
     Eigenvalues ---    0.01649   0.01717   0.01880   0.02096   0.02097
     Eigenvalues ---    0.02113   0.02113   0.02118   0.02119   0.02135
     Eigenvalues ---    0.02135   0.02145   0.02146   0.02160   0.02161
     Eigenvalues ---    0.04412   0.05430   0.05430   0.05498   0.05499
     Eigenvalues ---    0.05969   0.08008   0.11622   0.16000   0.16000
     Eigenvalues ---    0.16000   0.16000   0.16000   0.16000   0.16000
     Eigenvalues ---    0.16000   0.16000   0.16000   0.16000   0.16000
     Eigenvalues ---    0.16000   0.16000   0.18959   0.22000   0.22000
     Eigenvalues ---    0.22600   0.22628   0.24494   0.24596   0.25000
     Eigenvalues ---    0.28039   0.28040   0.28507   0.29046   0.34098
     Eigenvalues ---    0.34102   0.34104   0.34106   0.34282   0.34283
     Eigenvalues ---    0.34531   0.35074   0.35080   0.35140   0.35144
     Eigenvalues ---    0.35181   0.35181   0.35184   0.35185   0.37944
     Eigenvalues ---    0.40615   0.42113   0.42123   0.44326   0.44713
     Eigenvalues ---    0.45815   0.45816   0.46110   0.46111   0.46877
     Eigenvalues ---    0.46883
 RFO step:  Lambda=-1.11354799D-03 EMin= 2.30000000D-03
 Linear search not attempted -- first point.
 Iteration  1 RMS(Cart)=  0.00901208 RMS(Int)=  0.00000234
 Iteration  2 RMS(Cart)=  0.00000293 RMS(Int)=  0.00000030
 Iteration  3 RMS(Cart)=  0.00000000 RMS(Int)=  0.00000030
 ITry= 1 IFail=0 DXMaxC= 3.26D-02 DCOld= 1.00D+10 DXMaxT= 3.00D-01 DXLimC= 3.00D+00 Rises=F
 Variable       Old X    -DE/DX   Delta X   Delta X   Delta X     New X
                                 (Linear)    (Quad)   (Total)
    R1        2.88883  -0.00263   0.00000  -0.00819  -0.00819   2.88063
    R2        2.88841  -0.00258   0.00000  -0.00800  -0.00800   2.88041
    R3        2.92052  -0.00264   0.00000  -0.00937  -0.00937   2.91115
    R4        2.92053  -0.00263   0.00000  -0.00934  -0.00934   2.91119
    R5        2.66325  -0.00513   0.00000  -0.01173  -0.01173   2.65151
    R6        2.62762  -0.00513   0.00000  -0.01078  -0.01078   2.61684
    R7        2.77576  -0.00267   0.00000  -0.00815  -0.00814   2.76762
    R8        2.63863  -0.00465   0.00000  -0.01002  -0.01002   2.62861
    R9        2.66305  -0.00506   0.00000  -0.01156  -0.01156   2.65150
   R10        2.63866  -0.00467   0.00000  -0.01005  -0.01005   2.62861
   R11        2.62755  -0.00509   0.00000  -0.01071  -0.01071   2.61684
   R12        2.64570  -0.00518   0.00000  -0.01134  -0.01134   2.63435
   R13        2.05555  -0.00275   0.00000  -0.00782  -0.00782   2.04773
   R14        2.64321  -0.00534   0.00000  -0.01169  -0.01169   2.63152
   R15        2.05375  -0.00279   0.00000  -0.00791  -0.00791   2.04585
   R16        2.63942  -0.00532   0.00000  -0.01155  -0.01155   2.62787
   R17        2.05382  -0.00279   0.00000  -0.00790  -0.00790   2.04593
   R18        2.05449  -0.00277   0.00000  -0.00786  -0.00786   2.04663
   R19        2.63939  -0.00531   0.00000  -0.01153  -0.01153   2.62786
   R20        2.05441  -0.00275   0.00000  -0.00780  -0.00780   2.04662
   R21        2.64327  -0.00538   0.00000  -0.01177  -0.01177   2.63151
   R22        2.05382  -0.00279   0.00000  -0.00790  -0.00790   2.04593
   R23        2.64571  -0.00518   0.00000  -0.01135  -0.01135   2.63436
   R24        2.05377  -0.00279   0.00000  -0.00792  -0.00792   2.04585
   R25        2.05546  -0.00272   0.00000  -0.00772  -0.00772   2.04773
   R26        2.06855  -0.00262   0.00000  -0.00761  -0.00761   2.06094
   R27        2.07155  -0.00278   0.00000  -0.00813  -0.00813   2.06342
   R28        2.07152  -0.00278   0.00000  -0.00811  -0.00811   2.06341
   R29        2.07164  -0.00282   0.00000  -0.00823  -0.00823   2.06341
   R30        2.07159  -0.00279   0.00000  -0.00816  -0.00816   2.06342
   R31        2.06856  -0.00262   0.00000  -0.00761  -0.00761   2.06095
    A1        1.76651  -0.00034   0.00000  -0.00130  -0.00130   1.76521
    A2        1.94379   0.00012   0.00000   0.00043   0.00043   1.94422
    A3        1.94345   0.00014   0.00000   0.00062   0.00062   1.94408
    A4        1.94438   0.00011   0.00000  -0.00005  -0.00005   1.94433
    A5        1.94430   0.00010   0.00000  -0.00009  -0.00009   1.94420
    A6        1.91768  -0.00013   0.00000   0.00029   0.00029   1.91797
    A7        1.93555  -0.00006   0.00000   0.00060   0.00060   1.93615
    A8        2.24948   0.00003   0.00000  -0.00045  -0.00045   2.24903
    A9        2.09815   0.00003   0.00000  -0.00015  -0.00015   2.09800
   A10        1.89349   0.00025   0.00000   0.00011   0.00011   1.89360
   A11        2.10492  -0.00025   0.00000  -0.00048  -0.00048   2.10444
   A12        2.28477   0.00001   0.00000   0.00037   0.00037   2.28514
   A13        1.89343   0.00025   0.00000   0.00014   0.00015   1.89357
   A14        2.28529  -0.00007   0.00000   0.00005   0.00005   2.28534
   A15        2.10447  -0.00019   0.00000  -0.00019  -0.00019   2.10428
   A16        1.93580  -0.00010   0.00000   0.00045   0.00045   1.93624
   A17        2.24885   0.00013   0.00000  -0.00007  -0.00007   2.24878
   A18        2.09854  -0.00003   0.00000  -0.00037  -0.00037   2.09816
   A19        2.08040   0.00005   0.00000   0.00031   0.00031   2.08071
   A20        2.10946   0.00028   0.00000   0.00172   0.00172   2.11118
   A21        2.09333  -0.00033   0.00000  -0.00203  -0.00203   2.09129
   A22        2.10333   0.00008   0.00000   0.00020   0.00020   2.10352
   A23        2.08979   0.00004   0.00000   0.00042   0.00042   2.09021
   A24        2.09007  -0.00012   0.00000  -0.00062  -0.00062   2.08945
   A25        2.10420   0.00001   0.00000  -0.00021  -0.00021   2.10399
   A26        2.08954  -0.00013   0.00000  -0.00068  -0.00068   2.08886
   A27        2.08945   0.00012   0.00000   0.00089   0.00089   2.09033
   A28        2.07544   0.00007   0.00000   0.00027   0.00027   2.07570
   A29        2.10883   0.00014   0.00000   0.00096   0.00096   2.10979
   A30        2.09892  -0.00021   0.00000  -0.00123  -0.00123   2.09769
   A31        2.07524   0.00011   0.00000   0.00042   0.00042   2.07566
   A32        2.10849   0.00017   0.00000   0.00116   0.00116   2.10965
   A33        2.09946  -0.00027   0.00000  -0.00158  -0.00158   2.09788
   A34        2.10409   0.00001   0.00000  -0.00018  -0.00018   2.10391
   A35        2.08960   0.00012   0.00000   0.00085   0.00085   2.09045
   A36        2.08950  -0.00013   0.00000  -0.00068  -0.00068   2.08883
   A37        2.10357   0.00005   0.00000   0.00005   0.00005   2.10362
   A38        2.08995  -0.00011   0.00000  -0.00053  -0.00054   2.08941
   A39        2.08967   0.00006   0.00000   0.00049   0.00049   2.09016
   A40        2.08040   0.00006   0.00000   0.00034   0.00034   2.08074
   A41        2.10970   0.00025   0.00000   0.00158   0.00158   2.11128
   A42        2.09308  -0.00031   0.00000  -0.00192  -0.00192   2.09117
   A43        1.93948  -0.00017   0.00000  -0.00112  -0.00112   1.93836
   A44        1.93189  -0.00015   0.00000  -0.00093  -0.00094   1.93096
   A45        1.93145  -0.00010   0.00000  -0.00059  -0.00059   1.93086
   A46        1.88840   0.00016   0.00000   0.00089   0.00089   1.88929
   A47        1.88848   0.00014   0.00000   0.00086   0.00086   1.88934
   A48        1.88231   0.00015   0.00000   0.00103   0.00103   1.88334
   A49        1.93162  -0.00013   0.00000  -0.00077  -0.00077   1.93085
   A50        1.93190  -0.00015   0.00000  -0.00091  -0.00091   1.93099
   A51        1.93935  -0.00016   0.00000  -0.00100  -0.00100   1.93835
   A52        1.88238   0.00015   0.00000   0.00097   0.00097   1.88335
   A53        1.88837   0.00015   0.00000   0.00094   0.00094   1.88931
   A54        1.88839   0.00015   0.00000   0.00090   0.00090   1.88929
    D1       -0.00026   0.00000   0.00000   0.00022   0.00022  -0.00004
    D2        3.14150   0.00000   0.00000   0.00008   0.00008   3.14158
    D3       -2.06842   0.00001   0.00000   0.00081   0.00081  -2.06761
    D4        1.07334   0.00001   0.00000   0.00067   0.00067   1.07401
    D5        2.06765  -0.00001   0.00000  -0.00033  -0.00033   2.06732
    D6       -1.07378  -0.00001   0.00000  -0.00047  -0.00047  -1.07425
    D7        0.00022  -0.00000   0.00000  -0.00020  -0.00020   0.00002
    D8        3.14148   0.00001   0.00000   0.00014   0.00014  -3.14156
    D9        2.06795  -0.00000   0.00000  -0.00044  -0.00044   2.06751
   D10       -1.07397   0.00000   0.00000  -0.00011  -0.00010  -1.07408
   D11       -2.06708  -0.00002   0.00000  -0.00016  -0.00016  -2.06724
   D12        1.07418  -0.00001   0.00000   0.00017   0.00017   1.07435
   D13        0.97876  -0.00014   0.00000  -0.00020  -0.00020   0.97856
   D14        3.07752  -0.00016   0.00000  -0.00045  -0.00045   3.07708
   D15       -1.11981  -0.00014   0.00000  -0.00015  -0.00015  -1.11996
   D16       -0.97933   0.00013   0.00000   0.00117   0.00117  -0.97816
   D17        1.11943   0.00012   0.00000   0.00092   0.00092   1.12035
   D18       -3.07790   0.00014   0.00000   0.00122   0.00122  -3.07668
   D19        3.14056   0.00003   0.00000   0.00111   0.00111  -3.14151
   D20       -1.04386   0.00001   0.00000   0.00086   0.00086  -1.04300
   D21        1.04199   0.00003   0.00000   0.00116   0.00116   1.04315
   D22        1.12067   0.00014   0.00000  -0.00050  -0.00050   1.12017
   D23       -3.07646   0.00015   0.00000  -0.00037  -0.00037  -3.07683
   D24       -0.97779   0.00014   0.00000  -0.00051  -0.00051  -0.97830
   D25        3.07851  -0.00014   0.00000  -0.00177  -0.00177   3.07675
   D26       -1.11861  -0.00013   0.00000  -0.00164  -0.00164  -1.12026
   D27        0.98006  -0.00014   0.00000  -0.00178  -0.00178   0.97828
   D28       -1.04133  -0.00002   0.00000  -0.00169  -0.00169  -1.04302
   D29        1.04473  -0.00001   0.00000  -0.00157  -0.00157   1.04316
   D30       -3.13978  -0.00002   0.00000  -0.00170  -0.00170  -3.14149
   D31        0.00022  -0.00000   0.00000  -0.00017  -0.00017   0.00004
   D32       -3.14138  -0.00000   0.00000  -0.00015  -0.00016  -3.14154
   D33       -3.14153  -0.00000   0.00000  -0.00005  -0.00005  -3.14157
   D34        0.00006  -0.00000   0.00000  -0.00003  -0.00003   0.00003
   D35        3.14134   0.00000   0.00000   0.00020   0.00020   3.14154
   D36       -0.00017   0.00000   0.00000   0.00009   0.00009  -0.00008
   D37       -0.00008   0.00000   0.00000   0.00005   0.00005  -0.00002
   D38       -3.14159  -0.00000   0.00000  -0.00006  -0.00006   3.14154
   D39       -0.00007   0.00000   0.00000   0.00004   0.00004  -0.00003
   D40       -3.14153  -0.00000   0.00000  -0.00006  -0.00006  -3.14159
   D41        3.14153   0.00000   0.00000   0.00002   0.00002   3.14155
   D42        0.00007  -0.00000   0.00000  -0.00008  -0.00008  -0.00001
   D43        0.00002  -0.00000   0.00000  -0.00004  -0.00004  -0.00002
   D44        3.14157   0.00000   0.00000   0.00001   0.00001   3.14158
   D45       -3.14158  -0.00000   0.00000  -0.00002  -0.00002   3.14158
   D46       -0.00003   0.00000   0.00000   0.00003   0.00003   0.00000
   D47       -0.00011  -0.00000   0.00000   0.00011   0.00011   0.00000
   D48       -3.14140  -0.00001   0.00000  -0.00019  -0.00019   3.14159
   D49        3.14137   0.00000   0.00000   0.00020   0.00020   3.14157
   D50        0.00008  -0.00000   0.00000  -0.00011  -0.00010  -0.00003
   D51        3.14153   0.00000   0.00000   0.00004   0.00004   3.14157
   D52       -0.00007   0.00000   0.00000   0.00007   0.00007  -0.00001
   D53        0.00008  -0.00000   0.00000  -0.00007  -0.00007   0.00001
   D54       -3.14152  -0.00000   0.00000  -0.00004  -0.00004  -3.14157
   D55       -3.14137  -0.00000   0.00000  -0.00022  -0.00022  -3.14158
   D56        0.00009  -0.00000   0.00000  -0.00007  -0.00007   0.00001
   D57       -0.00013   0.00000   0.00000   0.00015   0.00015   0.00001
   D58        3.14132   0.00001   0.00000   0.00029   0.00029  -3.14157
   D59        0.00003  -0.00000   0.00000  -0.00002  -0.00002   0.00002
   D60        3.14157   0.00000   0.00000   0.00004   0.00004  -3.14157
   D61       -3.14142  -0.00000   0.00000  -0.00016  -0.00016  -3.14158
   D62        0.00012  -0.00000   0.00000  -0.00010  -0.00010   0.00002
   D63        0.00012  -0.00000   0.00000  -0.00016  -0.00016  -0.00004
   D64       -3.14157  -0.00000   0.00000  -0.00001  -0.00001  -3.14158
   D65       -3.14142  -0.00000   0.00000  -0.00021  -0.00021   3.14155
   D66        0.00008  -0.00000   0.00000  -0.00007  -0.00007   0.00001
   D67       -0.00017   0.00000   0.00000   0.00020   0.00020   0.00002
   D68        3.14143   0.00000   0.00000   0.00018   0.00018  -3.14158
   D69        3.14151   0.00000   0.00000   0.00005   0.00005   3.14156
   D70       -0.00007   0.00000   0.00000   0.00003   0.00003  -0.00004
   D71       -0.00009   0.00000   0.00000   0.00009   0.00009   0.00000
   D72        3.14156   0.00000   0.00000   0.00005   0.00005  -3.14158
   D73        3.14155   0.00000   0.00000   0.00004   0.00004   3.14158
   D74        0.00001  -0.00000   0.00000  -0.00001  -0.00001  -0.00000
   D75        0.00008  -0.00000   0.00000  -0.00007  -0.00007   0.00001
   D76       -3.14159   0.00000   0.00000   0.00002   0.00002  -3.14157
   D77       -3.14157  -0.00000   0.00000  -0.00002  -0.00002   3.14159
   D78       -0.00005   0.00000   0.00000   0.00006   0.00006   0.00002
   D79        0.00001  -0.00000   0.00000  -0.00000  -0.00000   0.00000
   D80        3.14152   0.00000   0.00000   0.00011   0.00011  -3.14156
   D81       -3.14151  -0.00000   0.00000  -0.00009  -0.00009   3.14158
   D82       -0.00000   0.00000   0.00000   0.00002   0.00002   0.00002
         Item               Value     Threshold  Converged?
 Maximum Force            0.005379     0.000450     NO 
 RMS     Force            0.001655     0.000300     NO 
 Maximum Displacement     0.032586     0.001800     NO 
 RMS     Displacement     0.009013     0.001200     NO 
 Predicted change in Energy=-5.583488D-04
 Lowest energy point so far.  Saving SCF results.
 GradGradGradGradGradGradGradGradGradGradGradGradGradGradGradGradGradGrad

 Leave Link  103 at Wed Mar 11 12:18:13 2026, MaxMem=   104857600 cpu:               0.0 elap:               0.0
 (Enter /sw/cluster/pub/apps//g16/l202.exe)
                          Input orientation:                          
 ---------------------------------------------------------------------
 Center     Atomic      Atomic             Coordinates (Angstroms)
 Number     Number       Type             X           Y           Z
 ---------------------------------------------------------------------
      1          6           0        0.012224    0.007049    0.039711
      2          6           0        1.535794   -0.040688    0.051839
      3          6           0        2.078058    1.253270    0.032741
      4          6           0        0.976656    2.218260    0.007416
      5          6           0       -0.235058    1.510830    0.011085
      6          6           0       -1.440162    2.192644   -0.009954
      7          6           0       -1.433037    3.586446   -0.034755
      8          6           0       -0.229901    4.287601   -0.038416
      9          6           0        0.983721    3.609023   -0.017350
     10          1           0        1.915992    4.160218   -0.020320
     11          1           0       -0.240241    5.370036   -0.057782
     12          1           0       -2.370081    4.128414   -0.051307
     13          1           0       -2.382992    1.658527   -0.007373
     14          6           0        3.456020    1.443162    0.039478
     15          6           0        4.288347    0.329459    0.065490
     16          6           0        3.751234   -0.955180    0.084484
     17          6           0        2.370260   -1.145489    0.077719
     18          1           0        1.964782   -2.150268    0.092716
     19          1           0        4.411727   -1.812736    0.104679
     20          1           0        5.362922    0.461380    0.071044
     21          1           0        3.879770    2.439736    0.024804
     22          6           0       -0.580303   -0.636035    1.307993
     23          1           0       -0.186427   -0.162617    2.208078
     24          1           0       -1.667691   -0.537154    1.317536
     25          1           0       -0.339597   -1.700325    1.348088
     26          6           0       -0.561435   -0.680766   -1.213717
     27          1           0       -0.320552   -1.745772   -1.212370
     28          1           0       -1.648518   -0.582446   -1.243147
     29          1           0       -0.153860   -0.239571   -2.124019
 ---------------------------------------------------------------------
                    Distance matrix (angstroms):
                    1          2          3          4          5
     1  C    0.000000
     2  C    1.524366   0.000000
     3  C    2.412631   1.403119   0.000000
     4  C    2.412598   2.327543   1.464559   0.000000
     5  C    1.524246   2.354737   2.327511   1.403111   0.000000
     6  C    2.624637   3.721278   3.641719   2.417017   1.384771
     7  C    3.860881   4.688023   4.216165   2.771341   2.396964
     8  C    4.288106   4.675458   3.812991   2.395840   2.777217
     9  C    3.731123   3.691878   2.598010   1.391001   2.426653
    10  H    4.569108   4.218693   2.911946   2.157387   3.412808
    11  H    5.369811   5.695810   4.725512   3.379169   3.859824
    12  H    4.761229   5.713835   5.297117   3.853931   3.378455
    13  H    2.909752   4.271736   4.479599   3.405989   2.153086
    14  C    3.731240   2.426774   1.391001   2.597893   3.691807
    15  C    4.288338   2.777362   2.395804   3.812904   4.675445
    16  C    3.861099   2.396984   2.771181   4.216034   4.687975
    17  C    2.624904   1.384770   2.416909   3.641687   3.721310
    18  H    2.910208   2.153144   3.405951   4.479700   4.271955
    19  H    4.761456   3.378451   3.853775   5.296990   5.713795
    20  H    5.370044   3.859968   3.379185   4.725463   5.695816
    21  H    4.569037   3.412837   2.157297   2.911602   4.218396
    22  C    1.540514   2.531842   3.501803   3.501803   2.531836
    23  H    2.184048   2.762296   3.444521   3.444453   2.762168
    24  H    2.179703   3.480055   4.345912   4.037487   2.820194
    25  H    2.179623   2.819884   4.037192   4.345715   3.479947
    26  C    1.540537   2.531739   3.501582   3.501606   2.531749
    27  H    2.179640   2.819851   4.037064   4.345594   3.479887
    28  H    2.179746   3.479990   4.345700   4.037252   2.820066
    29  H    2.184064   2.762037   3.444074   3.444128   2.762094
                    6          7          8          9         10
     6  C    0.000000
     7  C    1.394040   0.000000
     8  C    2.419584   1.392540   0.000000
     9  C    2.807382   2.416926   1.390607   0.000000
    10  H    3.890401   3.397855   2.149746   1.083030   0.000000
    11  H    3.396751   2.145807   1.082658   2.144967   2.472732
    12  H    2.147944   1.082615   2.146131   3.393951   4.286302
    13  H    1.083613   2.149426   3.398352   3.890924   4.973921
    14  C    4.953460   5.338731   4.656491   3.287316   3.123725
    15  C    6.024364   6.584242   6.007682   4.656496   4.506678
    16  C    6.071927   6.893275   6.584169   5.338674   5.435659
    17  C    5.066570   6.071978   6.024349   4.953475   5.326021
    18  H    5.519517   6.668681   6.802939   5.843289   6.311687
    19  H    7.092307   7.958132   7.666765   6.415730   6.474604
    20  H    7.020384   7.480794   6.777287   5.393781   5.056785
    21  H    5.325781   5.435477   4.506440   3.123478   2.611230
    22  C    3.236938   4.512147   5.116423   4.714151   5.567759
    23  H    3.469693   4.543106   4.985285   4.532885   5.298380
    24  H    3.043977   4.346013   5.213838   5.099283   6.057883
    25  H    4.267404   5.572954   6.147332   5.639572   6.426989
    26  C    3.236927   4.512065   5.116241   4.713925   5.567492
    27  H    4.267371   5.572876   6.147193   5.639418   6.426806
    28  H    3.043896   4.345837   5.213560   5.098987   6.057549
    29  H    3.469801   4.543096   4.985058   4.532529   5.297922
                   11         12         13         14         15
    11  H    0.000000
    12  H    2.465336   0.000000
    13  H    4.285933   2.470311   0.000000
    14  C    5.393713   6.415782   5.843170   0.000000
    15  C    6.777221   7.666835   6.802830   1.390604   0.000000
    16  C    7.480673   7.958131   6.668480   2.416862   1.392533
    17  C    7.020338   7.092357   5.519343   2.807392   2.419644
    18  H    7.838351   7.631096   5.781010   3.890934   3.398344
    19  H    8.559171   9.017456   7.630887   3.393892   2.146103
    20  H    7.450298   8.559289   7.838271   2.145034   1.082657
    21  H    5.056479   6.474416   6.311380   1.083023   2.149851
    22  C    6.168782   5.267919   3.200765   4.714243   5.116614
    23  H    5.978902   5.318469   3.612436   4.533075   4.985622
    24  H    6.230891   4.912698   2.662340   5.639813   6.147603
    25  H    7.209463   6.328932   4.158682   5.099086   5.213726
    26  C    6.168595   5.267884   3.200879   4.713970   5.116377
    27  H    7.209317   6.328878   4.158718   5.098914   5.213585
    28  H    6.230600   4.912569   2.662434   5.639549   6.147395
    29  H    5.978670   5.318558   3.612755   4.532499   4.985073
                   16         17         18         19         20
    16  C    0.000000
    17  C    1.394042   0.000000
    18  H    2.149352   1.083614   0.000000
    19  H    1.082618   2.147914   2.470144   0.000000
    20  H    2.145778   3.396778   4.285853   2.465261   0.000000
    21  H    3.397872   3.890406   4.973925   4.286359   2.473008
    22  C    4.512320   3.237119   3.201133   5.268107   6.168978
    23  H    4.543455   3.470031   3.612923   5.318853   5.979261
    24  H    5.573142   4.267583   4.158988   6.329096   7.209739
    25  H    4.345898   3.043847   2.662436   4.912614   6.230773
    26  C    4.512177   3.237068   3.201246   5.268004   6.168721
    27  H    4.345838   3.043869   2.662634   4.912593   6.230614
    28  H    5.573047   4.267584   4.159150   6.329045   7.209505
    29  H    4.543054   3.469801   3.612938   5.318508   5.978672
                   21         22         23         24         25
    21  H    0.000000
    22  C    5.567691   0.000000
    23  H    5.298386   1.090603   0.000000
    24  H    6.427080   1.091917   1.768470   0.000000
    25  H    6.057577   1.091907   1.768499   1.765711   0.000000
    26  C    5.567385   2.522177   3.481061   2.766164   2.766145
    27  H    6.057374   2.766084   3.771450   3.110622   2.560933
    28  H    6.426760   2.766274   3.771594   2.561155   3.110857
    29  H    5.297764   3.481055   4.332903   3.771544   3.771450
                   26         27         28         29
    26  C    0.000000
    27  H    1.091909   0.000000
    28  H    1.091916   1.765720   0.000000
    29  H    1.090606   1.768483   1.768474   0.000000
 Stoichiometry    C15H14
 Framework group  C1[X(C15H14)]
 Deg. of freedom    81
 Full point group                 C1      NOp   1
 RotChk:  IX=0 Diff= 1.72D-04
 Largest Abelian subgroup         C1      NOp   1
 Largest concise Abelian subgroup C1      NOp   1
                         Standard orientation:                         
 ---------------------------------------------------------------------
 Center     Atomic      Atomic             Coordinates (Angstroms)
 Number     Number       Type             X           Y           Z
 ---------------------------------------------------------------------
      1          6           0       -0.000148    1.412015   -0.000018
      2          6           0        1.177373    0.443955   -0.000053
      3          6           0        0.732367   -0.886726   -0.000025
      4          6           0       -0.732192   -0.886842   -0.000033
      5          6           0       -1.177364    0.443776   -0.000029
      6          6           0       -2.533276    0.725009   -0.000039
      7          6           0       -3.446632   -0.328143   -0.000037
      8          6           0       -3.003776   -1.648388   -0.000001
      9          6           0       -1.643590   -1.937668   -0.000013
     10          1           0       -1.305638   -2.966620    0.000008
     11          1           0       -3.725035   -2.455813   -0.000012
     12          1           0       -4.508726   -0.118354   -0.000063
     13          1           0       -2.890428    1.748072   -0.000053
     14          6           0        1.643725   -1.937587    0.000018
     15          6           0        3.003906   -1.648297    0.000005
     16          6           0        3.446643   -0.328020   -0.000046
     17          6           0        2.533294    0.725140   -0.000077
     18          1           0        2.890582    1.748157   -0.000150
     19          1           0        4.508730   -0.118178   -0.000077
     20          1           0        3.725263   -2.455632    0.000028
     21          1           0        1.305592   -2.966472    0.000050
     22          6           0       -0.000157    2.296990   -1.260971
     23          1           0       -0.000263    1.689065   -2.166422
     24          1           0       -0.882950    2.939318   -1.280296
     25          1           0        0.882761    2.939130   -1.280310
     26          6           0       -0.000113    2.296644    1.261206
     27          1           0        0.882739    2.938874    1.280623
     28          1           0       -0.882981    2.938858    1.280859
     29          1           0       -0.000001    1.688450    2.166481
 ---------------------------------------------------------------------
 Rotational constants (GHZ):           1.0633875           0.5533800           0.3948167
 Leave Link  202 at Wed Mar 11 12:18:13 2026, MaxMem=   104857600 cpu:               0.0 elap:               0.0
 (Enter /sw/cluster/pub/apps//g16/l301.exe)
 Standard basis: def2TZVP (5D, 7F)
 Ernie: Thresh=  0.10000D-02 Tol=  0.10000D-05 Strict=F.
 There are   624 symmetry adapted cartesian basis functions of A   symmetry.
 There are   549 symmetry adapted basis functions of A   symmetry.
   549 basis functions,   877 primitive gaussians,   624 cartesian basis functions
    52 alpha electrons       52 beta electrons
       nuclear repulsion energy       929.5039679037 Hartrees.
 IExCor=  402 DFT=T Ex+Corr=B3LYP ExCW=0 ScaHFX=  0.200000
 ScaDFX=  0.800000  0.720000  1.000000  0.810000 ScalE2=  1.000000  1.000000
 IRadAn=      5 IRanWt=     -1 IRanGd=            0 ICorTp=0 IEmpDi=  4
 NAtoms=   29 NActive=   29 NUniq=   29 SFac= 1.00D+00 NAtFMM=   60 NAOKFM=F Big=F
 Integral buffers will be    131072 words long.
 Raffenetti 2 integral format.
 Two-electron integral symmetry is turned on.
 Leave Link  301 at Wed Mar 11 12:18:13 2026, MaxMem=   104857600 cpu:               0.0 elap:               0.0
 (Enter /sw/cluster/pub/apps//g16/l302.exe)
 NPDir=0 NMtPBC=     1 NCelOv=     1 NCel=       1 NClECP=     1 NCelD=      1
         NCelK=      1 NCelE2=     1 NClLst=     1 CellRange=     0.0.
 One-electron integrals computed using PRISM.
 One-electron integral symmetry used in STVInt
   1 Symmetry operations used in ECPInt.
 ECPInt:  NShTT=   24531 NPrTT=   74292 LenC2=   23181 LenP2D=   52846.
 LDataN:  DoStor=T MaxTD1= 6 Len=  172
 NBasis=   549 RedAO= T EigKep=  6.00D-06  NBF=   549
 NBsUse=   549 1.00D-06 EigRej= -1.00D+00 NBFU=   549
 Precomputing XC quadrature grid using
 IXCGrd= 4 IRadAn=           5 IRanWt=          -1 IRanGd=           0 AccXCQ= 0.00D+00.
 Generated NRdTot=       0 NPtTot=           0 NUsed=           0 NTot=          32
 NSgBfM=   618   618   618   618   618 MxSgAt=    29 MxSgA2=    29.
 Leave Link  302 at Wed Mar 11 12:18:14 2026, MaxMem=   104857600 cpu:               0.6 elap:               0.6
 (Enter /sw/cluster/pub/apps//g16/l303.exe)
 DipDrv:  MaxL=1.
 Leave Link  303 at Wed Mar 11 12:18:14 2026, MaxMem=   104857600 cpu:               0.0 elap:               0.0
 (Enter /sw/cluster/pub/apps//g16/l401.exe)
 Initial guess from the checkpoint file:  "f1-def2TZVP.chk"
 B after Tr=     0.000000    0.000000   -0.000000
         Rot=    1.000000    0.000030    0.000006   -0.000044 Ang=   0.01 deg.
 Guess basis will be translated and rotated to current coordinates.
 JPrj=2 DoOrth=T DoCkMO=T.
 Generating alternative initial guess.
 ExpMin= 9.52D-02 ExpMax= 1.36D+04 ExpMxC= 4.63D+02 IAcc=2 IRadAn=         4 AccDes= 0.00D+00
 Harris functional with IExCor=  402 and IRadAn=       4 diagonalized for initial guess.
 HarFok:  IExCor=  402 AccDes= 0.00D+00 IRadAn=         4 IDoV= 1 UseB2=F ITyADJ=14
 ICtDFT=  3500011 ScaDFX=  1.000000  1.000000  1.000000  1.000000
 FoFCou: FMM=F IPFlag=           0 FMFlag=      100000 FMFlg1=           0
         NFxFlg=           0 DoJE=T BraDBF=F KetDBF=T FulRan=T
         wScrn=  0.000000 ICntrl=       500 IOpCl=  0 I1Cent=   200000004 NGrid=           0
         NMat0=    1 NMatS0=      1 NMatT0=    0 NMatD0=    1 NMtDS0=    0 NMtDT0=    0
 Petite list used in FoFCou.
 Harris En= -580.341837343171    
 Leave Link  401 at Wed Mar 11 12:18:18 2026, MaxMem=   104857600 cpu:               3.9 elap:               3.9
 (Enter /sw/cluster/pub/apps//g16/l502.exe)
 Integral symmetry usage will be decided dynamically.
 Closed shell SCF:
 Using DIIS extrapolation, IDIIS=  1040.
 NGot=   104857600 LenX=   104069519 LenY=   103679519
 Requested convergence on RMS density matrix=1.00D-08 within 128 cycles.
 Requested convergence on MAX density matrix=1.00D-06.
 Requested convergence on             energy=1.00D-06.
 No special actions if energy rises.
 Fock matrices will be formed incrementally for  20 cycles.
 Integral accuracy reduced to 1.0D-05 until final iterations.

 Cycle   1  Pass 0  IDiag  1:
 FoFJK:  IHMeth= 1 ICntrl=       0 DoSepK=F KAlg= 0 I1Cent=           0 FoldK=F
 IRaf= 900000000 NMat=       1 IRICut=       1 DoRegI=T DoRafI=F ISym2E= 0 IDoP0=0 IntGTp=1.
 FoFCou: FMM=F IPFlag=           0 FMFlag=      100000 FMFlg1=           0
         NFxFlg=           0 DoJE=F BraDBF=F KetDBF=F FulRan=T
         wScrn=  0.000000 ICntrl=         0 IOpCl=  0 I1Cent=           0 NGrid=           0
         NMat0=    1 NMatS0=      1 NMatT0=    0 NMatD0=    1 NMtDS0=    0 NMtDT0=    0
 Symmetry not used in FoFCou.
 E= -580.257162516214    
 DIIS: error= 5.15D-04 at cycle   1 NSaved=   1.
 NSaved= 1 IEnMin= 1 EnMin= -580.257162516214     IErMin= 1 ErrMin= 5.15D-04
 ErrMax= 5.15D-04  0.00D+00 EMaxC= 1.00D-01 BMatC= 2.35D-04 BMatP= 2.35D-04
 IDIUse=3 WtCom= 9.95D-01 WtEn= 5.15D-03
 Coeff-Com:  0.100D+01
 Coeff-En:   0.100D+01
 Coeff:      0.100D+01
 Gap=     0.683 Goal=   None    Shift=    0.000
 RMSDP=1.43D-03 MaxDP=4.32D-02              OVMax= 1.93D-03

 Cycle   2  Pass 0  IDiag  1:
 RMSU=  1.42D-03    CP:  1.01D+00
 E= -580.257299132089     Delta-E=       -0.000136615876 Rises=F Damp=F
 DIIS: error= 2.26D-04 at cycle   2 NSaved=   2.
 NSaved= 2 IEnMin= 2 EnMin= -580.257299132089     IErMin= 2 ErrMin= 2.26D-04
 ErrMax= 2.26D-04  0.00D+00 EMaxC= 1.00D-01 BMatC= 2.63D-05 BMatP= 2.35D-04
 IDIUse=3 WtCom= 9.98D-01 WtEn= 2.26D-03
 Coeff-Com:  0.164D+00 0.836D+00
 Coeff-En:   0.000D+00 0.100D+01
 Coeff:      0.164D+00 0.836D+00
 Gap=     0.180 Goal=   None    Shift=    0.000
 RMSDP=2.27D-04 MaxDP=1.02D-02 DE=-1.37D-04 OVMax= 1.44D-03

 Cycle   3  Pass 0  IDiag  1:
 RMSU=  2.27D-04    CP:  1.01D+00  1.00D+00
 E= -580.257305113775     Delta-E=       -0.000005981685 Rises=F Damp=F
 DIIS: error= 1.83D-04 at cycle   3 NSaved=   3.
 NSaved= 3 IEnMin= 3 EnMin= -580.257305113775     IErMin= 3 ErrMin= 1.83D-04
 ErrMax= 1.83D-04  0.00D+00 EMaxC= 1.00D-01 BMatC= 1.66D-05 BMatP= 2.63D-05
 IDIUse=3 WtCom= 9.98D-01 WtEn= 1.83D-03
 Coeff-Com:  0.952D-02 0.441D+00 0.550D+00
 Coeff-En:   0.000D+00 0.435D+00 0.565D+00
 Coeff:      0.950D-02 0.441D+00 0.550D+00
 Gap=     0.181 Goal=   None    Shift=    0.000
 RMSDP=1.09D-04 MaxDP=5.80D-03 DE=-5.98D-06 OVMax= 1.12D-03

 Cycle   4  Pass 0  IDiag  1:
 RMSU=  9.90D-05    CP:  1.01D+00  1.03D+00  9.99D-01
 E= -580.257313629039     Delta-E=       -0.000008515264 Rises=F Damp=F
 DIIS: error= 7.67D-05 at cycle   4 NSaved=   4.
 NSaved= 4 IEnMin= 4 EnMin= -580.257313629039     IErMin= 4 ErrMin= 7.67D-05
 ErrMax= 7.67D-05  0.00D+00 EMaxC= 1.00D-01 BMatC= 1.50D-06 BMatP= 1.66D-05
 IDIUse=1 WtCom= 1.00D+00 WtEn= 0.00D+00
 Coeff-Com:  0.156D-02 0.236D+00 0.334D+00 0.428D+00
 Coeff:      0.156D-02 0.236D+00 0.334D+00 0.428D+00
 Gap=     0.181 Goal=   None    Shift=    0.000
 RMSDP=4.79D-05 MaxDP=2.26D-03 DE=-8.52D-06 OVMax= 5.26D-04

 Cycle   5  Pass 0  IDiag  1:
 RMSU=  3.02D-05    CP:  1.01D+00  1.03D+00  1.05D+00  1.35D+00
 E= -580.257309242030     Delta-E=        0.000004387008 Rises=F Damp=F
 DIIS: error= 3.45D-05 at cycle   5 NSaved=   5.
 NSaved= 5 IEnMin= 4 EnMin= -580.257313629039     IErMin= 5 ErrMin= 3.45D-05
 ErrMax= 3.45D-05  0.00D+00 EMaxC= 1.00D-01 BMatC= 3.58D-07 BMatP= 1.50D-06
 IDIUse=1 WtCom= 1.00D+00 WtEn= 0.00D+00
 Coeff-Com:  0.546D-04 0.686D-01 0.118D+00 0.291D+00 0.522D+00
 Coeff:      0.546D-04 0.686D-01 0.118D+00 0.291D+00 0.522D+00
 Gap=     0.181 Goal=   None    Shift=    0.000
 RMSDP=7.60D-05 MaxDP=2.46D-03 DE= 4.39D-06 OVMax= 1.22D-04

 Cycle   6  Pass 0  IDiag  1:
 RMSU=  2.88D-05    CP:  1.01D+00  1.01D+00  1.16D+00  1.71D+00  2.57D+00
 E= -580.257299871930     Delta-E=        0.000009370101 Rises=F Damp=F
 DIIS: error= 5.51D-05 at cycle   6 NSaved=   6.
 NSaved= 6 IEnMin= 4 EnMin= -580.257313629039     IErMin= 5 ErrMin= 3.45D-05
 ErrMax= 5.51D-05  0.00D+00 EMaxC= 1.00D-01 BMatC= 3.52D-07 BMatP= 3.58D-07
 IDIUse=1 WtCom= 1.00D+00 WtEn= 0.00D+00
 Coeff-Com: -0.107D-02 0.920D-01 0.158D+00 0.405D+00 0.845D+00-0.499D+00
 Coeff:     -0.107D-02 0.920D-01 0.158D+00 0.405D+00 0.845D+00-0.499D+00
 Gap=     0.181 Goal=   None    Shift=    0.000
 RMSDP=8.95D-05 MaxDP=2.92D-03 DE= 9.37D-06 OVMax= 7.08D-05

 Problem detected with inexpensive integrals.
 Switching to full accuracy and repeating last cycle.
 Cycle   7  Pass 1  IDiag  1:
 E= -580.257310182760     Delta-E=       -0.000010310831 Rises=F Damp=F
 DIIS: error= 5.60D-04 at cycle   1 NSaved=   1.
 NSaved= 1 IEnMin= 1 EnMin= -580.257310182760     IErMin= 1 ErrMin= 5.60D-04
 ErrMax= 5.60D-04  0.00D+00 EMaxC= 1.00D-01 BMatC= 4.36D-05 BMatP= 4.36D-05
 IDIUse=3 WtCom= 9.94D-01 WtEn= 5.60D-03
 Coeff-Com:  0.100D+01
 Coeff-En:   0.100D+01
 Coeff:      0.100D+01
 Gap=     0.181 Goal=   None    Shift=    0.000
 RMSDP=1.44D-03 MaxDP=4.76D-02 DE=-1.03D-05 OVMax= 6.93D-04

 Cycle   8  Pass 1  IDiag  1:
 RMSU=  1.39D-03    CP:  9.49D-01
 E= -580.257331247174     Delta-E=       -0.000021064414 Rises=F Damp=F
 DIIS: error= 5.47D-06 at cycle   2 NSaved=   2.
 NSaved= 2 IEnMin= 2 EnMin= -580.257331247174     IErMin= 2 ErrMin= 5.47D-06
 ErrMax= 5.47D-06  0.00D+00 EMaxC= 1.00D-01 BMatC= 1.33D-08 BMatP= 4.36D-05
 IDIUse=1 WtCom= 1.00D+00 WtEn= 0.00D+00
 Coeff-Com: -0.485D-02 0.100D+01
 Coeff:     -0.485D-02 0.100D+01
 Gap=     0.181 Goal=   None    Shift=    0.000
 RMSDP=1.73D-05 MaxDP=8.40D-04 DE=-2.11D-05 OVMax= 8.47D-05

 Cycle   9  Pass 1  IDiag  1:
 RMSU=  8.00D-06    CP:  9.48D-01  1.01D+00
 E= -580.257331226484     Delta-E=        0.000000020690 Rises=F Damp=F
 DIIS: error= 8.91D-06 at cycle   3 NSaved=   3.
 NSaved= 3 IEnMin= 2 EnMin= -580.257331247174     IErMin= 2 ErrMin= 5.47D-06
 ErrMax= 8.91D-06  0.00D+00 EMaxC= 1.00D-01 BMatC= 3.35D-08 BMatP= 1.33D-08
 IDIUse=1 WtCom= 1.00D+00 WtEn= 0.00D+00
 Coeff-Com: -0.331D-02 0.631D+00 0.372D+00
 Coeff:     -0.331D-02 0.631D+00 0.372D+00
 Gap=     0.181 Goal=   None    Shift=    0.000
 RMSDP=3.13D-07 MaxDP=1.51D-05 DE= 2.07D-08 OVMax= 6.37D-05

 Cycle  10  Pass 1  IDiag  1:
 RMSU=  3.04D-07    CP:  9.48D-01  1.01D+00  1.00D+00
 E= -580.257331260292     Delta-E=       -0.000000033808 Rises=F Damp=F
 DIIS: error= 1.99D-06 at cycle   4 NSaved=   4.
 NSaved= 4 IEnMin= 4 EnMin= -580.257331260292     IErMin= 4 ErrMin= 1.99D-06
 ErrMax= 1.99D-06  0.00D+00 EMaxC= 1.00D-01 BMatC= 7.10D-10 BMatP= 1.33D-08
 IDIUse=1 WtCom= 1.00D+00 WtEn= 0.00D+00
 Coeff-Com: -0.140D-02 0.262D+00 0.187D+00 0.553D+00
 Coeff:     -0.140D-02 0.262D+00 0.187D+00 0.553D+00
 Gap=     0.181 Goal=   None    Shift=    0.000
 RMSDP=1.30D-07 MaxDP=4.40D-06 DE=-3.38D-08 OVMax= 1.30D-05

 Cycle  11  Pass 1  IDiag  1:
 RMSU=  8.11D-08    CP:  9.48D-01  1.01D+00  1.01D+00  8.96D-01
 E= -580.257331260884     Delta-E=       -0.000000000591 Rises=F Damp=F
 DIIS: error= 9.49D-07 at cycle   5 NSaved=   5.
 NSaved= 5 IEnMin= 5 EnMin= -580.257331260884     IErMin= 5 ErrMin= 9.49D-07
 ErrMax= 9.49D-07  0.00D+00 EMaxC= 1.00D-01 BMatC= 1.86D-10 BMatP= 7.10D-10
 IDIUse=1 WtCom= 1.00D+00 WtEn= 0.00D+00
 Coeff-Com: -0.105D-03 0.170D-01 0.307D-01 0.357D+00 0.596D+00
 Coeff:     -0.105D-03 0.170D-01 0.307D-01 0.357D+00 0.596D+00
 Gap=     0.181 Goal=   None    Shift=    0.000
 RMSDP=7.08D-08 MaxDP=3.85D-06 DE=-5.91D-10 OVMax= 4.13D-06

 Cycle  12  Pass 1  IDiag  1:
 RMSU=  3.43D-08    CP:  9.48D-01  1.01D+00  1.02D+00  9.38D-01  1.09D+00
 E= -580.257331261078     Delta-E=       -0.000000000194 Rises=F Damp=F
 DIIS: error= 9.48D-08 at cycle   6 NSaved=   6.
 NSaved= 6 IEnMin= 6 EnMin= -580.257331261078     IErMin= 6 ErrMin= 9.48D-08
 ErrMax= 9.48D-08  0.00D+00 EMaxC= 1.00D-01 BMatC= 4.63D-12 BMatP= 1.86D-10
 IDIUse=1 WtCom= 1.00D+00 WtEn= 0.00D+00
 Coeff-Com:  0.659D-05-0.242D-02 0.715D-02 0.147D+00 0.283D+00 0.565D+00
 Coeff:      0.659D-05-0.242D-02 0.715D-02 0.147D+00 0.283D+00 0.565D+00
 Gap=     0.181 Goal=   None    Shift=    0.000
 RMSDP=9.63D-09 MaxDP=3.06D-07 DE=-1.94D-10 OVMax= 5.00D-07

 SCF Done:  E(RB3LYP) =  -580.257331261     A.U. after   12 cycles
            NFock= 12  Conv=0.96D-08     -V/T= 2.0053
 KE= 5.771947872249D+02 PE=-3.204055310991D+03 EE= 1.117099224602D+03
 Leave Link  502 at Wed Mar 11 12:30:18 2026, MaxMem=   104857600 cpu:             718.9 elap:             719.8
 (Enter /sw/cluster/pub/apps//g16/l701.exe)
 ... and contract with generalized density number  0.
 Compute integral first derivatives.
   1 Symmetry operations used in ECPInt.
 ECPInt:  NShTT=   24531 NPrTT=   74292 LenC2=   23181 LenP2D=   52846.
 LDataN:  DoStor=T MaxTD1= 7 Len=  274
 Leave Link  701 at Wed Mar 11 12:30:18 2026, MaxMem=   104857600 cpu:               0.2 elap:               0.2
 (Enter /sw/cluster/pub/apps//g16/l702.exe)
 L702 exits ... SP integral derivatives will be done elsewhere.
 Leave Link  702 at Wed Mar 11 12:30:18 2026, MaxMem=   104857600 cpu:               0.0 elap:               0.0
 (Enter /sw/cluster/pub/apps//g16/l703.exe)
 Integral derivatives from FoFJK, PRISM(SPDF).
 Compute integral first derivatives, UseDBF=F ICtDFT=           0.
 Calling FoFJK, ICntrl=      2127 FMM=F ISym2X=0 I1Cent= 0 IOpClX= 0 NMat=1 NMatS=1 NMatT=0.
 FoFJK:  IHMeth= 1 ICntrl=    2127 DoSepK=F KAlg= 0 I1Cent=           0 FoldK=F
 IRaf=         0 NMat=       1 IRICut=       1 DoRegI=T DoRafI=F ISym2E= 0 IDoP0=0 IntGTp=1.
 FoFCou: FMM=F IPFlag=           0 FMFlag=      100000 FMFlg1=         800
         NFxFlg=           0 DoJE=F BraDBF=F KetDBF=F FulRan=T
         wScrn=  0.000000 ICntrl=      2127 IOpCl=  0 I1Cent=           0 NGrid=           0
         NMat0=    1 NMatS0=      1 NMatT0=    0 NMatD0=    1 NMtDS0=    0 NMtDT0=    0
 Symmetry not used in FoFCou.
 Leave Link  703 at Wed Mar 11 12:35:14 2026, MaxMem=   104857600 cpu:             295.0 elap:             295.3
 (Enter /sw/cluster/pub/apps//g16/l716.exe)
 Dipole        = 2.72393271D-05 1.95626207D-01 4.26976477D-06
 ***** Axes restored to original set *****
 -------------------------------------------------------------------
 Center     Atomic                   Forces (Hartrees/Bohr)
 Number     Number              X              Y              Z
 -------------------------------------------------------------------
      1        6          -0.000119338   -0.000215545   -0.000013156
      2        6          -0.000044199    0.000085220    0.000004426
      3        6          -0.000039903    0.000019755   -0.000001343
      4        6          -0.000012703   -0.000035732   -0.000002854
      5        6           0.000052810   -0.000026896    0.000008697
      6        6          -0.000269696   -0.000173004    0.000001199
      7        6          -0.000473728    0.000099074   -0.000006452
      8        6           0.000160464    0.000454149   -0.000002590
      9        6           0.000229803    0.000189714   -0.000003500
     10        1           0.000121750    0.000085117   -0.000000125
     11        1          -0.000023673    0.000138374   -0.000003779
     12        1          -0.000121955    0.000075535   -0.000002887
     13        1          -0.000172172   -0.000010265   -0.000000928
     14        6           0.000142440    0.000238409   -0.000002033
     15        6           0.000423684    0.000220883   -0.000001311
     16        6           0.000169494   -0.000468465    0.000010732
     17        6          -0.000147511   -0.000306154    0.000006102
     18        1           0.000003108   -0.000168906    0.000001299
     19        1           0.000089557   -0.000110496    0.000002263
     20        1           0.000139217    0.000001563    0.000000817
     21        1           0.000083947    0.000128894   -0.000001612
     22        6          -0.000060254   -0.000059244    0.000082073
     23        1          -0.000024319   -0.000031308    0.000056008
     24        1           0.000012654   -0.000019637    0.000042797
     25        1          -0.000024435    0.000006025    0.000050146
     26        6          -0.000057723   -0.000067864   -0.000081732
     27        1          -0.000024650    0.000003750   -0.000049795
     28        1           0.000013096   -0.000020937   -0.000039686
     29        1          -0.000025766   -0.000032008   -0.000052779
 -------------------------------------------------------------------
 Cartesian Forces:  Max     0.000473728 RMS     0.000137155
 Leave Link  716 at Wed Mar 11 12:35:14 2026, MaxMem=   104857600 cpu:               0.0 elap:               0.0
 (Enter /sw/cluster/pub/apps//g16/l103.exe)

 GradGradGradGradGradGradGradGradGradGradGradGradGradGradGradGradGradGrad
 Berny optimization.
 Using GEDIIS/GDIIS optimizer.
 FormGI is forming the generalized inverse of G from B-inverse, IUseBI=4.
 Internal  Forces:  Max     0.000611649 RMS     0.000162177
 Search for a local minimum.
 Step number   2 out of a maximum of  174
 All quantities printed in internal units (Hartrees-Bohrs-Radians)
 RMS Force = .16218D-03 SwitMx=.10000D-02 MixMth= 2
 Mixed Optimization -- En-DIIS/RFO-DIIS
 Update second derivatives using D2CorX and points    1    2
 DE= -5.12D-04 DEPred=-5.58D-04 R= 9.17D-01
 TightC=F SS=  1.41D+00  RLast= 5.31D-02 DXNew= 5.0454D-01 1.5919D-01
 Trust test= 9.17D-01 RLast= 5.31D-02 DXMaxT set to 3.00D-01
 ITU=  1  0
 Use linear search instead of GDIIS.
     Eigenvalues ---    0.00230   0.00230   0.00756   0.01247   0.01447
     Eigenvalues ---    0.01648   0.01717   0.01880   0.02096   0.02097
     Eigenvalues ---    0.02113   0.02113   0.02118   0.02119   0.02135
     Eigenvalues ---    0.02135   0.02145   0.02146   0.02161   0.02161
     Eigenvalues ---    0.04404   0.05440   0.05440   0.05506   0.05507
     Eigenvalues ---    0.05977   0.08009   0.11612   0.15975   0.16000
     Eigenvalues ---    0.16000   0.16000   0.16000   0.16000   0.16000
     Eigenvalues ---    0.16000   0.16000   0.16000   0.16000   0.16000
     Eigenvalues ---    0.16000   0.16014   0.18963   0.22000   0.22000
     Eigenvalues ---    0.22600   0.22621   0.24493   0.24595   0.25000
     Eigenvalues ---    0.28039   0.28123   0.28657   0.29042   0.33771
     Eigenvalues ---    0.34100   0.34103   0.34105   0.34248   0.34283
     Eigenvalues ---    0.34699   0.35077   0.35097   0.35142   0.35157
     Eigenvalues ---    0.35181   0.35183   0.35185   0.35417   0.37916
     Eigenvalues ---    0.40582   0.42082   0.42092   0.44317   0.45074
     Eigenvalues ---    0.45815   0.45876   0.46110   0.46330   0.46882
     Eigenvalues ---    0.49848
 RFO step:  Lambda=-2.30764915D-06 EMin= 2.29999880D-03
 Quartic linear search produced a step of -0.07757.
 Iteration  1 RMS(Cart)=  0.00099128 RMS(Int)=  0.00000005
 Iteration  2 RMS(Cart)=  0.00000007 RMS(Int)=  0.00000002
 ITry= 1 IFail=0 DXMaxC= 3.17D-03 DCOld= 1.00D+10 DXMaxT= 3.00D-01 DXLimC= 3.00D+00 Rises=F
 Variable       Old X    -DE/DX   Delta X   Delta X   Delta X     New X
                                 (Linear)    (Quad)   (Total)
    R1        2.88063   0.00043   0.00064   0.00061   0.00125   2.88189
    R2        2.88041   0.00047   0.00062   0.00078   0.00141   2.88181
    R3        2.91115   0.00027   0.00073   0.00013   0.00085   2.91200
    R4        2.91119   0.00027   0.00072   0.00013   0.00085   2.91204
    R5        2.65151   0.00040   0.00091  -0.00012   0.00079   2.65230
    R6        2.61684   0.00059   0.00084   0.00027   0.00111   2.61794
    R7        2.76762   0.00052   0.00063   0.00072   0.00135   2.76896
    R8        2.62861   0.00057   0.00078   0.00031   0.00109   2.62970
    R9        2.65150   0.00040   0.00090  -0.00010   0.00080   2.65229
   R10        2.62861   0.00057   0.00078   0.00031   0.00109   2.62970
   R11        2.61684   0.00059   0.00083   0.00028   0.00111   2.61795
   R12        2.63435   0.00048   0.00088   0.00005   0.00093   2.63528
   R13        2.04773   0.00015   0.00061  -0.00023   0.00038   2.04811
   R14        2.63152   0.00061   0.00091   0.00028   0.00119   2.63271
   R15        2.04585   0.00014   0.00061  -0.00027   0.00035   2.04619
   R16        2.62787   0.00048   0.00090   0.00003   0.00093   2.62880
   R17        2.04593   0.00014   0.00061  -0.00028   0.00034   2.04626
   R18        2.04663   0.00015   0.00061  -0.00025   0.00036   2.04699
   R19        2.62786   0.00048   0.00089   0.00004   0.00094   2.62880
   R20        2.04662   0.00015   0.00060  -0.00024   0.00037   2.04699
   R21        2.63151   0.00061   0.00091   0.00029   0.00120   2.63271
   R22        2.04593   0.00014   0.00061  -0.00028   0.00033   2.04626
   R23        2.63436   0.00047   0.00088   0.00005   0.00093   2.63528
   R24        2.04585   0.00014   0.00061  -0.00027   0.00034   2.04620
   R25        2.04773   0.00016   0.00060  -0.00022   0.00038   2.04811
   R26        2.06094   0.00002   0.00059  -0.00055   0.00004   2.06098
   R27        2.06342  -0.00001   0.00063  -0.00070  -0.00007   2.06336
   R28        2.06341  -0.00001   0.00063  -0.00068  -0.00005   2.06335
   R29        2.06341  -0.00001   0.00064  -0.00069  -0.00005   2.06335
   R30        2.06342  -0.00001   0.00063  -0.00070  -0.00007   2.06336
   R31        2.06095   0.00002   0.00059  -0.00056   0.00003   2.06098
    A1        1.76521   0.00002   0.00010  -0.00008   0.00002   1.76523
    A2        1.94422  -0.00001  -0.00003   0.00002  -0.00002   1.94420
    A3        1.94408  -0.00000  -0.00005   0.00010   0.00006   1.94413
    A4        1.94433  -0.00001   0.00000  -0.00008  -0.00008   1.94425
    A5        1.94420  -0.00001   0.00001  -0.00002  -0.00001   1.94419
    A6        1.91797   0.00001  -0.00002   0.00005   0.00003   1.91800
    A7        1.93615   0.00000  -0.00005   0.00001  -0.00003   1.93612
    A8        2.24903  -0.00002   0.00003  -0.00008  -0.00005   2.24899
    A9        2.09800   0.00002   0.00001   0.00007   0.00008   2.09808
   A10        1.89360  -0.00001  -0.00001   0.00006   0.00005   1.89365
   A11        2.10444  -0.00004   0.00004  -0.00026  -0.00022   2.10422
   A12        2.28514   0.00005  -0.00003   0.00020   0.00017   2.28531
   A13        1.89357  -0.00001  -0.00001   0.00006   0.00005   1.89362
   A14        2.28534   0.00002  -0.00000   0.00007   0.00007   2.28541
   A15        2.10428  -0.00002   0.00002  -0.00013  -0.00011   2.10416
   A16        1.93624  -0.00001  -0.00003  -0.00004  -0.00008   1.93616
   A17        2.24878   0.00002   0.00001   0.00010   0.00011   2.24889
   A18        2.09816  -0.00001   0.00003  -0.00006  -0.00003   2.09814
   A19        2.08071   0.00004  -0.00002   0.00019   0.00016   2.08088
   A20        2.11118   0.00006  -0.00013   0.00051   0.00038   2.11156
   A21        2.09129  -0.00010   0.00016  -0.00070  -0.00054   2.09075
   A22        2.10352  -0.00003  -0.00002  -0.00010  -0.00011   2.10341
   A23        2.09021   0.00002  -0.00003   0.00012   0.00008   2.09030
   A24        2.08945   0.00001   0.00005  -0.00002   0.00003   2.08948
   A25        2.10399  -0.00004   0.00002  -0.00015  -0.00013   2.10386
   A26        2.08886  -0.00000   0.00005  -0.00012  -0.00007   2.08879
   A27        2.09033   0.00004  -0.00007   0.00027   0.00020   2.09053
   A28        2.07570   0.00005  -0.00002   0.00024   0.00022   2.07592
   A29        2.10979  -0.00001  -0.00007   0.00004  -0.00004   2.10975
   A30        2.09769  -0.00004   0.00010  -0.00028  -0.00018   2.09751
   A31        2.07566   0.00006  -0.00003   0.00028   0.00025   2.07591
   A32        2.10965  -0.00000  -0.00009   0.00013   0.00004   2.10969
   A33        2.09788  -0.00006   0.00012  -0.00041  -0.00029   2.09759
   A34        2.10391  -0.00003   0.00001  -0.00010  -0.00008   2.10383
   A35        2.09045   0.00003  -0.00007   0.00020   0.00014   2.09058
   A36        2.08883  -0.00000   0.00005  -0.00011  -0.00005   2.08877
   A37        2.10362  -0.00005  -0.00000  -0.00017  -0.00017   2.10345
   A38        2.08941   0.00002   0.00004   0.00002   0.00006   2.08947
   A39        2.09016   0.00003  -0.00004   0.00015   0.00011   2.09026
   A40        2.08074   0.00003  -0.00003   0.00017   0.00014   2.08088
   A41        2.11128   0.00005  -0.00012   0.00045   0.00033   2.11161
   A42        2.09117  -0.00008   0.00015  -0.00062  -0.00047   2.09069
   A43        1.93836   0.00007   0.00009   0.00030   0.00039   1.93875
   A44        1.93096   0.00004   0.00007   0.00015   0.00023   1.93119
   A45        1.93086   0.00005   0.00005   0.00027   0.00031   1.93117
   A46        1.88929  -0.00006  -0.00007  -0.00026  -0.00033   1.88896
   A47        1.88934  -0.00006  -0.00007  -0.00030  -0.00037   1.88898
   A48        1.88334  -0.00005  -0.00008  -0.00019  -0.00027   1.88306
   A49        1.93085   0.00005   0.00006   0.00026   0.00032   1.93117
   A50        1.93099   0.00004   0.00007   0.00013   0.00020   1.93119
   A51        1.93835   0.00007   0.00008   0.00031   0.00039   1.93874
   A52        1.88335  -0.00005  -0.00008  -0.00020  -0.00028   1.88307
   A53        1.88931  -0.00006  -0.00007  -0.00027  -0.00034   1.88897
   A54        1.88929  -0.00006  -0.00007  -0.00026  -0.00033   1.88896
    D1       -0.00004  -0.00000  -0.00002   0.00001  -0.00000  -0.00005
    D2        3.14158  -0.00000  -0.00001  -0.00000  -0.00001   3.14157
    D3       -2.06761   0.00000  -0.00006   0.00014   0.00008  -2.06753
    D4        1.07401   0.00000  -0.00005   0.00013   0.00008   1.07409
    D5        2.06732  -0.00000   0.00003  -0.00001   0.00002   2.06734
    D6       -1.07425  -0.00000   0.00004  -0.00002   0.00001  -1.07424
    D7        0.00002   0.00000   0.00002   0.00001   0.00002   0.00005
    D8       -3.14156   0.00000  -0.00001   0.00001   0.00000  -3.14156
    D9        2.06751  -0.00000   0.00003  -0.00005  -0.00002   2.06749
   D10       -1.07408  -0.00000   0.00001  -0.00005  -0.00004  -1.07412
   D11       -2.06724  -0.00000   0.00001  -0.00006  -0.00005  -2.06729
   D12        1.07435  -0.00000  -0.00001  -0.00005  -0.00006   1.07429
   D13        0.97856   0.00001   0.00002  -0.00008  -0.00007   0.97850
   D14        3.07708   0.00001   0.00003  -0.00011  -0.00008   3.07700
   D15       -1.11996   0.00001   0.00001  -0.00008  -0.00007  -1.12002
   D16       -0.97816  -0.00001  -0.00009   0.00006  -0.00004  -0.97820
   D17        1.12035  -0.00001  -0.00007   0.00003  -0.00004   1.12031
   D18       -3.07668  -0.00001  -0.00009   0.00006  -0.00004  -3.07672
   D19       -3.14151   0.00000  -0.00009   0.00010   0.00001  -3.14150
   D20       -1.04300   0.00000  -0.00007   0.00007   0.00000  -1.04299
   D21        1.04315   0.00000  -0.00009   0.00010   0.00001   1.04316
   D22        1.12017  -0.00001   0.00004  -0.00033  -0.00029   1.11989
   D23       -3.07683  -0.00001   0.00003  -0.00033  -0.00030  -3.07713
   D24       -0.97830  -0.00001   0.00004  -0.00036  -0.00032  -0.97862
   D25        3.07675   0.00001   0.00014  -0.00038  -0.00024   3.07651
   D26       -1.12026   0.00001   0.00013  -0.00038  -0.00025  -1.12051
   D27        0.97828   0.00001   0.00014  -0.00041  -0.00028   0.97800
   D28       -1.04302  -0.00000   0.00013  -0.00045  -0.00032  -1.04334
   D29        1.04316  -0.00000   0.00012  -0.00046  -0.00033   1.04283
   D30       -3.14149  -0.00000   0.00013  -0.00049  -0.00036   3.14134
   D31        0.00004   0.00000   0.00001  -0.00003  -0.00002   0.00003
   D32       -3.14154   0.00000   0.00001  -0.00004  -0.00003  -3.14156
   D33       -3.14157   0.00000   0.00000  -0.00002  -0.00001  -3.14158
   D34        0.00003  -0.00000   0.00000  -0.00002  -0.00002   0.00001
   D35        3.14154  -0.00000  -0.00002   0.00003   0.00002   3.14156
   D36       -0.00008   0.00000  -0.00001   0.00005   0.00005  -0.00004
   D37       -0.00002   0.00000  -0.00000   0.00002   0.00001  -0.00001
   D38        3.14154   0.00000   0.00000   0.00004   0.00004   3.14158
   D39       -0.00003   0.00000  -0.00000   0.00004   0.00003   0.00000
   D40       -3.14159  -0.00000   0.00000  -0.00002  -0.00001   3.14158
   D41        3.14155   0.00000  -0.00000   0.00004   0.00004   3.14159
   D42       -0.00001  -0.00000   0.00001  -0.00001  -0.00000  -0.00001
   D43       -0.00002   0.00000   0.00000   0.00001   0.00002  -0.00001
   D44        3.14158   0.00000  -0.00000   0.00001   0.00001   3.14159
   D45        3.14158  -0.00000   0.00000   0.00000   0.00001   3.14159
   D46        0.00000  -0.00000  -0.00000  -0.00000  -0.00000   0.00000
   D47        0.00000  -0.00000  -0.00001  -0.00003  -0.00003  -0.00003
   D48        3.14159  -0.00000   0.00002  -0.00003  -0.00002   3.14157
   D49        3.14157  -0.00000  -0.00002   0.00002   0.00000   3.14157
   D50       -0.00003   0.00000   0.00001   0.00001   0.00002  -0.00001
   D51        3.14157   0.00000  -0.00000   0.00005   0.00004  -3.14157
   D52       -0.00001   0.00000  -0.00001   0.00003   0.00002   0.00002
   D53        0.00001   0.00000   0.00001  -0.00001  -0.00001   0.00001
   D54       -3.14157  -0.00000   0.00000  -0.00003  -0.00003   3.14159
   D55       -3.14158   0.00000   0.00002  -0.00000   0.00001  -3.14157
   D56        0.00001   0.00000   0.00001   0.00000   0.00001   0.00002
   D57        0.00001   0.00000  -0.00001   0.00000  -0.00001   0.00001
   D58       -3.14157  -0.00000  -0.00002   0.00001  -0.00001  -3.14159
   D59        0.00002  -0.00000   0.00000  -0.00002  -0.00002  -0.00000
   D60       -3.14157  -0.00000  -0.00000  -0.00001  -0.00002  -3.14159
   D61       -3.14158  -0.00000   0.00001  -0.00003  -0.00002   3.14159
   D62        0.00002  -0.00000   0.00001  -0.00002  -0.00001   0.00000
   D63       -0.00004   0.00000   0.00001   0.00003   0.00004  -0.00000
   D64       -3.14158  -0.00000   0.00000  -0.00001  -0.00001  -3.14159
   D65        3.14155   0.00000   0.00002   0.00002   0.00003   3.14159
   D66        0.00001  -0.00000   0.00001  -0.00002  -0.00002  -0.00000
   D67        0.00002  -0.00000  -0.00002  -0.00001  -0.00002  -0.00000
   D68       -3.14158   0.00000  -0.00001   0.00001  -0.00000  -3.14159
   D69        3.14156   0.00000  -0.00000   0.00003   0.00002   3.14159
   D70       -0.00004   0.00000  -0.00000   0.00005   0.00004   0.00000
   D71        0.00000  -0.00000  -0.00001   0.00000  -0.00001  -0.00000
   D72       -3.14158  -0.00000  -0.00000  -0.00001  -0.00001   3.14159
   D73        3.14158  -0.00000  -0.00000   0.00001   0.00000   3.14159
   D74       -0.00000  -0.00000   0.00000  -0.00000  -0.00000  -0.00001
   D75        0.00001   0.00000   0.00001  -0.00001  -0.00000   0.00001
   D76       -3.14157  -0.00000  -0.00000  -0.00001  -0.00002  -3.14159
   D77        3.14159   0.00000   0.00000   0.00000   0.00001  -3.14159
   D78        0.00002  -0.00000  -0.00000  -0.00000  -0.00001   0.00001
   D79        0.00000  -0.00000   0.00000  -0.00000  -0.00000   0.00000
   D80       -3.14156  -0.00000  -0.00001  -0.00002  -0.00003  -3.14159
   D81        3.14158   0.00000   0.00001   0.00001   0.00001   3.14159
   D82        0.00002  -0.00000  -0.00000  -0.00001  -0.00001   0.00001
         Item               Value     Threshold  Converged?
 Maximum Force            0.000612     0.000450     NO 
 RMS     Force            0.000162     0.000300     YES
 Maximum Displacement     0.003173     0.001800     NO 
 RMS     Displacement     0.000991     0.001200     YES
 Predicted change in Energy=-4.878932D-06
 Lowest energy point so far.  Saving SCF results.
 GradGradGradGradGradGradGradGradGradGradGradGradGradGradGradGradGradGrad

 Leave Link  103 at Wed Mar 11 12:35:14 2026, MaxMem=   104857600 cpu:               0.0 elap:               0.0
 (Enter /sw/cluster/pub/apps//g16/l202.exe)
                          Input orientation:                          
 ---------------------------------------------------------------------
 Center     Atomic      Atomic             Coordinates (Angstroms)
 Number     Number       Type             X           Y           Z
 ---------------------------------------------------------------------
      1          6           0        0.011976    0.006668    0.039672
      2          6           0        1.536209   -0.041033    0.051823
      3          6           0        2.078544    1.253348    0.032741
      4          6           0        0.976585    2.218784    0.007379
      5          6           0       -0.235510    1.511170    0.011052
      6          6           0       -1.441091    2.193337   -0.009996
      7          6           0       -1.434118    3.587631   -0.034804
      8          6           0       -0.230437    4.289103   -0.038435
      9          6           0        0.983526    3.610126   -0.017378
     10          1           0        1.915932    4.161468   -0.020328
     11          1           0       -0.240855    5.371715   -0.057810
     12          1           0       -2.371335    4.129666   -0.051373
     13          1           0       -2.384325    1.659526   -0.007432
     14          6           0        3.457106    1.443114    0.039536
     15          6           0        4.289842    0.329098    0.065562
     16          6           0        3.752507   -0.956139    0.084528
     17          6           0        2.371019   -1.146309    0.077716
     18          1           0        1.965788   -2.151406    0.092664
     19          1           0        4.413076   -1.813868    0.104717
     20          1           0        5.364597    0.461004    0.071144
     21          1           0        3.881123    2.439787    0.024887
     22          6           0       -0.580687   -0.636543    1.308374
     23          1           0       -0.187001   -0.163341    2.208679
     24          1           0       -1.668047   -0.537764    1.318172
     25          1           0       -0.340166   -1.700833    1.348800
     26          6           0       -0.561890   -0.681357   -1.214100
     27          1           0       -0.320920   -1.746314   -1.213205
     28          1           0       -1.648971   -0.583424   -1.243523
     29          1           0       -0.154825   -0.240205   -2.124671
 ---------------------------------------------------------------------
                    Distance matrix (angstroms):
                    1          2          3          4          5
     1  C    0.000000
     2  C    1.525028   0.000000
     3  C    2.413496   1.403537   0.000000
     4  C    2.413498   2.328504   1.465273   0.000000
     5  C    1.524990   2.355841   2.328473   1.403533   0.000000
     6  C    2.625907   3.722976   3.643245   2.417872   1.385359
     7  C    3.862645   4.690154   4.218084   2.772545   2.398010
     8  C    4.290001   4.677528   3.814743   2.396919   2.778378
     9  C    3.732569   3.693401   2.599227   1.391579   2.427442
    10  H    4.570668   4.220238   2.913146   2.158045   3.413761
    11  H    5.371885   5.698054   4.727447   3.380441   3.861163
    12  H    4.763147   5.716142   5.299217   3.855319   3.379670
    13  H    2.911428   4.273874   4.481495   3.407155   2.154010
    14  C    3.732599   2.427486   1.391579   2.599170   3.693353
    15  C    4.290078   2.778431   2.396905   3.814705   4.677507
    16  C    3.862718   2.398013   2.772485   4.218038   4.690128
    17  C    2.626002   1.385356   2.417833   3.643247   3.722987
    18  H    2.911610   2.154038   3.407148   4.481558   4.273972
    19  H    4.763220   3.379660   3.855261   5.299173   5.716118
    20  H    5.371961   3.861213   3.380448   4.727421   5.698040
    21  H    4.570622   3.413768   2.158006   2.912987   4.220093
    22  C    1.540966   2.532746   3.502919   3.502938   2.532758
    23  H    2.184740   2.763411   3.445927   3.445893   2.763314
    24  H    2.180240   3.481040   4.347109   4.038665   2.821144
    25  H    2.180225   2.820970   4.038485   4.347027   3.481018
    26  C    1.540988   2.532705   3.502797   3.502818   2.532725
    27  H    2.180245   2.820853   4.038290   4.346879   3.480992
    28  H    2.180262   3.481018   4.347062   4.038647   2.821197
    29  H    2.184754   2.763402   3.445731   3.445628   2.763175
                    6          7          8          9         10
     6  C    0.000000
     7  C    1.394532   0.000000
     8  C    2.420481   1.393171   0.000000
     9  C    2.808222   2.417811   1.391100   0.000000
    10  H    3.891433   3.398872   2.150237   1.083221   0.000000
    11  H    3.397784   2.146476   1.082835   2.145679   2.473425
    12  H    2.148589   1.082799   2.146866   3.395021   4.287497
    13  H    1.083813   2.149705   3.399246   3.891961   4.975147
    14  C    4.955565   5.341213   4.658724   3.289040   3.125420
    15  C    6.026996   6.587247   6.010439   4.658728   4.508867
    16  C    6.074669   6.896461   6.587225   5.341201   5.438190
    17  C    5.068837   6.074694   6.027003   4.955588   5.328152
    18  H    5.522151   6.671742   6.805935   5.845699   6.314082
    19  H    7.095218   7.961490   7.670004   6.418445   6.477346
    20  H    7.023173   7.483953   6.780174   5.396165   5.059160
    21  H    5.328031   5.438096   4.508759   3.125308   2.613084
    22  C    3.238304   4.513991   5.118453   4.715780   5.569512
    23  H    3.471195   4.545141   4.987552   4.534812   5.300451
    24  H    3.045399   4.347890   5.215914   5.100934   6.059643
    25  H    4.268832   5.574849   6.149455   5.641355   6.428924
    26  C    3.238321   4.513953   5.118351   4.715642   5.569348
    27  H    4.268881   5.574837   6.149353   5.641191   6.428713
    28  H    3.045521   4.347972   5.215936   5.100915   6.059598
    29  H    3.471089   4.544938   4.987257   4.534488   5.300096
                   11         12         13         14         15
    11  H    0.000000
    12  H    2.466105   0.000000
    13  H    4.286881   2.470565   0.000000
    14  C    5.396138   6.418454   5.845627   0.000000
    15  C    6.780149   7.670024   6.805870   1.391099   0.000000
    16  C    7.483913   7.961491   6.671647   2.417789   1.393170
    17  C    7.023168   7.095245   5.522070   2.808229   2.420506
    18  H    7.841509   7.634346   5.784176   3.891969   3.399244
    19  H    8.562599   9.020986   7.634245   3.395005   2.146864
    20  H    7.453376   8.562637   7.841455   2.145708   1.082834
    21  H    5.059026   6.477248   6.313928   1.083219   2.150282
    22  C    6.170989   5.269922   3.202559   4.715792   5.118505
    23  H    5.981365   5.320626   3.614170   4.534909   4.987742
    24  H    6.233149   4.914791   2.664275   5.641452   6.149546
    25  H    7.211751   6.330944   4.160524   5.100770   5.215773
    26  C    6.170879   5.269911   3.202662   4.715645   5.118383
    27  H    7.211636   6.330971   4.160682   5.100519   5.215526
    28  H    6.233168   4.914900   2.664486   5.641376   6.149463
    29  H    5.981050   5.320456   3.614187   4.534688   4.987613
                   16         17         18         19         20
    16  C    0.000000
    17  C    1.394532   0.000000
    18  H    2.149673   1.083816   0.000000
    19  H    1.082800   2.148572   2.470485   0.000000
    20  H    2.146464   3.397794   4.286846   2.466082   0.000000
    21  H    3.398884   3.891438   4.975154   4.287532   2.473544
    22  C    4.514035   3.238356   3.202701   5.269967   6.171041
    23  H    4.545357   3.471412   3.614473   5.320865   5.981564
    24  H    5.574883   4.268854   4.160584   6.330953   7.211844
    25  H    4.347750   3.045272   2.664266   4.914655   6.232998
    26  C    4.513974   3.238351   3.202784   5.269928   6.170906
    27  H    4.347563   3.045164   2.664288   4.914489   6.232729
    28  H    5.574819   4.268821   4.160582   6.330889   7.211749
    29  H    4.545367   3.471515   3.614728   5.320930   5.981414
                   21         22         23         24         25
    21  H    0.000000
    22  C    5.569461   0.000000
    23  H    5.300458   1.090622   0.000000
    24  H    6.428972   1.091881   1.768246   0.000000
    25  H    6.059436   1.091878   1.768257   1.765484   0.000000
    26  C    5.569290   2.522942   3.481996   2.767056   2.767119
    27  H    6.059165   2.767207   3.772669   3.111786   2.562481
    28  H    6.428889   2.766989   3.772469   2.562172   3.111545
    29  H    5.300173   3.481988   4.334151   3.772472   3.772636
                   26         27         28         29
    26  C    0.000000
    27  H    1.091880   0.000000
    28  H    1.091881   1.765490   0.000000
    29  H    1.090622   1.768254   1.768247   0.000000
 Stoichiometry    C15H14
 Framework group  C1[X(C15H14)]
 Deg. of freedom    81
 Full point group                 C1      NOp   1
 RotChk:  IX=0 Diff= 4.49D-05
 Largest Abelian subgroup         C1      NOp   1
 Largest concise Abelian subgroup C1      NOp   1
                         Standard orientation:                         
 ---------------------------------------------------------------------
 Center     Atomic      Atomic             Coordinates (Angstroms)
 Number     Number       Type             X           Y           Z
 ---------------------------------------------------------------------
      1          6           0       -0.000045    1.412552   -0.000003
      2          6           0        1.177926    0.443999   -0.000032
      3          6           0        0.732661   -0.887036   -0.000007
      4          6           0       -0.732611   -0.887082    0.000002
      5          6           0       -1.177915    0.443936   -0.000025
      6          6           0       -2.534411    0.725253   -0.000049
      7          6           0       -3.448232   -0.328146   -0.000037
      8          6           0       -3.005209   -1.649000   -0.000006
      9          6           0       -1.644511   -1.938240    0.000014
     10          1           0       -1.306580   -2.967399    0.000034
     11          1           0       -3.726663   -2.456488   -0.000001
     12          1           0       -4.510496   -0.118267   -0.000058
     13          1           0       -2.892042    1.748361   -0.000074
     14          6           0        1.644529   -1.938221    0.000011
     15          6           0        3.005230   -1.648998   -0.000005
     16          6           0        3.448228   -0.328137   -0.000040
     17          6           0        2.534426    0.725280   -0.000054
     18          1           0        2.892134    1.748364   -0.000088
     19          1           0        4.510491   -0.118243   -0.000058
     20          1           0        3.726713   -2.456459    0.000011
     21          1           0        1.306503   -2.967347    0.000034
     22          6           0       -0.000035    2.297694   -1.261390
     23          1           0       -0.000148    1.690043   -2.167048
     24          1           0       -0.882719    2.940104   -1.280985
     25          1           0        0.882766    2.939936   -1.281067
     26          6           0       -0.000019    2.297495    1.261552
     27          1           0        0.882875    2.939605    1.281415
     28          1           0       -0.882615    2.940022    1.281187
     29          1           0       -0.000287    1.689684    2.167103
 ---------------------------------------------------------------------
 Rotational constants (GHZ):           1.0626816           0.5528805           0.3944869
 Leave Link  202 at Wed Mar 11 12:35:14 2026, MaxMem=   104857600 cpu:               0.0 elap:               0.0
 (Enter /sw/cluster/pub/apps//g16/l301.exe)
 Standard basis: def2TZVP (5D, 7F)
 Ernie: Thresh=  0.10000D-02 Tol=  0.10000D-05 Strict=F.
 There are   624 symmetry adapted cartesian basis functions of A   symmetry.
 There are   549 symmetry adapted basis functions of A   symmetry.
   549 basis functions,   877 primitive gaussians,   624 cartesian basis functions
    52 alpha electrons       52 beta electrons
       nuclear repulsion energy       929.1505863305 Hartrees.
 IExCor=  402 DFT=T Ex+Corr=B3LYP ExCW=0 ScaHFX=  0.200000
 ScaDFX=  0.800000  0.720000  1.000000  0.810000 ScalE2=  1.000000  1.000000
 IRadAn=      5 IRanWt=     -1 IRanGd=            0 ICorTp=0 IEmpDi=  4
 NAtoms=   29 NActive=   29 NUniq=   29 SFac= 1.00D+00 NAtFMM=   60 NAOKFM=F Big=F
 Integral buffers will be    131072 words long.
 Raffenetti 2 integral format.
 Two-electron integral symmetry is turned on.
 Leave Link  301 at Wed Mar 11 12:35:14 2026, MaxMem=   104857600 cpu:               0.0 elap:               0.0
 (Enter /sw/cluster/pub/apps//g16/l302.exe)
 NPDir=0 NMtPBC=     1 NCelOv=     1 NCel=       1 NClECP=     1 NCelD=      1
         NCelK=      1 NCelE2=     1 NClLst=     1 CellRange=     0.0.
 One-electron integrals computed using PRISM.
 One-electron integral symmetry used in STVInt
   1 Symmetry operations used in ECPInt.
 ECPInt:  NShTT=   24531 NPrTT=   74292 LenC2=   23181 LenP2D=   52842.
 LDataN:  DoStor=T MaxTD1= 6 Len=  172
 NBasis=   549 RedAO= T EigKep=  6.03D-06  NBF=   549
 NBsUse=   549 1.00D-06 EigRej= -1.00D+00 NBFU=   549
 Precomputing XC quadrature grid using
 IXCGrd= 4 IRadAn=           5 IRanWt=          -1 IRanGd=           0 AccXCQ= 0.00D+00.
 Generated NRdTot=       0 NPtTot=           0 NUsed=           0 NTot=          32
 NSgBfM=   618   618   618   618   618 MxSgAt=    29 MxSgA2=    29.
 Leave Link  302 at Wed Mar 11 12:35:14 2026, MaxMem=   104857600 cpu:               0.6 elap:               0.6
 (Enter /sw/cluster/pub/apps//g16/l303.exe)
 DipDrv:  MaxL=1.
 Leave Link  303 at Wed Mar 11 12:35:14 2026, MaxMem=   104857600 cpu:               0.0 elap:               0.0
 (Enter /sw/cluster/pub/apps//g16/l401.exe)
 Initial guess from the checkpoint file:  "f1-def2TZVP.chk"
 B after Tr=     0.000000   -0.000000    0.000000
         Rot=    1.000000    0.000007    0.000001    0.000013 Ang=   0.00 deg.
 Guess basis will be translated and rotated to current coordinates.
 JPrj=2 DoOrth=T DoCkMO=T.
 Leave Link  401 at Wed Mar 11 12:35:15 2026, MaxMem=   104857600 cpu:               0.1 elap:               0.1
 (Enter /sw/cluster/pub/apps//g16/l502.exe)
 Integral symmetry usage will be decided dynamically.
 Closed shell SCF:
 Using DIIS extrapolation, IDIIS=  1040.
 NGot=   104857600 LenX=   104069519 LenY=   103679519
 Requested convergence on RMS density matrix=1.00D-08 within 128 cycles.
 Requested convergence on MAX density matrix=1.00D-06.
 Requested convergence on             energy=1.00D-06.
 No special actions if energy rises.
 Fock matrices will be formed incrementally for  20 cycles.

 Cycle   1  Pass 1  IDiag  1:
 FoFJK:  IHMeth= 1 ICntrl=       0 DoSepK=F KAlg= 0 I1Cent=           0 FoldK=F
 IRaf= 900000000 NMat=       1 IRICut=       1 DoRegI=T DoRafI=F ISym2E= 0 IDoP0=0 IntGTp=1.
 FoFCou: FMM=F IPFlag=           0 FMFlag=      100000 FMFlg1=           0
         NFxFlg=           0 DoJE=F BraDBF=F KetDBF=F FulRan=T
         wScrn=  0.000000 ICntrl=         0 IOpCl=  0 I1Cent=           0 NGrid=           0
         NMat0=    1 NMatS0=      1 NMatT0=    0 NMatD0=    1 NMtDS0=    0 NMtDT0=    0
 Symmetry not used in FoFCou.
 E= -580.257334961845    
 DIIS: error= 5.41D-05 at cycle   1 NSaved=   1.
 NSaved= 1 IEnMin= 1 EnMin= -580.257334961845     IErMin= 1 ErrMin= 5.41D-05
 ErrMax= 5.41D-05  0.00D+00 EMaxC= 1.00D-01 BMatC= 2.01D-06 BMatP= 2.01D-06
 IDIUse=1 WtCom= 1.00D+00 WtEn= 0.00D+00
 Coeff-Com:  0.100D+01
 Coeff:      0.100D+01
 Gap=     0.683 Goal=   None    Shift=    0.000
 RMSDP=1.03D-05 MaxDP=1.92D-03              OVMax= 1.79D-04

 Cycle   2  Pass 1  IDiag  1:
 RMSU=  9.94D-06    CP:  1.00D+00
 E= -580.257335897128     Delta-E=       -0.000000935284 Rises=F Damp=F
 DIIS: error= 1.72D-05 at cycle   2 NSaved=   2.
 NSaved= 2 IEnMin= 2 EnMin= -580.257335897128     IErMin= 2 ErrMin= 1.72D-05
 ErrMax= 1.72D-05  0.00D+00 EMaxC= 1.00D-01 BMatC= 1.98D-07 BMatP= 2.01D-06
 IDIUse=1 WtCom= 1.00D+00 WtEn= 0.00D+00
 Coeff-Com:  0.149D+00 0.851D+00
 Coeff:      0.149D+00 0.851D+00
 Gap=     0.181 Goal=   None    Shift=    0.000
 RMSDP=1.68D-06 MaxDP=5.01D-05 DE=-9.35D-07 OVMax= 1.94D-04

 Cycle   3  Pass 1  IDiag  1:
 RMSU=  1.68D-06    CP:  1.00D+00  9.99D-01
 E= -580.257335887958     Delta-E=        0.000000009171 Rises=F Damp=F
 DIIS: error= 2.43D-05 at cycle   3 NSaved=   3.
 NSaved= 3 IEnMin= 2 EnMin= -580.257335897128     IErMin= 2 ErrMin= 1.72D-05
 ErrMax= 2.43D-05  0.00D+00 EMaxC= 1.00D-01 BMatC= 1.95D-07 BMatP= 1.98D-07
 IDIUse=1 WtCom= 1.00D+00 WtEn= 0.00D+00
 Coeff-Com:  0.103D-01 0.498D+00 0.492D+00
 Coeff:      0.103D-01 0.498D+00 0.492D+00
 Gap=     0.181 Goal=   None    Shift=    0.000
 RMSDP=1.00D-06 MaxDP=3.01D-05 DE= 9.17D-09 OVMax= 1.54D-04

 Cycle   4  Pass 1  IDiag  1:
 RMSU=  5.96D-07    CP:  1.00D+00  1.01D+00  5.25D-01
 E= -580.257336076412     Delta-E=       -0.000000188454 Rises=F Damp=F
 DIIS: error= 1.27D-05 at cycle   4 NSaved=   4.
 NSaved= 4 IEnMin= 4 EnMin= -580.257336076412     IErMin= 4 ErrMin= 1.27D-05
 ErrMax= 1.27D-05  0.00D+00 EMaxC= 1.00D-01 BMatC= 2.52D-08 BMatP= 1.95D-07
 IDIUse=1 WtCom= 1.00D+00 WtEn= 0.00D+00
 Coeff-Com: -0.628D-03 0.282D+00 0.335D+00 0.384D+00
 Coeff:     -0.628D-03 0.282D+00 0.335D+00 0.384D+00
 Gap=     0.181 Goal=   None    Shift=    0.000
 RMSDP=2.70D-07 MaxDP=9.38D-06 DE=-1.88D-07 OVMax= 5.67D-05

 Cycle   5  Pass 1  IDiag  1:
 RMSU=  1.49D-07    CP:  1.00D+00  1.01D+00  5.37D-01  6.24D-01
 E= -580.257336102985     Delta-E=       -0.000000026573 Rises=F Damp=F
 DIIS: error= 1.30D-06 at cycle   5 NSaved=   5.
 NSaved= 5 IEnMin= 5 EnMin= -580.257336102985     IErMin= 5 ErrMin= 1.30D-06
 ErrMax= 1.30D-06  0.00D+00 EMaxC= 1.00D-01 BMatC= 6.29D-10 BMatP= 2.52D-08
 IDIUse=1 WtCom= 1.00D+00 WtEn= 0.00D+00
 Coeff-Com: -0.164D-02 0.755D-01 0.109D+00 0.178D+00 0.640D+00
 Coeff:     -0.164D-02 0.755D-01 0.109D+00 0.178D+00 0.640D+00
 Gap=     0.181 Goal=   None    Shift=    0.000
 RMSDP=6.15D-08 MaxDP=2.02D-06 DE=-2.66D-08 OVMax= 7.83D-06

 Cycle   6  Pass 1  IDiag  1:
 RMSU=  4.89D-08    CP:  1.00D+00  1.01D+00  5.42D-01  6.16D-01  7.60D-01
 E= -580.257336103585     Delta-E=       -0.000000000600 Rises=F Damp=F
 DIIS: error= 4.53D-07 at cycle   6 NSaved=   6.
 NSaved= 6 IEnMin= 6 EnMin= -580.257336103585     IErMin= 6 ErrMin= 4.53D-07
 ErrMax= 4.53D-07  0.00D+00 EMaxC= 1.00D-01 BMatC= 6.49D-11 BMatP= 6.29D-10
 IDIUse=1 WtCom= 1.00D+00 WtEn= 0.00D+00
 Coeff-Com: -0.778D-03 0.194D-01 0.339D-01 0.648D-01 0.323D+00 0.560D+00
 Coeff:     -0.778D-03 0.194D-01 0.339D-01 0.648D-01 0.323D+00 0.560D+00
 Gap=     0.181 Goal=   None    Shift=    0.000
 RMSDP=1.83D-08 MaxDP=6.43D-07 DE=-6.00D-10 OVMax= 2.48D-06

 Cycle   7  Pass 1  IDiag  1:
 RMSU=  1.16D-08    CP:  1.00D+00  1.01D+00  5.45D-01  6.08D-01  7.81D-01
                    CP:  7.60D-01
 E= -580.257336103631     Delta-E=       -0.000000000046 Rises=F Damp=F
 DIIS: error= 1.67D-07 at cycle   7 NSaved=   7.
 NSaved= 7 IEnMin= 7 EnMin= -580.257336103631     IErMin= 7 ErrMin= 1.67D-07
 ErrMax= 1.67D-07  0.00D+00 EMaxC= 1.00D-01 BMatC= 6.11D-12 BMatP= 6.49D-11
 IDIUse=1 WtCom= 1.00D+00 WtEn= 0.00D+00
 Coeff-Com: -0.165D-03 0.549D-03 0.341D-02 0.113D-01 0.733D-01 0.272D+00
 Coeff-Com:  0.639D+00
 Coeff:     -0.165D-03 0.549D-03 0.341D-02 0.113D-01 0.733D-01 0.272D+00
 Coeff:      0.639D+00
 Gap=     0.181 Goal=   None    Shift=    0.000
 RMSDP=4.97D-09 MaxDP=2.05D-07 DE=-4.59D-11 OVMax= 7.19D-07

 SCF Done:  E(RB3LYP) =  -580.257336104     A.U. after    7 cycles
            NFock=  7  Conv=0.50D-08     -V/T= 2.0053
 KE= 5.771710240546D+02 PE=-3.203328512837D+03 EE= 1.116749566349D+03
 Leave Link  502 at Wed Mar 11 12:44:31 2026, MaxMem=   104857600 cpu:             555.3 elap:             556.0
 (Enter /sw/cluster/pub/apps//g16/l701.exe)
 ... and contract with generalized density number  0.
 Compute integral first derivatives.
   1 Symmetry operations used in ECPInt.
 ECPInt:  NShTT=   24531 NPrTT=   74292 LenC2=   23181 LenP2D=   52842.
 LDataN:  DoStor=T MaxTD1= 7 Len=  274
 Leave Link  701 at Wed Mar 11 12:44:31 2026, MaxMem=   104857600 cpu:               0.2 elap:               0.2
 (Enter /sw/cluster/pub/apps//g16/l702.exe)
 L702 exits ... SP integral derivatives will be done elsewhere.
 Leave Link  702 at Wed Mar 11 12:44:31 2026, MaxMem=   104857600 cpu:               0.0 elap:               0.0
 (Enter /sw/cluster/pub/apps//g16/l703.exe)
 Integral derivatives from FoFJK, PRISM(SPDF).
 Compute integral first derivatives, UseDBF=F ICtDFT=           0.
 Calling FoFJK, ICntrl=      2127 FMM=F ISym2X=0 I1Cent= 0 IOpClX= 0 NMat=1 NMatS=1 NMatT=0.
 FoFJK:  IHMeth= 1 ICntrl=    2127 DoSepK=F KAlg= 0 I1Cent=           0 FoldK=F
 IRaf=         0 NMat=       1 IRICut=       1 DoRegI=T DoRafI=F ISym2E= 0 IDoP0=0 IntGTp=1.
 FoFCou: FMM=F IPFlag=           0 FMFlag=      100000 FMFlg1=         800
         NFxFlg=           0 DoJE=F BraDBF=F KetDBF=F FulRan=T
         wScrn=  0.000000 ICntrl=      2127 IOpCl=  0 I1Cent=           0 NGrid=           0
         NMat0=    1 NMatS0=      1 NMatT0=    0 NMatD0=    1 NMtDS0=    0 NMtDT0=    0
 Symmetry not used in FoFCou.
 Leave Link  703 at Wed Mar 11 12:49:25 2026, MaxMem=   104857600 cpu:             293.8 elap:             294.2
 (Enter /sw/cluster/pub/apps//g16/l716.exe)
 Dipole        = 1.16772353D-05 1.95937432D-01 1.27147089D-05
 ***** Axes restored to original set *****
 -------------------------------------------------------------------
 Center     Atomic                   Forces (Hartrees/Bohr)
 Number     Number              X              Y              Z
 -------------------------------------------------------------------
      1        6          -0.000049066   -0.000088582   -0.000007287
      2        6           0.000035614    0.000089391   -0.000000175
      3        6          -0.000006473   -0.000049570   -0.000000021
      4        6          -0.000063562   -0.000019382    0.000000878
      5        6           0.000061745    0.000048610    0.000001156
      6        6           0.000011499   -0.000013762   -0.000000145
      7        6          -0.000038001   -0.000041150    0.000000855
      8        6           0.000070445    0.000012576    0.000000159
      9        6          -0.000019814    0.000014586   -0.000000312
     10        1           0.000009505    0.000006544    0.000000001
     11        1          -0.000002509    0.000003650   -0.000000201
     12        1          -0.000004356    0.000000568   -0.000000098
     13        1          -0.000016782    0.000010236   -0.000000380
     14        6           0.000012184   -0.000023830    0.000000760
     15        6           0.000000674    0.000070441   -0.000001354
     16        6          -0.000032536   -0.000046775    0.000000855
     17        6          -0.000017203    0.000002451    0.000000150
     18        1           0.000008241   -0.000012523   -0.000000178
     19        1           0.000001530   -0.000003059    0.000000054
     20        1           0.000004038    0.000001195    0.000000150
     21        1           0.000012032    0.000008465   -0.000000128
     22        6           0.000009707    0.000014746   -0.000025655
     23        1           0.000006386    0.000004653    0.000008984
     24        1          -0.000010718    0.000005711   -0.000002352
     25        1           0.000006204   -0.000011146   -0.000000623
     26        6           0.000010497    0.000015522    0.000029173
     27        1           0.000005208   -0.000010361    0.000002292
     28        1          -0.000011191    0.000006636    0.000002107
     29        1           0.000006703    0.000004162   -0.000008666
 -------------------------------------------------------------------
 Cartesian Forces:  Max     0.000089391 RMS     0.000025186
 Leave Link  716 at Wed Mar 11 12:49:25 2026, MaxMem=   104857600 cpu:               0.0 elap:               0.0
 (Enter /sw/cluster/pub/apps//g16/l103.exe)

 GradGradGradGradGradGradGradGradGradGradGradGradGradGradGradGradGradGrad
 Berny optimization.
 Using GEDIIS/GDIIS optimizer.
 FormGI is forming the generalized inverse of G from B-inverse, IUseBI=4.
 Internal  Forces:  Max     0.000050207 RMS     0.000010360
 Search for a local minimum.
 Step number   3 out of a maximum of  174
 All quantities printed in internal units (Hartrees-Bohrs-Radians)
 RMS Force = .10360D-04 SwitMx=.10000D-02 MixMth= 2
 Mixed Optimization -- En-DIIS/RFO-DIIS
 Swapping is turned off.
 Update second derivatives using D2CorX and points    1    2    3
 DE= -4.84D-06 DEPred=-4.88D-06 R= 9.93D-01
 TightC=F SS=  1.41D+00  RLast= 4.87D-03 DXNew= 5.0454D-01 1.4612D-02
 Trust test= 9.93D-01 RLast= 4.87D-03 DXMaxT set to 3.00D-01
 ITU=  1  1  0
     Eigenvalues ---    0.00230   0.00230   0.00756   0.01247   0.01447
     Eigenvalues ---    0.01648   0.01717   0.01880   0.02096   0.02097
     Eigenvalues ---    0.02113   0.02113   0.02118   0.02119   0.02135
     Eigenvalues ---    0.02135   0.02145   0.02146   0.02161   0.02161
     Eigenvalues ---    0.04404   0.05437   0.05437   0.05503   0.05504
     Eigenvalues ---    0.05976   0.08005   0.11612   0.15834   0.15999
     Eigenvalues ---    0.16000   0.16000   0.16000   0.16000   0.16000
     Eigenvalues ---    0.16000   0.16000   0.16000   0.16000   0.16000
     Eigenvalues ---    0.16000   0.16062   0.18950   0.21998   0.22000
     Eigenvalues ---    0.22600   0.22680   0.24481   0.24588   0.24990
     Eigenvalues ---    0.28039   0.28171   0.28789   0.29036   0.33828
     Eigenvalues ---    0.34100   0.34103   0.34105   0.34251   0.34283
     Eigenvalues ---    0.34637   0.35075   0.35087   0.35133   0.35142
     Eigenvalues ---    0.35181   0.35183   0.35185   0.35303   0.37920
     Eigenvalues ---    0.40479   0.42084   0.42088   0.44318   0.45085
     Eigenvalues ---    0.45537   0.45815   0.46110   0.46280   0.46882
     Eigenvalues ---    0.50922
 En-DIIS/RFO-DIIS/Sim-DIIS IScMMF=       -3 using points:     3    2
 RFO step:  Lambda=-6.46508233D-08.
 NNeg= 0 NGDIIS= 2 SimSw=  2.50D-03 Rises=F DC= -4.84D-06 SmlDif=  1.00D-05
 NRisDI= 0 DoIntr=F SqrtH=F CThrHd= 10.0 CDAdj=  3.0
 RMS Error=  0.1152469492D-03 NUsed= 2 OKEnD=F EnDIS=F
 InvSVX:  RCond= 2.67D-05 Info=           0 Equed=N FErr=  1.06D-15 BErr=  8.92D-18
 DidBck=F Rises=F RFO-DIIS coefs:    0.96750    0.03250
 Iteration  1 RMS(Cart)=  0.00012391 RMS(Int)=  0.00000002
 Iteration  2 RMS(Cart)=  0.00000002 RMS(Int)=  0.00000000
 ITry= 1 IFail=0 DXMaxC= 6.47D-04 DCOld= 1.00D+10 DXMaxT= 3.00D-01 DXLimC= 3.00D+00 Rises=F
 Variable       Old X    -DE/DX   Delta X   Delta X   Delta X     New X
                                 (Linear)    (Quad)   (Total)
    R1        2.88189   0.00000  -0.00004   0.00008   0.00004   2.88193
    R2        2.88181   0.00002  -0.00005   0.00013   0.00009   2.88190
    R3        2.91200  -0.00003  -0.00003  -0.00006  -0.00009   2.91191
    R4        2.91204  -0.00003  -0.00003  -0.00008  -0.00011   2.91194
    R5        2.65230  -0.00004  -0.00003  -0.00007  -0.00009   2.65221
    R6        2.61794  -0.00000  -0.00004   0.00004   0.00000   2.61795
    R7        2.76896   0.00001  -0.00004   0.00006   0.00002   2.76898
    R8        2.62970   0.00001  -0.00004   0.00006   0.00003   2.62973
    R9        2.65229  -0.00004  -0.00003  -0.00006  -0.00008   2.65221
   R10        2.62970   0.00001  -0.00004   0.00006   0.00002   2.62973
   R11        2.61795  -0.00000  -0.00004   0.00004   0.00000   2.61795
   R12        2.63528  -0.00001  -0.00003   0.00001  -0.00002   2.63526
   R13        2.04811   0.00001  -0.00001   0.00004   0.00003   2.04814
   R14        2.63271   0.00005  -0.00004   0.00016   0.00012   2.63283
   R15        2.04619   0.00000  -0.00001   0.00002   0.00001   2.04621
   R16        2.62880  -0.00003  -0.00003  -0.00003  -0.00006   2.62874
   R17        2.04626   0.00000  -0.00001   0.00002   0.00001   2.04627
   R18        2.04699   0.00001  -0.00001   0.00005   0.00003   2.04703
   R19        2.62880  -0.00003  -0.00003  -0.00003  -0.00006   2.62874
   R20        2.04699   0.00001  -0.00001   0.00005   0.00004   2.04702
   R21        2.63271   0.00005  -0.00004   0.00016   0.00012   2.63283
   R22        2.04626   0.00000  -0.00001   0.00002   0.00001   2.04627
   R23        2.63528  -0.00001  -0.00003   0.00001  -0.00002   2.63527
   R24        2.04620   0.00000  -0.00001   0.00002   0.00001   2.04621
   R25        2.04811   0.00001  -0.00001   0.00004   0.00003   2.04814
   R26        2.06098   0.00001  -0.00000   0.00004   0.00003   2.06101
   R27        2.06336   0.00001   0.00000   0.00003   0.00003   2.06339
   R28        2.06335   0.00001   0.00000   0.00003   0.00003   2.06339
   R29        2.06335   0.00001   0.00000   0.00003   0.00003   2.06339
   R30        2.06336   0.00001   0.00000   0.00003   0.00003   2.06339
   R31        2.06098   0.00001  -0.00000   0.00003   0.00003   2.06101
    A1        1.76523  -0.00002  -0.00000  -0.00012  -0.00012   1.76511
    A2        1.94420   0.00001   0.00000   0.00002   0.00002   1.94422
    A3        1.94413   0.00001  -0.00000   0.00005   0.00005   1.94418
    A4        1.94425   0.00000   0.00000  -0.00001  -0.00001   1.94424
    A5        1.94419   0.00001   0.00000   0.00001   0.00001   1.94420
    A6        1.91800  -0.00000  -0.00000   0.00004   0.00004   1.91804
    A7        1.93612   0.00001   0.00000   0.00009   0.00009   1.93621
    A8        2.24899  -0.00003   0.00000  -0.00012  -0.00012   2.24887
    A9        2.09808   0.00001  -0.00000   0.00003   0.00003   2.09811
   A10        1.89365  -0.00000  -0.00000  -0.00003  -0.00003   1.89362
   A11        2.10422   0.00001   0.00001   0.00002   0.00003   2.10425
   A12        2.28531  -0.00000  -0.00001   0.00001   0.00000   2.28531
   A13        1.89362   0.00000  -0.00000  -0.00000  -0.00001   1.89361
   A14        2.28541  -0.00002  -0.00000  -0.00005  -0.00006   2.28535
   A15        2.10416   0.00002   0.00000   0.00006   0.00006   2.10423
   A16        1.93616   0.00001   0.00000   0.00006   0.00006   1.93622
   A17        2.24889  -0.00001  -0.00000  -0.00006  -0.00006   2.24883
   A18        2.09814   0.00000   0.00000  -0.00000  -0.00000   2.09813
   A19        2.08088  -0.00001  -0.00001  -0.00002  -0.00002   2.08085
   A20        2.11156   0.00002  -0.00001   0.00014   0.00013   2.11169
   A21        2.09075  -0.00001   0.00002  -0.00012  -0.00010   2.09065
   A22        2.10341   0.00000   0.00000   0.00002   0.00002   2.10343
   A23        2.09030  -0.00000  -0.00000  -0.00002  -0.00002   2.09028
   A24        2.08948   0.00000  -0.00000   0.00000   0.00000   2.08948
   A25        2.10386  -0.00001   0.00000  -0.00003  -0.00003   2.10383
   A26        2.08879   0.00000   0.00000  -0.00001  -0.00000   2.08879
   A27        2.09053   0.00001  -0.00001   0.00004   0.00003   2.09057
   A28        2.07592  -0.00001  -0.00001  -0.00002  -0.00003   2.07590
   A29        2.10975   0.00000   0.00000   0.00002   0.00002   2.10977
   A30        2.09751   0.00000   0.00001   0.00000   0.00001   2.09752
   A31        2.07591  -0.00000  -0.00001  -0.00001  -0.00002   2.07589
   A32        2.10969   0.00001  -0.00000   0.00006   0.00006   2.10975
   A33        2.09759  -0.00001   0.00001  -0.00005  -0.00004   2.09755
   A34        2.10383  -0.00000   0.00000  -0.00001  -0.00001   2.10382
   A35        2.09058   0.00000  -0.00000   0.00001   0.00000   2.09059
   A36        2.08877   0.00000   0.00000   0.00001   0.00001   2.08878
   A37        2.10345  -0.00000   0.00001  -0.00001  -0.00000   2.10345
   A38        2.08947   0.00000  -0.00000   0.00001   0.00001   2.08948
   A39        2.09026   0.00000  -0.00000   0.00000  -0.00000   2.09026
   A40        2.08088  -0.00001  -0.00000  -0.00002  -0.00003   2.08086
   A41        2.11161   0.00002  -0.00001   0.00011   0.00010   2.11170
   A42        2.09069  -0.00001   0.00002  -0.00008  -0.00007   2.09063
   A43        1.93875  -0.00000  -0.00001   0.00000  -0.00001   1.93874
   A44        1.93119  -0.00000  -0.00001  -0.00002  -0.00003   1.93116
   A45        1.93117  -0.00000  -0.00001  -0.00000  -0.00001   1.93116
   A46        1.88896   0.00000   0.00001   0.00000   0.00001   1.88897
   A47        1.88898   0.00000   0.00001  -0.00002  -0.00001   1.88897
   A48        1.88306   0.00001   0.00001   0.00003   0.00004   1.88311
   A49        1.93117  -0.00000  -0.00001  -0.00001  -0.00002   1.93115
   A50        1.93119  -0.00001  -0.00001  -0.00003  -0.00003   1.93116
   A51        1.93874  -0.00000  -0.00001   0.00001  -0.00001   1.93874
   A52        1.88307   0.00001   0.00001   0.00003   0.00004   1.88312
   A53        1.88897   0.00000   0.00001  -0.00001   0.00000   1.88897
   A54        1.88896   0.00000   0.00001   0.00000   0.00001   1.88897
    D1       -0.00005  -0.00000   0.00000   0.00003   0.00003  -0.00002
    D2        3.14157  -0.00000   0.00000   0.00001   0.00001   3.14158
    D3       -2.06753   0.00000  -0.00000   0.00010   0.00010  -2.06743
    D4        1.07409   0.00000  -0.00000   0.00008   0.00008   1.07417
    D5        2.06734  -0.00000  -0.00000  -0.00000  -0.00001   2.06733
    D6       -1.07424  -0.00000  -0.00000  -0.00002  -0.00002  -1.07426
    D7        0.00005   0.00000  -0.00000  -0.00003  -0.00003   0.00002
    D8       -3.14156   0.00000  -0.00000  -0.00002  -0.00002  -3.14158
    D9        2.06749  -0.00000   0.00000  -0.00008  -0.00008   2.06742
   D10       -1.07412  -0.00000   0.00000  -0.00007  -0.00007  -1.07418
   D11       -2.06729  -0.00000   0.00000  -0.00003  -0.00003  -2.06732
   D12        1.07429  -0.00000   0.00000  -0.00002  -0.00002   1.07427
   D13        0.97850  -0.00001   0.00000  -0.00030  -0.00030   0.97820
   D14        3.07700  -0.00001   0.00000  -0.00031  -0.00031   3.07669
   D15       -1.12002  -0.00001   0.00000  -0.00028  -0.00028  -1.12030
   D16       -0.97820   0.00001   0.00000  -0.00016  -0.00016  -0.97836
   D17        1.12031   0.00001   0.00000  -0.00017  -0.00017   1.12014
   D18       -3.07672   0.00001   0.00000  -0.00014  -0.00014  -3.07685
   D19       -3.14150   0.00000  -0.00000  -0.00019  -0.00019   3.14149
   D20       -1.04299  -0.00000  -0.00000  -0.00020  -0.00020  -1.04320
   D21        1.04316   0.00000  -0.00000  -0.00017  -0.00017   1.04300
   D22        1.11989   0.00001   0.00001   0.00046   0.00046   1.12035
   D23       -3.07713   0.00001   0.00001   0.00048   0.00049  -3.07664
   D24       -0.97862   0.00001   0.00001   0.00047   0.00048  -0.97814
   D25        3.07651  -0.00001   0.00001   0.00035   0.00035   3.07686
   D26       -1.12051  -0.00000   0.00001   0.00037   0.00038  -1.12013
   D27        0.97800  -0.00001   0.00001   0.00036   0.00037   0.97837
   D28       -1.04334  -0.00000   0.00001   0.00036   0.00038  -1.04297
   D29        1.04283   0.00000   0.00001   0.00039   0.00040   1.04323
   D30        3.14134   0.00000   0.00001   0.00038   0.00039  -3.14146
   D31        0.00003   0.00000   0.00000  -0.00001  -0.00001   0.00001
   D32       -3.14156  -0.00000   0.00000  -0.00002  -0.00002  -3.14158
   D33       -3.14158   0.00000   0.00000  -0.00000  -0.00000  -3.14158
   D34        0.00001   0.00000   0.00000  -0.00001  -0.00000   0.00001
   D35        3.14156   0.00000  -0.00000   0.00002   0.00002   3.14158
   D36       -0.00004   0.00000  -0.00000   0.00002   0.00002  -0.00002
   D37       -0.00001   0.00000  -0.00000   0.00001   0.00001  -0.00000
   D38        3.14158   0.00000  -0.00000   0.00001   0.00001   3.14158
   D39        0.00000  -0.00000  -0.00000  -0.00000  -0.00001  -0.00000
   D40        3.14158  -0.00000   0.00000   0.00001   0.00001   3.14159
   D41        3.14159   0.00000  -0.00000   0.00000  -0.00000   3.14159
   D42       -0.00001   0.00000   0.00000   0.00001   0.00001  -0.00000
   D43       -0.00001  -0.00000  -0.00000   0.00000   0.00000  -0.00001
   D44        3.14159   0.00000  -0.00000   0.00000   0.00000   3.14159
   D45        3.14159  -0.00000  -0.00000  -0.00000  -0.00000   3.14159
   D46        0.00000  -0.00000   0.00000  -0.00000  -0.00000  -0.00000
   D47       -0.00003  -0.00000   0.00000   0.00002   0.00002  -0.00001
   D48        3.14157  -0.00000   0.00000   0.00001   0.00001   3.14159
   D49        3.14157  -0.00000  -0.00000   0.00001   0.00001   3.14158
   D50       -0.00001  -0.00000  -0.00000   0.00000   0.00000  -0.00001
   D51       -3.14157   0.00000  -0.00000  -0.00001  -0.00002  -3.14159
   D52        0.00002   0.00000  -0.00000  -0.00001  -0.00001   0.00001
   D53        0.00001   0.00000   0.00000  -0.00000  -0.00000   0.00000
   D54        3.14159  -0.00000   0.00000   0.00000   0.00000  -3.14159
   D55       -3.14157  -0.00000  -0.00000  -0.00001  -0.00001  -3.14158
   D56        0.00002  -0.00000  -0.00000  -0.00001  -0.00001   0.00001
   D57        0.00001   0.00000   0.00000  -0.00000  -0.00000   0.00000
   D58       -3.14159   0.00000   0.00000  -0.00000   0.00000  -3.14159
   D59       -0.00000   0.00000   0.00000   0.00000   0.00000   0.00000
   D60       -3.14159  -0.00000   0.00000  -0.00000  -0.00000  -3.14159
   D61        3.14159   0.00000   0.00000  -0.00000  -0.00000   3.14159
   D62        0.00000  -0.00000   0.00000  -0.00000  -0.00000  -0.00000
   D63       -0.00000  -0.00000  -0.00000  -0.00000  -0.00000  -0.00000
   D64       -3.14159  -0.00000   0.00000  -0.00001  -0.00001   3.14159
   D65        3.14159  -0.00000  -0.00000   0.00000   0.00000   3.14159
   D66       -0.00000   0.00000   0.00000  -0.00000  -0.00000  -0.00000
   D67       -0.00000   0.00000   0.00000   0.00000   0.00000   0.00000
   D68       -3.14159   0.00000   0.00000  -0.00000  -0.00000  -3.14159
   D69        3.14159   0.00000  -0.00000   0.00001   0.00000   3.14159
   D70        0.00000   0.00000  -0.00000   0.00000  -0.00000  -0.00000
   D71       -0.00000   0.00000   0.00000   0.00000   0.00000   0.00000
   D72        3.14159   0.00000   0.00000   0.00000   0.00000  -3.14159
   D73        3.14159  -0.00000  -0.00000   0.00000   0.00000   3.14159
   D74       -0.00001  -0.00000   0.00000   0.00000   0.00000  -0.00000
   D75        0.00001   0.00000   0.00000  -0.00000  -0.00000   0.00000
   D76       -3.14159  -0.00000   0.00000  -0.00000  -0.00000  -3.14159
   D77       -3.14159  -0.00000  -0.00000  -0.00000  -0.00000  -3.14159
   D78        0.00001  -0.00000   0.00000  -0.00000  -0.00000   0.00000
   D79        0.00000  -0.00000   0.00000  -0.00000  -0.00000  -0.00000
   D80       -3.14159  -0.00000   0.00000  -0.00001  -0.00000  -3.14159
   D81        3.14159   0.00000  -0.00000  -0.00000  -0.00000   3.14159
   D82        0.00001  -0.00000   0.00000  -0.00000  -0.00000   0.00000
         Item               Value     Threshold  Converged?
 Maximum Force            0.000050     0.000450     YES
 RMS     Force            0.000010     0.000300     YES
 Maximum Displacement     0.000647     0.001800     YES
 RMS     Displacement     0.000124     0.001200     YES
 Predicted change in Energy=-3.232543D-08
 Optimization completed.
    -- Stationary point found.
                           ----------------------------
                           !   Optimized Parameters   !
                           ! (Angstroms and Degrees)  !
 --------------------------                            --------------------------
 ! Name  Definition              Value          Derivative Info.                !
 --------------------------------------------------------------------------------
 ! R1    R(1,2)                  1.525          -DE/DX =    0.0                 !
 ! R2    R(1,5)                  1.525          -DE/DX =    0.0                 !
 ! R3    R(1,22)                 1.541          -DE/DX =    0.0                 !
 ! R4    R(1,26)                 1.541          -DE/DX =    0.0                 !
 ! R5    R(2,3)                  1.4035         -DE/DX =    0.0                 !
 ! R6    R(2,17)                 1.3854         -DE/DX =    0.0                 !
 ! R7    R(3,4)                  1.4653         -DE/DX =    0.0                 !
 ! R8    R(3,14)                 1.3916         -DE/DX =    0.0                 !
 ! R9    R(4,5)                  1.4035         -DE/DX =    0.0                 !
 ! R10   R(4,9)                  1.3916         -DE/DX =    0.0                 !
 ! R11   R(5,6)                  1.3854         -DE/DX =    0.0                 !
 ! R12   R(6,7)                  1.3945         -DE/DX =    0.0                 !
 ! R13   R(6,13)                 1.0838         -DE/DX =    0.0                 !
 ! R14   R(7,8)                  1.3932         -DE/DX =    0.0001              !
 ! R15   R(7,12)                 1.0828         -DE/DX =    0.0                 !
 ! R16   R(8,9)                  1.3911         -DE/DX =    0.0                 !
 ! R17   R(8,11)                 1.0828         -DE/DX =    0.0                 !
 ! R18   R(9,10)                 1.0832         -DE/DX =    0.0                 !
 ! R19   R(14,15)                1.3911         -DE/DX =    0.0                 !
 ! R20   R(14,21)                1.0832         -DE/DX =    0.0                 !
 ! R21   R(15,16)                1.3932         -DE/DX =    0.0001              !
 ! R22   R(15,20)                1.0828         -DE/DX =    0.0                 !
 ! R23   R(16,17)                1.3945         -DE/DX =    0.0                 !
 ! R24   R(16,19)                1.0828         -DE/DX =    0.0                 !
 ! R25   R(17,18)                1.0838         -DE/DX =    0.0                 !
 ! R26   R(22,23)                1.0906         -DE/DX =    0.0                 !
 ! R27   R(22,24)                1.0919         -DE/DX =    0.0                 !
 ! R28   R(22,25)                1.0919         -DE/DX =    0.0                 !
 ! R29   R(26,27)                1.0919         -DE/DX =    0.0                 !
 ! R30   R(26,28)                1.0919         -DE/DX =    0.0                 !
 ! R31   R(26,29)                1.0906         -DE/DX =    0.0                 !
 ! A1    A(2,1,5)              101.1402         -DE/DX =    0.0                 !
 ! A2    A(2,1,22)             111.3945         -DE/DX =    0.0                 !
 ! A3    A(2,1,26)             111.3906         -DE/DX =    0.0                 !
 ! A4    A(5,1,22)             111.3974         -DE/DX =    0.0                 !
 ! A5    A(5,1,26)             111.394          -DE/DX =    0.0                 !
 ! A6    A(22,1,26)            109.8933         -DE/DX =    0.0                 !
 ! A7    A(1,2,3)              110.9314         -DE/DX =    0.0                 !
 ! A8    A(1,2,17)             128.8575         -DE/DX =    0.0                 !
 ! A9    A(3,2,17)             120.2111         -DE/DX =    0.0                 !
 ! A10   A(2,3,4)              108.4982         -DE/DX =    0.0                 !
 ! A11   A(2,3,14)             120.5631         -DE/DX =    0.0                 !
 ! A12   A(4,3,14)             130.9387         -DE/DX =    0.0                 !
 ! A13   A(3,4,5)              108.4963         -DE/DX =    0.0                 !
 ! A14   A(3,4,9)              130.9441         -DE/DX =    0.0                 !
 ! A15   A(5,4,9)              120.5596         -DE/DX =    0.0                 !
 ! A16   A(1,5,4)              110.9339         -DE/DX =    0.0                 !
 ! A17   A(1,5,6)              128.8518         -DE/DX =    0.0                 !
 ! A18   A(4,5,6)              120.2143         -DE/DX =    0.0                 !
 ! A19   A(5,6,7)              119.2254         -DE/DX =    0.0                 !
 ! A20   A(5,6,13)             120.9834         -DE/DX =    0.0                 !
 ! A21   A(7,6,13)             119.7912         -DE/DX =    0.0                 !
 ! A22   A(6,7,8)              120.5166         -DE/DX =    0.0                 !
 ! A23   A(6,7,12)             119.7651         -DE/DX =    0.0                 !
 ! A24   A(8,7,12)             119.7182         -DE/DX =    0.0                 !
 ! A25   A(7,8,9)              120.5424         -DE/DX =    0.0                 !
 ! A26   A(7,8,11)             119.6789         -DE/DX =    0.0                 !
 ! A27   A(9,8,11)             119.7788         -DE/DX =    0.0                 !
 ! A28   A(4,9,8)              118.9417         -DE/DX =    0.0                 !
 ! A29   A(4,9,10)             120.8798         -DE/DX =    0.0                 !
 ! A30   A(8,9,10)             120.1785         -DE/DX =    0.0                 !
 ! A31   A(3,14,15)            118.9407         -DE/DX =    0.0                 !
 ! A32   A(3,14,21)            120.8763         -DE/DX =    0.0                 !
 ! A33   A(15,14,21)           120.183          -DE/DX =    0.0                 !
 ! A34   A(14,15,16)           120.5406         -DE/DX =    0.0                 !
 ! A35   A(14,15,20)           119.7816         -DE/DX =    0.0                 !
 ! A36   A(16,15,20)           119.6778         -DE/DX =    0.0                 !
 ! A37   A(15,16,17)           120.5188         -DE/DX =    0.0                 !
 ! A38   A(15,16,19)           119.7179         -DE/DX =    0.0                 !
 ! A39   A(17,16,19)           119.7633         -DE/DX =    0.0                 !
 ! A40   A(2,17,16)            119.2258         -DE/DX =    0.0                 !
 ! A41   A(2,17,18)            120.9862         -DE/DX =    0.0                 !
 ! A42   A(16,17,18)           119.788          -DE/DX =    0.0                 !
 ! A43   A(1,22,23)            111.0822         -DE/DX =    0.0                 !
 ! A44   A(1,22,24)            110.6488         -DE/DX =    0.0                 !
 ! A45   A(1,22,25)            110.6478         -DE/DX =    0.0                 !
 ! A46   A(23,22,24)           108.2293         -DE/DX =    0.0                 !
 ! A47   A(23,22,25)           108.2305         -DE/DX =    0.0                 !
 ! A48   A(24,22,25)           107.8916         -DE/DX =    0.0                 !
 ! A49   A(1,26,27)            110.6478         -DE/DX =    0.0                 !
 ! A50   A(1,26,28)            110.649          -DE/DX =    0.0                 !
 ! A51   A(1,26,29)            111.0818         -DE/DX =    0.0                 !
 ! A52   A(27,26,28)           107.8921         -DE/DX =    0.0                 !
 ! A53   A(27,26,29)           108.2301         -DE/DX =    0.0                 !
 ! A54   A(28,26,29)           108.2294         -DE/DX =    0.0                 !
 ! D1    D(5,1,2,3)             -0.0026         -DE/DX =    0.0                 !
 ! D2    D(5,1,2,17)           179.9987         -DE/DX =    0.0                 !
 ! D3    D(22,1,2,3)          -118.4605         -DE/DX =    0.0                 !
 ! D4    D(22,1,2,17)           61.5408         -DE/DX =    0.0                 !
 ! D5    D(26,1,2,3)           118.4496         -DE/DX =    0.0                 !
 ! D6    D(26,1,2,17)          -61.5491         -DE/DX =    0.0                 !
 ! D7    D(2,1,5,4)              0.0028         -DE/DX =    0.0                 !
 ! D8    D(2,1,5,6)           -179.9981         -DE/DX =    0.0                 !
 ! D9    D(22,1,5,4)           118.4585         -DE/DX =    0.0                 !
 ! D10   D(22,1,5,6)           -61.5423         -DE/DX =    0.0                 !
 ! D11   D(26,1,5,4)          -118.447          -DE/DX =    0.0                 !
 ! D12   D(26,1,5,6)            61.5522         -DE/DX =    0.0                 !
 ! D13   D(2,1,22,23)           56.0637         -DE/DX =    0.0                 !
 ! D14   D(2,1,22,24)          176.2992         -DE/DX =    0.0                 !
 ! D15   D(2,1,22,25)          -64.1727         -DE/DX =    0.0                 !
 ! D16   D(5,1,22,23)          -56.0466         -DE/DX =    0.0                 !
 ! D17   D(5,1,22,24)           64.1888         -DE/DX =    0.0                 !
 ! D18   D(5,1,22,25)         -176.283          -DE/DX =    0.0                 !
 ! D19   D(26,1,22,23)         180.0053         -DE/DX =    0.0                 !
 ! D20   D(26,1,22,24)         -59.7592         -DE/DX =    0.0                 !
 ! D21   D(26,1,22,25)          59.7689         -DE/DX =    0.0                 !
 ! D22   D(2,1,26,27)           64.1648         -DE/DX =    0.0                 !
 ! D23   D(2,1,26,28)         -176.3063         -DE/DX =    0.0                 !
 ! D24   D(2,1,26,29)          -56.0708         -DE/DX =    0.0                 !
 ! D25   D(5,1,26,27)          176.2708         -DE/DX =    0.0                 !
 ! D26   D(5,1,26,28)          -64.2003         -DE/DX =    0.0                 !
 ! D27   D(5,1,26,29)           56.0352         -DE/DX =    0.0                 !
 ! D28   D(22,1,26,27)         -59.7791         -DE/DX =    0.0                 !
 ! D29   D(22,1,26,28)          59.7497         -DE/DX =    0.0                 !
 ! D30   D(22,1,26,29)        -180.0147         -DE/DX =    0.0                 !
 ! D31   D(1,2,3,4)              0.0016         -DE/DX =    0.0                 !
 ! D32   D(1,2,3,14)          -179.9982         -DE/DX =    0.0                 !
 ! D33   D(17,2,3,4)          -179.9995         -DE/DX =    0.0                 !
 ! D34   D(17,2,3,14)            0.0007         -DE/DX =    0.0                 !
 ! D35   D(1,2,17,16)          179.9981         -DE/DX =    0.0                 !
 ! D36   D(1,2,17,18)           -0.0022         -DE/DX =    0.0                 !
 ! D37   D(3,2,17,16)           -0.0005         -DE/DX =    0.0                 !
 ! D38   D(3,2,17,18)          179.9991         -DE/DX =    0.0                 !
 ! D39   D(2,3,4,5)              0.0003         -DE/DX =    0.0                 !
 ! D40   D(2,3,4,9)            179.9994         -DE/DX =    0.0                 !
 ! D41   D(14,3,4,5)           180.0            -DE/DX =    0.0                 !
 ! D42   D(14,3,4,9)            -0.0008         -DE/DX =    0.0                 !
 ! D43   D(2,3,14,15)           -0.0004         -DE/DX =    0.0                 !
 ! D44   D(2,3,14,21)          179.9998         -DE/DX =    0.0                 !
 ! D45   D(4,3,14,15)          179.9999         -DE/DX =    0.0                 !
 ! D46   D(4,3,14,21)            0.0001         -DE/DX =    0.0                 !
 ! D47   D(3,4,5,1)             -0.002          -DE/DX =    0.0                 !
 ! D48   D(3,4,5,6)            179.9988         -DE/DX =    0.0                 !
 ! D49   D(9,4,5,1)            179.9987         -DE/DX =    0.0                 !
 ! D50   D(9,4,5,6)             -0.0005         -DE/DX =    0.0                 !
 ! D51   D(3,4,9,8)           -179.9988         -DE/DX =    0.0                 !
 ! D52   D(3,4,9,10)             0.0009         -DE/DX =    0.0                 !
 ! D53   D(5,4,9,8)              0.0003         -DE/DX =    0.0                 !
 ! D54   D(5,4,9,10)          -180.0            -DE/DX =    0.0                 !
 ! D55   D(1,5,6,7)           -179.9986         -DE/DX =    0.0                 !
 ! D56   D(1,5,6,13)             0.0013         -DE/DX =    0.0                 !
 ! D57   D(4,5,6,7)              0.0004         -DE/DX =    0.0                 !
 ! D58   D(4,5,6,13)          -179.9997         -DE/DX =    0.0                 !
 ! D59   D(5,6,7,8)             -0.0002         -DE/DX =    0.0                 !
 ! D60   D(5,6,7,12)          -179.9999         -DE/DX =    0.0                 !
 ! D61   D(13,6,7,8)           179.9999         -DE/DX =    0.0                 !
 ! D62   D(13,6,7,12)            0.0002         -DE/DX =    0.0                 !
 ! D63   D(6,7,8,9)              0.0            -DE/DX =    0.0                 !
 ! D64   D(6,7,8,11)           180.0002         -DE/DX =    0.0                 !
 ! D65   D(12,7,8,9)           179.9997         -DE/DX =    0.0                 !
 ! D66   D(12,7,8,11)           -0.0001         -DE/DX =    0.0                 !
 ! D67   D(7,8,9,4)              0.0            -DE/DX =    0.0                 !
 ! D68   D(7,8,9,10)          -179.9997         -DE/DX =    0.0                 !
 ! D69   D(11,8,9,4)           179.9997         -DE/DX =    0.0                 !
 ! D70   D(11,8,9,10)            0.0            -DE/DX =    0.0                 !
 ! D71   D(3,14,15,16)          -0.0001         -DE/DX =    0.0                 !
 ! D72   D(3,14,15,20)        -180.0001         -DE/DX =    0.0                 !
 ! D73   D(21,14,15,16)        179.9997         -DE/DX =    0.0                 !
 ! D74   D(21,14,15,20)         -0.0003         -DE/DX =    0.0                 !
 ! D75   D(14,15,16,17)          0.0003         -DE/DX =    0.0                 !
 ! D76   D(14,15,16,19)       -179.9996         -DE/DX =    0.0                 !
 ! D77   D(20,15,16,17)       -179.9997         -DE/DX =    0.0                 !
 ! D78   D(20,15,16,19)          0.0004         -DE/DX =    0.0                 !
 ! D79   D(15,16,17,2)           0.0            -DE/DX =    0.0                 !
 ! D80   D(15,16,17,18)       -179.9996         -DE/DX =    0.0                 !
 ! D81   D(19,16,17,2)         179.9999         -DE/DX =    0.0                 !
 ! D82   D(19,16,17,18)          0.0003         -DE/DX =    0.0                 !
 --------------------------------------------------------------------------------
 Lowest energy point so far.  Saving SCF results.
 Largest change from initial coordinates is atom   12       0.009 Angstoms.
 GradGradGradGradGradGradGradGradGradGradGradGradGradGradGradGradGradGrad

 Leave Link  103 at Wed Mar 11 12:49:25 2026, MaxMem=   104857600 cpu:               0.0 elap:               0.0
 (Enter /sw/cluster/pub/apps//g16/l202.exe)
                          Input orientation:                          
 ---------------------------------------------------------------------
 Center     Atomic      Atomic             Coordinates (Angstroms)
 Number     Number       Type             X           Y           Z
 ---------------------------------------------------------------------
      1          6           0        0.011976    0.006668    0.039672
      2          6           0        1.536209   -0.041033    0.051823
      3          6           0        2.078544    1.253348    0.032741
      4          6           0        0.976585    2.218784    0.007379
      5          6           0       -0.235510    1.511170    0.011052
      6          6           0       -1.441091    2.193337   -0.009996
      7          6           0       -1.434118    3.587631   -0.034804
      8          6           0       -0.230437    4.289103   -0.038435
      9          6           0        0.983526    3.610126   -0.017378
     10          1           0        1.915932    4.161468   -0.020328
     11          1           0       -0.240855    5.371715   -0.057810
     12          1           0       -2.371335    4.129666   -0.051373
     13          1           0       -2.384325    1.659526   -0.007432
     14          6           0        3.457106    1.443114    0.039536
     15          6           0        4.289842    0.329098    0.065562
     16          6           0        3.752507   -0.956139    0.084528
     17          6           0        2.371019   -1.146309    0.077716
     18          1           0        1.965788   -2.151406    0.092664
     19          1           0        4.413076   -1.813868    0.104717
     20          1           0        5.364597    0.461004    0.071144
     21          1           0        3.881123    2.439787    0.024887
     22          6           0       -0.580687   -0.636543    1.308374
     23          1           0       -0.187001   -0.163341    2.208679
     24          1           0       -1.668047   -0.537764    1.318172
     25          1           0       -0.340166   -1.700833    1.348800
     26          6           0       -0.561890   -0.681357   -1.214100
     27          1           0       -0.320920   -1.746314   -1.213205
     28          1           0       -1.648971   -0.583424   -1.243523
     29          1           0       -0.154825   -0.240205   -2.124671
 ---------------------------------------------------------------------
                    Distance matrix (angstroms):
                    1          2          3          4          5
     1  C    0.000000
     2  C    1.525028   0.000000
     3  C    2.413496   1.403537   0.000000
     4  C    2.413498   2.328504   1.465273   0.000000
     5  C    1.524990   2.355841   2.328473   1.403533   0.000000
     6  C    2.625907   3.722976   3.643245   2.417872   1.385359
     7  C    3.862645   4.690154   4.218084   2.772545   2.398010
     8  C    4.290001   4.677528   3.814743   2.396919   2.778378
     9  C    3.732569   3.693401   2.599227   1.391579   2.427442
    10  H    4.570668   4.220238   2.913146   2.158045   3.413761
    11  H    5.371885   5.698054   4.727447   3.380441   3.861163
    12  H    4.763147   5.716142   5.299217   3.855319   3.379670
    13  H    2.911428   4.273874   4.481495   3.407155   2.154010
    14  C    3.732599   2.427486   1.391579   2.599170   3.693353
    15  C    4.290078   2.778431   2.396905   3.814705   4.677507
    16  C    3.862718   2.398013   2.772485   4.218038   4.690128
    17  C    2.626002   1.385356   2.417833   3.643247   3.722987
    18  H    2.911610   2.154038   3.407148   4.481558   4.273972
    19  H    4.763220   3.379660   3.855261   5.299173   5.716118
    20  H    5.371961   3.861213   3.380448   4.727421   5.698040
    21  H    4.570622   3.413768   2.158006   2.912987   4.220093
    22  C    1.540966   2.532746   3.502919   3.502938   2.532758
    23  H    2.184740   2.763411   3.445927   3.445893   2.763314
    24  H    2.180240   3.481040   4.347109   4.038665   2.821144
    25  H    2.180225   2.820970   4.038485   4.347027   3.481018
    26  C    1.540988   2.532705   3.502797   3.502818   2.532725
    27  H    2.180245   2.820853   4.038290   4.346879   3.480992
    28  H    2.180262   3.481018   4.347062   4.038647   2.821197
    29  H    2.184754   2.763402   3.445731   3.445628   2.763175
                    6          7          8          9         10
     6  C    0.000000
     7  C    1.394532   0.000000
     8  C    2.420481   1.393171   0.000000
     9  C    2.808222   2.417811   1.391100   0.000000
    10  H    3.891433   3.398872   2.150237   1.083221   0.000000
    11  H    3.397784   2.146476   1.082835   2.145679   2.473425
    12  H    2.148589   1.082799   2.146866   3.395021   4.287497
    13  H    1.083813   2.149705   3.399246   3.891961   4.975147
    14  C    4.955565   5.341213   4.658724   3.289040   3.125420
    15  C    6.026996   6.587247   6.010439   4.658728   4.508867
    16  C    6.074669   6.896461   6.587225   5.341201   5.438190
    17  C    5.068837   6.074694   6.027003   4.955588   5.328152
    18  H    5.522151   6.671742   6.805935   5.845699   6.314082
    19  H    7.095218   7.961490   7.670004   6.418445   6.477346
    20  H    7.023173   7.483953   6.780174   5.396165   5.059160
    21  H    5.328031   5.438096   4.508759   3.125308   2.613084
    22  C    3.238304   4.513991   5.118453   4.715780   5.569512
    23  H    3.471195   4.545141   4.987552   4.534812   5.300451
    24  H    3.045399   4.347890   5.215914   5.100934   6.059643
    25  H    4.268832   5.574849   6.149455   5.641355   6.428924
    26  C    3.238321   4.513953   5.118351   4.715642   5.569348
    27  H    4.268881   5.574837   6.149353   5.641191   6.428713
    28  H    3.045521   4.347972   5.215936   5.100915   6.059598
    29  H    3.471089   4.544938   4.987257   4.534488   5.300096
                   11         12         13         14         15
    11  H    0.000000
    12  H    2.466105   0.000000
    13  H    4.286881   2.470565   0.000000
    14  C    5.396138   6.418454   5.845627   0.000000
    15  C    6.780149   7.670024   6.805870   1.391099   0.000000
    16  C    7.483913   7.961491   6.671647   2.417789   1.393170
    17  C    7.023168   7.095245   5.522070   2.808229   2.420506
    18  H    7.841509   7.634346   5.784176   3.891969   3.399244
    19  H    8.562599   9.020986   7.634245   3.395005   2.146864
    20  H    7.453376   8.562637   7.841455   2.145708   1.082834
    21  H    5.059026   6.477248   6.313928   1.083219   2.150282
    22  C    6.170989   5.269922   3.202559   4.715792   5.118505
    23  H    5.981365   5.320626   3.614170   4.534909   4.987742
    24  H    6.233149   4.914791   2.664275   5.641452   6.149546
    25  H    7.211751   6.330944   4.160524   5.100770   5.215773
    26  C    6.170879   5.269911   3.202662   4.715645   5.118383
    27  H    7.211636   6.330971   4.160682   5.100519   5.215526
    28  H    6.233168   4.914900   2.664486   5.641376   6.149463
    29  H    5.981050   5.320456   3.614187   4.534688   4.987613
                   16         17         18         19         20
    16  C    0.000000
    17  C    1.394532   0.000000
    18  H    2.149673   1.083816   0.000000
    19  H    1.082800   2.148572   2.470485   0.000000
    20  H    2.146464   3.397794   4.286846   2.466082   0.000000
    21  H    3.398884   3.891438   4.975154   4.287532   2.473544
    22  C    4.514035   3.238356   3.202701   5.269967   6.171041
    23  H    4.545357   3.471412   3.614473   5.320865   5.981564
    24  H    5.574883   4.268854   4.160584   6.330953   7.211844
    25  H    4.347750   3.045272   2.664266   4.914655   6.232998
    26  C    4.513974   3.238351   3.202784   5.269928   6.170906
    27  H    4.347563   3.045164   2.664288   4.914489   6.232729
    28  H    5.574819   4.268821   4.160582   6.330889   7.211749
    29  H    4.545367   3.471515   3.614728   5.320930   5.981414
                   21         22         23         24         25
    21  H    0.000000
    22  C    5.569461   0.000000
    23  H    5.300458   1.090622   0.000000
    24  H    6.428972   1.091881   1.768246   0.000000
    25  H    6.059436   1.091878   1.768257   1.765484   0.000000
    26  C    5.569290   2.522942   3.481996   2.767056   2.767119
    27  H    6.059165   2.767207   3.772669   3.111786   2.562481
    28  H    6.428889   2.766989   3.772469   2.562172   3.111545
    29  H    5.300173   3.481988   4.334151   3.772472   3.772636
                   26         27         28         29
    26  C    0.000000
    27  H    1.091880   0.000000
    28  H    1.091881   1.765490   0.000000
    29  H    1.090622   1.768254   1.768247   0.000000
 Stoichiometry    C15H14
 Framework group  C1[X(C15H14)]
 Deg. of freedom    81
 Full point group                 C1      NOp   1
 RotChk:  IX=0 Diff= 4.69D-16
 Largest Abelian subgroup         C1      NOp   1
 Largest concise Abelian subgroup C1      NOp   1
                         Standard orientation:                         
 ---------------------------------------------------------------------
 Center     Atomic      Atomic             Coordinates (Angstroms)
 Number     Number       Type             X           Y           Z
 ---------------------------------------------------------------------
      1          6           0       -0.000045    1.412552   -0.000003
      2          6           0        1.177926    0.443999   -0.000032
      3          6           0        0.732661   -0.887036   -0.000007
      4          6           0       -0.732611   -0.887082    0.000002
      5          6           0       -1.177915    0.443936   -0.000025
      6          6           0       -2.534411    0.725253   -0.000049
      7          6           0       -3.448232   -0.328146   -0.000037
      8          6           0       -3.005209   -1.649000   -0.000006
      9          6           0       -1.644511   -1.938240    0.000014
     10          1           0       -1.306580   -2.967399    0.000034
     11          1           0       -3.726663   -2.456488   -0.000001
     12          1           0       -4.510496   -0.118267   -0.000058
     13          1           0       -2.892042    1.748361   -0.000074
     14          6           0        1.644529   -1.938221    0.000011
     15          6           0        3.005230   -1.648998   -0.000005
     16          6           0        3.448228   -0.328137   -0.000040
     17          6           0        2.534426    0.725280   -0.000054
     18          1           0        2.892134    1.748364   -0.000088
     19          1           0        4.510491   -0.118243   -0.000058
     20          1           0        3.726713   -2.456459    0.000011
     21          1           0        1.306503   -2.967347    0.000034
     22          6           0       -0.000035    2.297694   -1.261390
     23          1           0       -0.000148    1.690043   -2.167048
     24          1           0       -0.882719    2.940104   -1.280985
     25          1           0        0.882766    2.939936   -1.281067
     26          6           0       -0.000019    2.297495    1.261552
     27          1           0        0.882875    2.939605    1.281415
     28          1           0       -0.882615    2.940022    1.281187
     29          1           0       -0.000287    1.689684    2.167103
 ---------------------------------------------------------------------
 Rotational constants (GHZ):           1.0626816           0.5528805           0.3944869
 Leave Link  202 at Wed Mar 11 12:49:25 2026, MaxMem=   104857600 cpu:               0.0 elap:               0.0
 (Enter /sw/cluster/pub/apps//g16/l601.exe)
 Copying SCF densities to generalized density rwf, IOpCl= 0 IROHF=0.

 **********************************************************************

            Population analysis using the SCF density.

 **********************************************************************

 Orbital symmetries:
       Occupied  (A) (A) (A) (A) (A) (A) (A) (A) (A) (A) (A) (A)
                 (A) (A) (A) (A) (A) (A) (A) (A) (A) (A) (A) (A)
                 (A) (A) (A) (A) (A) (A) (A) (A) (A) (A) (A) (A)
                 (A) (A) (A) (A) (A) (A) (A) (A) (A) (A) (A) (A)
                 (A) (A) (A) (A)
       Virtual   (A) (A) (A) (A) (A) (A) (A) (A) (A) (A) (A) (A)
                 (A) (A) (A) (A) (A) (A) (A) (A) (A) (A) (A) (A)
                 (A) (A) (A) (A) (A) (A) (A) (A) (A) (A) (A) (A)
                 (A) (A) (A) (A) (A) (A) (A) (A) (A) (A) (A) (A)
                 (A) (A) (A) (A) (A) (A) (A) (A) (A) (A) (A) (A)
                 (A) (A) (A) (A) (A) (A) (A) (A) (A) (A) (A) (A)
                 (A) (A) (A) (A) (A) (A) (A) (A) (A) (A) (A) (A)
                 (A) (A) (A) (A) (A) (A) (A) (A) (A) (A) (A) (A)
                 (A) (A) (A) (A) (A) (A) (A) (A) (A) (A) (A) (A)
                 (A) (A) (A) (A) (A) (A) (A) (A) (A) (A) (A) (A)
                 (A) (A) (A) (A) (A) (A) (A) (A) (A) (A) (A) (A)
                 (A) (A) (A) (A) (A) (A) (A) (A) (A) (A) (A) (A)
                 (A) (A) (A) (A) (A) (A) (A) (A) (A) (A) (A) (A)
                 (A) (A) (A) (A) (A) (A) (A) (A) (A) (A) (A) (A)
                 (A) (A) (A) (A) (A) (A) (A) (A) (A) (A) (A) (A)
                 (A) (A) (A) (A) (A) (A) (A) (A) (A) (A) (A) (A)
                 (A) (A) (A) (A) (A) (A) (A) (A) (A) (A) (A) (A)
                 (A) (A) (A) (A) (A) (A) (A) (A) (A) (A) (A) (A)
                 (A) (A) (A) (A) (A) (A) (A) (A) (A) (A) (A) (A)
                 (A) (A) (A) (A) (A) (A) (A) (A) (A) (A) (A) (A)
                 (A) (A) (A) (A) (A) (A) (A) (A) (A) (A) (A) (A)
                 (A) (A) (A) (A) (A) (A) (A) (A) (A) (A) (A) (A)
                 (A) (A) (A) (A) (A) (A) (A) (A) (A) (A) (A) (A)
                 (A) (A) (A) (A) (A) (A) (A) (A) (A) (A) (A) (A)
                 (A) (A) (A) (A) (A) (A) (A) (A) (A) (A) (A) (A)
                 (A) (A) (A) (A) (A) (A) (A) (A) (A) (A) (A) (A)
                 (A) (A) (A) (A) (A) (A) (A) (A) (A) (A) (A) (A)
                 (A) (A) (A) (A) (A) (A) (A) (A) (A) (A) (A) (A)
                 (A) (A) (A) (A) (A) (A) (A) (A) (A) (A) (A) (A)
                 (A) (A) (A) (A) (A) (A) (A) (A) (A) (A) (A) (A)
                 (A) (A) (A) (A) (A) (A) (A) (A) (A) (A) (A) (A)
                 (A) (A) (A) (A) (A) (A) (A) (A) (A) (A) (A) (A)
                 (A) (A) (A) (A) (A) (A) (A) (A) (A) (A) (A) (A)
                 (A) (A) (A) (A) (A) (A) (A) (A) (A) (A) (A) (A)
                 (A) (A) (A) (A) (A) (A) (A) (A) (A) (A) (A) (A)
                 (A) (A) (A) (A) (A) (A) (A) (A) (A) (A) (A) (A)
                 (A) (A) (A) (A) (A) (A) (A) (A) (A) (A) (A) (A)
                 (A) (A) (A) (A) (A) (A) (A) (A) (A) (A) (A) (A)
                 (A) (A) (A) (A) (A) (A) (A) (A) (A) (A) (A) (A)
                 (A) (A) (A) (A) (A) (A) (A) (A) (A) (A) (A) (A)
                 (A) (A) (A) (A) (A) (A) (A) (A) (A) (A) (A) (A)
                 (A) (A) (A) (A) (A)
 The electronic state is 1-A.
 Alpha  occ. eigenvalues --  -10.19673 -10.18005 -10.17974 -10.17729 -10.17726
 Alpha  occ. eigenvalues --  -10.17605 -10.17603 -10.17585 -10.17585 -10.17512
 Alpha  occ. eigenvalues --  -10.17512 -10.17454 -10.17454 -10.16670 -10.16670
 Alpha  occ. eigenvalues --   -0.89448  -0.84907  -0.81728  -0.77854  -0.74659
 Alpha  occ. eigenvalues --   -0.73640  -0.71758  -0.69258  -0.64830  -0.62546
 Alpha  occ. eigenvalues --   -0.58797  -0.57963  -0.56188  -0.51428  -0.50008
 Alpha  occ. eigenvalues --   -0.47879  -0.45590  -0.45192  -0.44037  -0.43777
 Alpha  occ. eigenvalues --   -0.43379  -0.42329  -0.42209  -0.39747  -0.38673
 Alpha  occ. eigenvalues --   -0.38649  -0.38084  -0.35875  -0.35149  -0.34962
 Alpha  occ. eigenvalues --   -0.34555  -0.32466  -0.32382  -0.28908  -0.25589
 Alpha  occ. eigenvalues --   -0.25219  -0.22225
 Alpha virt. eigenvalues --   -0.04175  -0.02214  -0.00244   0.02832   0.03198
 Alpha virt. eigenvalues --    0.05240   0.05341   0.07188   0.07209   0.08372
 Alpha virt. eigenvalues --    0.08706   0.09847   0.10053   0.11426   0.11641
 Alpha virt. eigenvalues --    0.12372   0.12714   0.13398   0.14155   0.14217
 Alpha virt. eigenvalues --    0.15713   0.15862   0.16895   0.18305   0.19130
 Alpha virt. eigenvalues --    0.19189   0.19397   0.20417   0.20515   0.20882
 Alpha virt. eigenvalues --    0.21403   0.21586   0.22431   0.22538   0.23874
 Alpha virt. eigenvalues --    0.24408   0.24516   0.24750   0.27437   0.28891
 Alpha virt. eigenvalues --    0.29590   0.29818   0.29914   0.30118   0.31106
 Alpha virt. eigenvalues --    0.31120   0.32720   0.33250   0.33326   0.34372
 Alpha virt. eigenvalues --    0.34786   0.34867   0.35566   0.36034   0.36716
 Alpha virt. eigenvalues --    0.37051   0.37137   0.38482   0.39144   0.39898
 Alpha virt. eigenvalues --    0.40290   0.40633   0.41474   0.41674   0.42208
 Alpha virt. eigenvalues --    0.42780   0.43290   0.43327   0.43405   0.44052
 Alpha virt. eigenvalues --    0.45287   0.46092   0.46643   0.46797   0.47662
 Alpha virt. eigenvalues --    0.48010   0.48097   0.49446   0.49570   0.49847
 Alpha virt. eigenvalues --    0.50906   0.51396   0.52446   0.53227   0.55304
 Alpha virt. eigenvalues --    0.55770   0.56503   0.58018   0.58940   0.59534
 Alpha virt. eigenvalues --    0.59889   0.62607   0.62793   0.63952   0.65005
 Alpha virt. eigenvalues --    0.65727   0.65954   0.66838   0.67354   0.68064
 Alpha virt. eigenvalues --    0.69267   0.70603   0.70924   0.71202   0.71589
 Alpha virt. eigenvalues --    0.72993   0.73299   0.74906   0.75784   0.76812
 Alpha virt. eigenvalues --    0.77381   0.79176   0.80481   0.81328   0.81650
 Alpha virt. eigenvalues --    0.81799   0.85040   0.85640   0.86628   0.86775
 Alpha virt. eigenvalues --    0.86883   0.89112   0.90081   0.90189   0.90270
 Alpha virt. eigenvalues --    0.92051   0.92872   0.93110   0.94556   0.95950
 Alpha virt. eigenvalues --    0.97877   0.98885   0.99337   0.99946   1.00339
 Alpha virt. eigenvalues --    1.02312   1.04049   1.05334   1.05844   1.05868
 Alpha virt. eigenvalues --    1.08625   1.08704   1.08894   1.10000   1.11880
 Alpha virt. eigenvalues --    1.12448   1.13818   1.14097   1.14592   1.19364
 Alpha virt. eigenvalues --    1.19396   1.19951   1.21783   1.22057   1.22099
 Alpha virt. eigenvalues --    1.23378   1.24681   1.24982   1.25308   1.25894
 Alpha virt. eigenvalues --    1.27544   1.27547   1.30087   1.31533   1.33347
 Alpha virt. eigenvalues --    1.33354   1.35162   1.35268   1.37995   1.39133
 Alpha virt. eigenvalues --    1.39150   1.40170   1.41585   1.42267   1.44715
 Alpha virt. eigenvalues --    1.45549   1.45968   1.46777   1.48527   1.48701
 Alpha virt. eigenvalues --    1.48939   1.51091   1.52394   1.52437   1.54717
 Alpha virt. eigenvalues --    1.54921   1.55579   1.55955   1.57850   1.58552
 Alpha virt. eigenvalues --    1.59239   1.59842   1.60169   1.61142   1.61467
 Alpha virt. eigenvalues --    1.62883   1.63366   1.63919   1.66203   1.67911
 Alpha virt. eigenvalues --    1.68261   1.69949   1.70641   1.71295   1.72041
 Alpha virt. eigenvalues --    1.73895   1.74710   1.75504   1.75521   1.78631
 Alpha virt. eigenvalues --    1.79359   1.79461   1.81556   1.81575   1.84566
 Alpha virt. eigenvalues --    1.85375   1.88184   1.89349   1.89689   1.91637
 Alpha virt. eigenvalues --    1.94529   1.94733   1.97763   2.01198   2.02079
 Alpha virt. eigenvalues --    2.02431   2.03894   2.05192   2.05298   2.06506
 Alpha virt. eigenvalues --    2.07379   2.10606   2.11294   2.11419   2.13475
 Alpha virt. eigenvalues --    2.13837   2.13966   2.15596   2.16872   2.18337
 Alpha virt. eigenvalues --    2.19197   2.19585   2.21997   2.23216   2.24630
 Alpha virt. eigenvalues --    2.24807   2.24924   2.27011   2.28501   2.29428
 Alpha virt. eigenvalues --    2.31851   2.33363   2.33905   2.35165   2.35285
 Alpha virt. eigenvalues --    2.37997   2.39743   2.41350   2.42194   2.42960
 Alpha virt. eigenvalues --    2.44269   2.46170   2.46387   2.49336   2.49897
 Alpha virt. eigenvalues --    2.50198   2.51885   2.54604   2.54631   2.54788
 Alpha virt. eigenvalues --    2.55539   2.55923   2.59148   2.60884   2.61383
 Alpha virt. eigenvalues --    2.61855   2.64014   2.64181   2.65026   2.65395
 Alpha virt. eigenvalues --    2.65670   2.65722   2.65728   2.67660   2.67937
 Alpha virt. eigenvalues --    2.70148   2.72159   2.73325   2.73394   2.73774
 Alpha virt. eigenvalues --    2.74350   2.74407   2.74476   2.75940   2.76681
 Alpha virt. eigenvalues --    2.77410   2.79109   2.80214   2.80744   2.81258
 Alpha virt. eigenvalues --    2.81757   2.82905   2.84703   2.84906   2.85715
 Alpha virt. eigenvalues --    2.88253   2.89009   2.89069   2.90415   2.90653
 Alpha virt. eigenvalues --    2.92081   2.92329   2.93265   2.95274   2.95663
 Alpha virt. eigenvalues --    2.96572   2.98423   2.98614   3.01659   3.02280
 Alpha virt. eigenvalues --    3.03794   3.04490   3.05146   3.06422   3.06623
 Alpha virt. eigenvalues --    3.09463   3.09807   3.11987   3.13087   3.14331
 Alpha virt. eigenvalues --    3.14492   3.14845   3.16568   3.16874   3.17613
 Alpha virt. eigenvalues --    3.18368   3.19108   3.19596   3.20654   3.21418
 Alpha virt. eigenvalues --    3.21511   3.22646   3.23067   3.23890   3.26435
 Alpha virt. eigenvalues --    3.27779   3.28604   3.28736   3.29604   3.30388
 Alpha virt. eigenvalues --    3.32521   3.32785   3.32871   3.32932   3.33370
 Alpha virt. eigenvalues --    3.35761   3.35801   3.36121   3.36401   3.38096
 Alpha virt. eigenvalues --    3.38209   3.39215   3.39762   3.41759   3.43538
 Alpha virt. eigenvalues --    3.43705   3.46431   3.46487   3.47745   3.47842
 Alpha virt. eigenvalues --    3.47894   3.51327   3.51616   3.51680   3.52163
 Alpha virt. eigenvalues --    3.54064   3.54725   3.54760   3.57046   3.57308
 Alpha virt. eigenvalues --    3.58673   3.58898   3.59403   3.61809   3.62130
 Alpha virt. eigenvalues --    3.62762   3.64127   3.64938   3.67285   3.69400
 Alpha virt. eigenvalues --    3.69573   3.70336   3.74592   3.74810   3.77168
 Alpha virt. eigenvalues --    3.80518   3.82966   3.85028   3.86384   3.88111
 Alpha virt. eigenvalues --    3.88281   3.89924   3.90857   3.92774   3.95389
 Alpha virt. eigenvalues --    3.95566   3.96695   3.98918   3.99750   4.03971
 Alpha virt. eigenvalues --    4.04796   4.06177   4.10328   4.11446   4.11566
 Alpha virt. eigenvalues --    4.12139   4.13191   4.14763   4.15395   4.15828
 Alpha virt. eigenvalues --    4.18034   4.19680   4.20287   4.21013   4.23077
 Alpha virt. eigenvalues --    4.23787   4.26591   4.26909   4.27897   4.30374
 Alpha virt. eigenvalues --    4.30405   4.31732   4.32337   4.33435   4.35592
 Alpha virt. eigenvalues --    4.35937   4.36280   4.38702   4.41370   4.42206
 Alpha virt. eigenvalues --    4.43710   4.46987   4.47815   4.52343   4.52783
 Alpha virt. eigenvalues --    4.53972   4.59049   4.59235   4.61778   4.62691
 Alpha virt. eigenvalues --    4.63602   4.71584   4.75317   4.76312   4.76636
 Alpha virt. eigenvalues --    4.80536   4.81859   4.82684   4.82788   4.84760
 Alpha virt. eigenvalues --    4.91718   4.92220   4.92529   4.96198   4.98054
 Alpha virt. eigenvalues --    5.02010   5.02174   5.11473   5.11667   5.19607
 Alpha virt. eigenvalues --    5.26983   5.30410   5.34095   5.35921   5.42930
 Alpha virt. eigenvalues --    5.50042   5.57520   5.60151   5.61968   5.76091
 Alpha virt. eigenvalues --    5.77127   6.09592  22.03330  22.41831  22.47097
 Alpha virt. eigenvalues --   22.47964  22.59969  22.61994  22.65114  22.69527
 Alpha virt. eigenvalues --   22.71749  22.82911  22.97604  23.00518  23.11839
 Alpha virt. eigenvalues --   23.60306  23.78668
          Condensed to atoms (all electrons):
               1          2          3          4          5          6
     1  C    5.285754   0.200111  -0.058816  -0.058897   0.200155  -0.106985
     2  C    0.200111   5.368905   0.397750  -0.130658  -0.009175   0.023268
     3  C   -0.058816   0.397750   5.119987   0.329533  -0.130681   0.002892
     4  C   -0.058897  -0.130658   0.329533   5.119986   0.397774   0.015950
     5  C    0.200155  -0.009175  -0.130681   0.397774   5.368855   0.406321
     6  C   -0.106985   0.023268   0.002892   0.015950   0.406321   5.078568
     7  C    0.006314   0.000356  -0.005611  -0.083225   0.002947   0.461892
     8  C   -0.002169  -0.000860   0.004823  -0.012360  -0.081195   0.002858
     9  C    0.006793   0.018381  -0.106188   0.446009  -0.013114  -0.063932
    10  H   -0.000124   0.000153  -0.012651  -0.056801   0.012084  -0.002105
    11  H    0.000118  -0.000002  -0.000222   0.010572   0.000134   0.008696
    12  H   -0.000264   0.000015   0.000185  -0.000417   0.010664  -0.054960
    13  H   -0.003825   0.000141  -0.000340   0.015816  -0.071938   0.434008
    14  C    0.006799  -0.013093   0.446013  -0.106186   0.018377  -0.001579
    15  C   -0.002169  -0.081187  -0.012369   0.004826  -0.000863   0.000185
    16  C    0.006318   0.002960  -0.083238  -0.005615   0.000357   0.000002
    17  C   -0.107008   0.406318   0.015956   0.002897   0.023264  -0.000135
    18  H   -0.003824  -0.071931   0.015816  -0.000339   0.000140  -0.000083
    19  H   -0.000264   0.010664  -0.000416   0.000185   0.000015  -0.000001
    20  H    0.000118   0.000134   0.010571  -0.000222  -0.000002   0.000000
    21  H   -0.000124   0.012083  -0.056803  -0.012654   0.000153  -0.000203
    22  C    0.277880  -0.029755  -0.004673  -0.004677  -0.029743  -0.001371
    23  H   -0.034703  -0.006372   0.002039   0.002038  -0.006372  -0.000295
    24  H   -0.032064   0.016432  -0.000270  -0.000417  -0.024691   0.005996
    25  H   -0.032050  -0.024705  -0.000418  -0.000268   0.016425  -0.000441
    26  C    0.277872  -0.029752  -0.004674  -0.004679  -0.029735  -0.001375
    27  H   -0.032039  -0.024709  -0.000419  -0.000266   0.016418  -0.000441
    28  H   -0.032061   0.016431  -0.000269  -0.000418  -0.024685   0.005994
    29  H   -0.034694  -0.006378   0.002038   0.002041  -0.006377  -0.000295
               7          8          9         10         11         12
     1  C    0.006314  -0.002169   0.006793  -0.000124   0.000118  -0.000264
     2  C    0.000356  -0.000860   0.018381   0.000153  -0.000002   0.000015
     3  C   -0.005611   0.004823  -0.106188  -0.012651  -0.000222   0.000185
     4  C   -0.083225  -0.012360   0.446009  -0.056801   0.010572  -0.000417
     5  C    0.002947  -0.081195  -0.013114   0.012084   0.000134   0.010664
     6  C    0.461892   0.002858  -0.063932  -0.002105   0.008696  -0.054960
     7  C    4.902620   0.478588   0.000549   0.009250  -0.049035   0.427986
     8  C    0.478588   4.891142   0.475018  -0.049830   0.426214  -0.049328
     9  C    0.000549   0.475018   5.056490   0.429883  -0.053730   0.008999
    10  H    0.009250  -0.049830   0.429883   0.565268  -0.007027  -0.000304
    11  H   -0.049035   0.426214  -0.053730  -0.007027   0.566319  -0.007550
    12  H    0.427986  -0.049328   0.008999  -0.000304  -0.007550   0.566220
    13  H   -0.050259   0.010001  -0.002792   0.000079  -0.000328  -0.007085
    14  C    0.000186  -0.000547   0.005343   0.007170   0.000023  -0.000004
    15  C   -0.000021   0.000021  -0.000547  -0.000414   0.000000   0.000000
    16  C    0.000004  -0.000021   0.000186   0.000093  -0.000001   0.000000
    17  C    0.000002   0.000185  -0.001579  -0.000203   0.000000  -0.000001
    18  H    0.000006  -0.000004   0.000057   0.000001   0.000000  -0.000000
    19  H    0.000000   0.000000  -0.000004  -0.000000  -0.000000  -0.000000
    20  H   -0.000001   0.000000   0.000023  -0.000001   0.000000  -0.000000
    21  H    0.000093  -0.000414   0.007173   0.004338  -0.000001  -0.000000
    22  C    0.001593  -0.000384   0.000395   0.000045  -0.000003   0.000018
    23  H    0.000086  -0.000112   0.000095   0.000007  -0.000001   0.000005
    24  H   -0.000478   0.000115  -0.000113   0.000001   0.000000  -0.000007
    25  H   -0.000004   0.000007   0.000001  -0.000002   0.000000  -0.000002
    26  C    0.001593  -0.000384   0.000395   0.000045  -0.000003   0.000018
    27  H   -0.000004   0.000007   0.000001  -0.000002   0.000000  -0.000002
    28  H   -0.000478   0.000115  -0.000113   0.000001   0.000000  -0.000007
    29  H    0.000086  -0.000112   0.000095   0.000007  -0.000001   0.000005
              13         14         15         16         17         18
     1  C   -0.003825   0.006799  -0.002169   0.006318  -0.107008  -0.003824
     2  C    0.000141  -0.013093  -0.081187   0.002960   0.406318  -0.071931
     3  C   -0.000340   0.446013  -0.012369  -0.083238   0.015956   0.015816
     4  C    0.015816  -0.106186   0.004826  -0.005615   0.002897  -0.000339
     5  C   -0.071938   0.018377  -0.000863   0.000357   0.023264   0.000140
     6  C    0.434008  -0.001579   0.000185   0.000002  -0.000135  -0.000083
     7  C   -0.050259   0.000186  -0.000021   0.000004   0.000002   0.000006
     8  C    0.010001  -0.000547   0.000021  -0.000021   0.000185  -0.000004
     9  C   -0.002792   0.005343  -0.000547   0.000186  -0.001579   0.000057
    10  H    0.000079   0.007170  -0.000414   0.000093  -0.000203   0.000001
    11  H   -0.000328   0.000023   0.000000  -0.000001   0.000000   0.000000
    12  H   -0.007085  -0.000004   0.000000   0.000000  -0.000001  -0.000000
    13  H    0.570403   0.000057  -0.000004   0.000006  -0.000083  -0.000007
    14  C    0.000057   5.056473   0.475003   0.000546  -0.063940  -0.002792
    15  C   -0.000004   0.475003   4.891154   0.478589   0.002869   0.010001
    16  C    0.000006   0.000546   0.478589   4.902610   0.461895  -0.050257
    17  C   -0.000083  -0.063940   0.002869   0.461895   5.078563   0.433997
    18  H   -0.000007  -0.002792   0.010001  -0.050257   0.433997   0.570404
    19  H   -0.000000   0.008999  -0.049329   0.427982  -0.054959  -0.007086
    20  H    0.000000  -0.053728   0.426216  -0.049035   0.008696  -0.000328
    21  H    0.000001   0.429889  -0.049829   0.009250  -0.002105   0.000079
    22  C   -0.000309   0.000395  -0.000384   0.001593  -0.001372  -0.000309
    23  H    0.000015   0.000095  -0.000112   0.000086  -0.000295   0.000015
    24  H    0.002508   0.000001   0.000007  -0.000004  -0.000441  -0.000155
    25  H   -0.000155  -0.000113   0.000115  -0.000478   0.005999   0.002509
    26  C   -0.000309   0.000395  -0.000384   0.001593  -0.001374  -0.000310
    27  H   -0.000155  -0.000113   0.000115  -0.000478   0.006000   0.002508
    28  H    0.002507   0.000001   0.000007  -0.000004  -0.000441  -0.000155
    29  H    0.000015   0.000095  -0.000112   0.000086  -0.000295   0.000015
              19         20         21         22         23         24
     1  C   -0.000264   0.000118  -0.000124   0.277880  -0.034703  -0.032064
     2  C    0.010664   0.000134   0.012083  -0.029755  -0.006372   0.016432
     3  C   -0.000416   0.010571  -0.056803  -0.004673   0.002039  -0.000270
     4  C    0.000185  -0.000222  -0.012654  -0.004677   0.002038  -0.000417
     5  C    0.000015  -0.000002   0.000153  -0.029743  -0.006372  -0.024691
     6  C   -0.000001   0.000000  -0.000203  -0.001371  -0.000295   0.005996
     7  C    0.000000  -0.000001   0.000093   0.001593   0.000086  -0.000478
     8  C    0.000000   0.000000  -0.000414  -0.000384  -0.000112   0.000115
     9  C   -0.000004   0.000023   0.007173   0.000395   0.000095  -0.000113
    10  H   -0.000000  -0.000001   0.004338   0.000045   0.000007   0.000001
    11  H   -0.000000   0.000000  -0.000001  -0.000003  -0.000001   0.000000
    12  H   -0.000000  -0.000000  -0.000000   0.000018   0.000005  -0.000007
    13  H   -0.000000   0.000000   0.000001  -0.000309   0.000015   0.002508
    14  C    0.008999  -0.053728   0.429889   0.000395   0.000095   0.000001
    15  C   -0.049329   0.426216  -0.049829  -0.000384  -0.000112   0.000007
    16  C    0.427982  -0.049035   0.009250   0.001593   0.000086  -0.000004
    17  C   -0.054959   0.008696  -0.002105  -0.001372  -0.000295  -0.000441
    18  H   -0.007086  -0.000328   0.000079  -0.000309   0.000015  -0.000155
    19  H    0.566224  -0.007550  -0.000304   0.000018   0.000005  -0.000002
    20  H   -0.007550   0.566314  -0.007026  -0.000003  -0.000001   0.000000
    21  H   -0.000304  -0.007026   0.565262   0.000045   0.000007  -0.000002
    22  C    0.000018  -0.000003   0.000045   5.026492   0.405670   0.400889
    23  H    0.000005  -0.000001   0.000007   0.405670   0.549617  -0.022727
    24  H   -0.000002   0.000000  -0.000002   0.400889  -0.022727   0.576582
    25  H   -0.000007   0.000000   0.000001   0.400890  -0.022725  -0.026839
    26  C    0.000018  -0.000003   0.000045  -0.092453   0.011841  -0.004398
    27  H   -0.000007   0.000000   0.000001  -0.004391  -0.000173   0.000036
    28  H   -0.000002   0.000000  -0.000002  -0.004399  -0.000172   0.001889
    29  H    0.000005  -0.000001   0.000007   0.011840  -0.000458  -0.000172
              25         26         27         28         29
     1  C   -0.032050   0.277872  -0.032039  -0.032061  -0.034694
     2  C   -0.024705  -0.029752  -0.024709   0.016431  -0.006378
     3  C   -0.000418  -0.004674  -0.000419  -0.000269   0.002038
     4  C   -0.000268  -0.004679  -0.000266  -0.000418   0.002041
     5  C    0.016425  -0.029735   0.016418  -0.024685  -0.006377
     6  C   -0.000441  -0.001375  -0.000441   0.005994  -0.000295
     7  C   -0.000004   0.001593  -0.000004  -0.000478   0.000086
     8  C    0.000007  -0.000384   0.000007   0.000115  -0.000112
     9  C    0.000001   0.000395   0.000001  -0.000113   0.000095
    10  H   -0.000002   0.000045  -0.000002   0.000001   0.000007
    11  H    0.000000  -0.000003   0.000000   0.000000  -0.000001
    12  H   -0.000002   0.000018  -0.000002  -0.000007   0.000005
    13  H   -0.000155  -0.000309  -0.000155   0.002507   0.000015
    14  C   -0.000113   0.000395  -0.000113   0.000001   0.000095
    15  C    0.000115  -0.000384   0.000115   0.000007  -0.000112
    16  C   -0.000478   0.001593  -0.000478  -0.000004   0.000086
    17  C    0.005999  -0.001374   0.006000  -0.000441  -0.000295
    18  H    0.002509  -0.000310   0.002508  -0.000155   0.000015
    19  H   -0.000007   0.000018  -0.000007  -0.000002   0.000005
    20  H    0.000000  -0.000003   0.000000   0.000000  -0.000001
    21  H    0.000001   0.000045   0.000001  -0.000002   0.000007
    22  C    0.400890  -0.092453  -0.004391  -0.004399   0.011840
    23  H   -0.022725   0.011841  -0.000173  -0.000172  -0.000458
    24  H   -0.026839  -0.004398   0.000036   0.001889  -0.000172
    25  H    0.576575  -0.004392   0.001887   0.000036  -0.000172
    26  C   -0.004392   5.026509   0.400885   0.400883   0.405671
    27  H    0.001887   0.400885   0.576576  -0.026838  -0.022724
    28  H    0.000036   0.400883  -0.026838   0.576585  -0.022727
    29  H   -0.000172   0.405671  -0.022724  -0.022727   0.549612
 Mulliken charges:
               1
     1  C    0.273850
     2  C   -0.045524
     3  C    0.130455
     4  C    0.130472
     5  C   -0.045513
     6  C   -0.212430
     7  C   -0.105034
     8  C   -0.091373
     9  C   -0.213771
    10  H    0.101038
    11  H    0.105825
    12  H    0.105815
    13  H    0.102032
    14  C   -0.213766
    15  C   -0.091381
    16  C   -0.105027
    17  C   -0.212411
    18  H    0.102032
    19  H    0.105814
    20  H    0.105827
    21  H    0.101040
    22  C   -0.353535
    23  H    0.122899
    24  H    0.108323
    25  H    0.108327
    26  C   -0.353536
    27  H    0.108327
    28  H    0.108322
    29  H    0.122901
 Sum of Mulliken charges =  -0.00000
 Mulliken charges with hydrogens summed into heavy atoms:
               1
     1  C    0.273850
     2  C   -0.045524
     3  C    0.130455
     4  C    0.130472
     5  C   -0.045513
     6  C   -0.110398
     7  C    0.000781
     8  C    0.014452
     9  C   -0.112733
    14  C   -0.112726
    15  C    0.014446
    16  C    0.000787
    17  C   -0.110378
    22  C   -0.013986
    26  C   -0.013985
 Electronic spatial extent (au):  <R**2>=           2903.0995
 Charge=              0.0000 electrons
 Dipole moment (field-independent basis, Debye):
    X=              0.0000    Y=              0.4980    Z=              0.0000  Tot=              0.4980
 Quadrupole moment (field-independent basis, Debye-Ang):
   XX=            -83.0090   YY=            -81.4261   ZZ=            -94.6596
   XY=              0.0000   XZ=              0.0000   YZ=             -0.0002
 Traceless Quadrupole moment (field-independent basis, Debye-Ang):
   XX=              3.3559   YY=              4.9388   ZZ=             -8.2947
   XY=              0.0000   XZ=              0.0000   YZ=             -0.0002
 Octapole moment (field-independent basis, Debye-Ang**2):
  XXX=              0.0018  YYY=            -10.9745  ZZZ=              0.0002  XYY=             -0.0006
  XXY=             -0.8181  XXZ=             -0.0008  XZZ=             -0.0004  YZZ=              4.9894
  YYZ=              0.0003  XYZ=             -0.0000
 Hexadecapole moment (field-independent basis, Debye-Ang**3):
 XXXX=          -2290.0468 YYYY=          -1279.1274 ZZZZ=           -285.3242 XXXY=              0.0012
 XXXZ=              0.0010 YYYX=             -0.0010 YYYZ=             -0.0013 ZZZX=             -0.0003
 ZZZY=             -0.0009 XXYY=           -587.0768 XXZZ=           -516.0683 YYZZ=           -290.1195
 XXYZ=             -0.0013 YYXZ=              0.0005 ZZXY=             -0.0001
 N-N= 9.291505863305D+02 E-N=-3.203328501022D+03  KE= 5.771710240546D+02
 No NMR shielding tensors so no spin-rotation constants.
 Leave Link  601 at Wed Mar 11 12:49:26 2026, MaxMem=   104857600 cpu:               0.3 elap:               0.3
 (Enter /sw/cluster/pub/apps//g16/l9999.exe)
 1\1\GINC-N07\FOpt\RB3LYP\def2TZVP\C15H14\UNKNOWN\11-Mar-2026\0\\#P B3L
 YP/def2TZVP OPT FREQ\\OPT FREQ F1 def2TZVP\\0,1\C,0.011975837,0.006668
 4585,0.0396718383\C,1.5362092357,-0.041033181,0.0518230473\C,2.0785440
 083,1.2533484661,0.032740917\C,0.9765845925,2.2187844933,0.0073786702\
 C,-0.2355098855,1.511170114,0.0110519955\C,-1.4410910126,2.193336925,-
 0.0099962102\C,-1.4341178798,3.5876306899,-0.0348037313\C,-0.230437171
 7,4.2891032122,-0.0384351183\C,0.9835255948,3.6101262796,-0.0173778659
 \H,1.9159316433,4.1614679678,-0.0203284983\H,-0.2408554623,5.371714981
 8,-0.0578104738\H,-2.3713353336,4.1296658746,-0.0513733437\H,-2.384324
 9472,1.6595255463,-0.0074324398\C,3.4571062008,1.4431137128,0.03953581
 67\C,4.2898415256,0.3290980421,0.0655621631\C,3.7525073909,-0.95613933
 55,0.0845282249\C,2.3710191811,-1.1463085598,0.0777155393\H,1.96578760
 23,-2.1514057425,0.0926644308\H,4.4130758099,-1.8138680144,0.104716597
 8\H,5.3645971349,0.4610035947,0.0711435199\H,3.8811229163,2.4397871425
 ,0.0248867999\C,-0.5806869875,-0.6365427325,1.3083741497\H,-0.18700121
 72,-0.1633412982,2.2086790426\H,-1.6680468079,-0.5377643685,1.31817151
 47\H,-0.3401661467,-1.7008331456,1.3487998832\C,-0.5618896322,-0.68135
 69397,-1.2140995487\H,-0.3209203294,-1.7463143899,-1.2132054077\H,-1.6
 489713597,-0.5834235907,-1.243522639\H,-0.1548245002,-0.2402052027,-2.
 1246708745\\Version=ES64L-G16RevA.03\State=1-A\HF=-580.2573361\RMSD=4.
 972e-09\RMSF=2.519e-05\Dipole=-0.1291217,-0.1473645,0.0016586\Quadrupo
 le=3.0056551,3.1579184,-6.1635735,0.5844311,0.0572843,-0.1619706\PG=C0
 1 [X(C15H14)]\\@


 "ANNA, YOU MUSN'T SPEAK OF OXIDIZED MURIATIC ACID
 ANYMORE, FROM NOW ON YOU MUST SAY CHLORINE."
   -- JENS JACOB BERZELIUS, IN 1820, TO HIS COOK, WHO HAD
 COMPLAINED OF THE SMELL OF THE FLASK SHE WAS CLEANING.
 Leave Link 9999 at Wed Mar 11 12:49:26 2026, MaxMem=   104857600 cpu:               0.0 elap:               0.0
 Job cpu time:       0 days  0 hours 51 minutes 12.4 seconds.
 Elapsed time:       0 days  0 hours 51 minutes 16.3 seconds.
 File lengths (MBytes):  RWF=    190 Int=      0 D2E=      0 Chk=     23 Scr=      1
 Normal termination of Gaussian 16 at Wed Mar 11 12:49:26 2026.
 (Enter /sw/cluster/pub/apps//g16/l1.exe)
 Link1:  Proceeding to internal job step number  2.
 --------------------------------------------------------------------
 #P Geom=AllCheck Guess=TCheck SCRF=Check GenChk RB3LYP/def2TZVP Freq
 --------------------------------------------------------------------
 1/10=4,29=7,30=1,38=1,40=1/1,3;
 2/12=2,40=1/2;
 3/5=44,7=101,11=2,14=-4,25=1,30=1,70=2,71=2,74=-5,116=1,140=1/1,2,3;
 4/5=101/1;
 5/5=2,38=6,98=1/2;
 8/6=4,10=90,11=11/1;
 11/6=1,8=1,9=11,15=111,16=1/1,2,10;
 10/6=1/2;
 6/7=2,8=2,9=2,10=2,28=1/1;
 7/8=1,10=1,25=1/1,2,3,16;
 1/10=4,30=1/3;
 99//99;
 Leave Link    1 at Wed Mar 11 12:49:26 2026, MaxMem=   104857600 cpu:               0.0 elap:               0.0
 (Enter /sw/cluster/pub/apps//g16/l101.exe)
 Structure from the checkpoint file:  "f1-def2TZVP.chk"
 --------------------
 OPT FREQ F1 def2TZVP
 --------------------
 Charge =  0 Multiplicity = 1
 Redundant internal coordinates found in file.  (old form).
 C,0,0.011975837,0.0066684585,0.0396718383
 C,0,1.5362092357,-0.041033181,0.0518230473
 C,0,2.0785440083,1.2533484661,0.032740917
 C,0,0.9765845925,2.2187844933,0.0073786702
 C,0,-0.2355098855,1.511170114,0.0110519955
 C,0,-1.4410910126,2.193336925,-0.0099962102
 C,0,-1.4341178798,3.5876306899,-0.0348037313
 C,0,-0.2304371717,4.2891032122,-0.0384351183
 C,0,0.9835255948,3.6101262796,-0.0173778659
 H,0,1.9159316433,4.1614679678,-0.0203284983
 H,0,-0.2408554623,5.3717149818,-0.0578104738
 H,0,-2.3713353336,4.1296658746,-0.0513733437
 H,0,-2.3843249472,1.6595255463,-0.0074324398
 C,0,3.4571062008,1.4431137128,0.0395358167
 C,0,4.2898415256,0.3290980421,0.0655621631
 C,0,3.7525073909,-0.9561393355,0.0845282249
 C,0,2.3710191811,-1.1463085598,0.0777155393
 H,0,1.9657876023,-2.1514057425,0.0926644308
 H,0,4.4130758099,-1.8138680144,0.1047165978
 H,0,5.3645971349,0.4610035947,0.0711435199
 H,0,3.8811229163,2.4397871425,0.0248867999
 C,0,-0.5806869875,-0.6365427325,1.3083741497
 H,0,-0.1870012172,-0.1633412982,2.2086790426
 H,0,-1.6680468079,-0.5377643685,1.3181715147
 H,0,-0.3401661467,-1.7008331456,1.3487998832
 C,0,-0.5618896322,-0.6813569397,-1.2140995487
 H,0,-0.3209203294,-1.7463143899,-1.2132054077
 H,0,-1.6489713597,-0.5834235907,-1.243522639
 H,0,-0.1548245002,-0.2402052027,-2.1246708745
 Recover connectivity data from disk.
 ITRead=  0  0  0  0  0  0  0  0  0  0  0  0  0  0  0  0  0  0  0  0
 ITRead=  0  0  0  0  0  0  0  0  0
 MicOpt= -1 -1 -1 -1 -1 -1 -1 -1 -1 -1 -1 -1 -1 -1 -1 -1 -1 -1 -1 -1
 MicOpt= -1 -1 -1 -1 -1 -1 -1 -1 -1
 NAtoms=     29 NQM=       29 NQMF=       0 NMMI=      0 NMMIF=      0
                NMic=       0 NMicF=      0.
                    Isotopes and Nuclear Properties:
 (Nuclear quadrupole moments (NQMom) in fm**2, nuclear magnetic moments (NMagM)
  in nuclear magnetons)

  Atom         1           2           3           4           5           6           7           8           9          10
 IAtWgt=          12          12          12          12          12          12          12          12          12           1
 AtmWgt=  12.0000000  12.0000000  12.0000000  12.0000000  12.0000000  12.0000000  12.0000000  12.0000000  12.0000000   1.0078250
 NucSpn=           0           0           0           0           0           0           0           0           0           1
 AtZEff=   3.6000000   3.6000000   3.6000000   3.6000000   3.6000000   3.6000000   3.6000000   3.6000000   3.6000000   1.0000000
 NQMom=    0.0000000   0.0000000   0.0000000   0.0000000   0.0000000   0.0000000   0.0000000   0.0000000   0.0000000   0.0000000
 NMagM=    0.0000000   0.0000000   0.0000000   0.0000000   0.0000000   0.0000000   0.0000000   0.0000000   0.0000000   2.7928460
 AtZNuc=   6.0000000   6.0000000   6.0000000   6.0000000   6.0000000   6.0000000   6.0000000   6.0000000   6.0000000   1.0000000

  Atom        11          12          13          14          15          16          17          18          19          20
 IAtWgt=           1           1           1          12          12          12          12           1           1           1
 AtmWgt=   1.0078250   1.0078250   1.0078250  12.0000000  12.0000000  12.0000000  12.0000000   1.0078250   1.0078250   1.0078250
 NucSpn=           1           1           1           0           0           0           0           1           1           1
 AtZEff=   1.0000000   1.0000000   1.0000000   3.6000000   3.6000000   3.6000000   3.6000000   1.0000000   1.0000000   1.0000000
 NQMom=    0.0000000   0.0000000   0.0000000   0.0000000   0.0000000   0.0000000   0.0000000   0.0000000   0.0000000   0.0000000
 NMagM=    2.7928460   2.7928460   2.7928460   0.0000000   0.0000000   0.0000000   0.0000000   2.7928460   2.7928460   2.7928460
 AtZNuc=   1.0000000   1.0000000   1.0000000   6.0000000   6.0000000   6.0000000   6.0000000   1.0000000   1.0000000   1.0000000

  Atom        21          22          23          24          25          26          27          28          29
 IAtWgt=           1          12           1           1           1          12           1           1           1
 AtmWgt=   1.0078250  12.0000000   1.0078250   1.0078250   1.0078250  12.0000000   1.0078250   1.0078250   1.0078250
 NucSpn=           1           0           1           1           1           0           1           1           1
 AtZEff=   1.0000000   3.6000000   1.0000000   1.0000000   1.0000000   3.6000000   1.0000000   1.0000000   1.0000000
 NQMom=    0.0000000   0.0000000   0.0000000   0.0000000   0.0000000   0.0000000   0.0000000   0.0000000   0.0000000
 NMagM=    2.7928460   0.0000000   2.7928460   2.7928460   2.7928460   0.0000000   2.7928460   2.7928460   2.7928460
 AtZNuc=   1.0000000   6.0000000   1.0000000   1.0000000   1.0000000   6.0000000   1.0000000   1.0000000   1.0000000
 Leave Link  101 at Wed Mar 11 12:49:26 2026, MaxMem=   104857600 cpu:               0.0 elap:               0.0
 (Enter /sw/cluster/pub/apps//g16/l103.exe)

 GradGradGradGradGradGradGradGradGradGradGradGradGradGradGradGradGradGrad
 Berny optimization.
 Initialization pass.
                           ----------------------------
                           !    Initial Parameters    !
                           ! (Angstroms and Degrees)  !
 --------------------------                            --------------------------
 ! Name  Definition              Value          Derivative Info.                !
 --------------------------------------------------------------------------------
 ! R1    R(1,2)                  1.525          calculate D2E/DX2 analytically  !
 ! R2    R(1,5)                  1.525          calculate D2E/DX2 analytically  !
 ! R3    R(1,22)                 1.541          calculate D2E/DX2 analytically  !
 ! R4    R(1,26)                 1.541          calculate D2E/DX2 analytically  !
 ! R5    R(2,3)                  1.4035         calculate D2E/DX2 analytically  !
 ! R6    R(2,17)                 1.3854         calculate D2E/DX2 analytically  !
 ! R7    R(3,4)                  1.4653         calculate D2E/DX2 analytically  !
 ! R8    R(3,14)                 1.3916         calculate D2E/DX2 analytically  !
 ! R9    R(4,5)                  1.4035         calculate D2E/DX2 analytically  !
 ! R10   R(4,9)                  1.3916         calculate D2E/DX2 analytically  !
 ! R11   R(5,6)                  1.3854         calculate D2E/DX2 analytically  !
 ! R12   R(6,7)                  1.3945         calculate D2E/DX2 analytically  !
 ! R13   R(6,13)                 1.0838         calculate D2E/DX2 analytically  !
 ! R14   R(7,8)                  1.3932         calculate D2E/DX2 analytically  !
 ! R15   R(7,12)                 1.0828         calculate D2E/DX2 analytically  !
 ! R16   R(8,9)                  1.3911         calculate D2E/DX2 analytically  !
 ! R17   R(8,11)                 1.0828         calculate D2E/DX2 analytically  !
 ! R18   R(9,10)                 1.0832         calculate D2E/DX2 analytically  !
 ! R19   R(14,15)                1.3911         calculate D2E/DX2 analytically  !
 ! R20   R(14,21)                1.0832         calculate D2E/DX2 analytically  !
 ! R21   R(15,16)                1.3932         calculate D2E/DX2 analytically  !
 ! R22   R(15,20)                1.0828         calculate D2E/DX2 analytically  !
 ! R23   R(16,17)                1.3945         calculate D2E/DX2 analytically  !
 ! R24   R(16,19)                1.0828         calculate D2E/DX2 analytically  !
 ! R25   R(17,18)                1.0838         calculate D2E/DX2 analytically  !
 ! R26   R(22,23)                1.0906         calculate D2E/DX2 analytically  !
 ! R27   R(22,24)                1.0919         calculate D2E/DX2 analytically  !
 ! R28   R(22,25)                1.0919         calculate D2E/DX2 analytically  !
 ! R29   R(26,27)                1.0919         calculate D2E/DX2 analytically  !
 ! R30   R(26,28)                1.0919         calculate D2E/DX2 analytically  !
 ! R31   R(26,29)                1.0906         calculate D2E/DX2 analytically  !
 ! A1    A(2,1,5)              101.1402         calculate D2E/DX2 analytically  !
 ! A2    A(2,1,22)             111.3945         calculate D2E/DX2 analytically  !
 ! A3    A(2,1,26)             111.3906         calculate D2E/DX2 analytically  !
 ! A4    A(5,1,22)             111.3974         calculate D2E/DX2 analytically  !
 ! A5    A(5,1,26)             111.394          calculate D2E/DX2 analytically  !
 ! A6    A(22,1,26)            109.8933         calculate D2E/DX2 analytically  !
 ! A7    A(1,2,3)              110.9314         calculate D2E/DX2 analytically  !
 ! A8    A(1,2,17)             128.8575         calculate D2E/DX2 analytically  !
 ! A9    A(3,2,17)             120.2111         calculate D2E/DX2 analytically  !
 ! A10   A(2,3,4)              108.4982         calculate D2E/DX2 analytically  !
 ! A11   A(2,3,14)             120.5631         calculate D2E/DX2 analytically  !
 ! A12   A(4,3,14)             130.9387         calculate D2E/DX2 analytically  !
 ! A13   A(3,4,5)              108.4963         calculate D2E/DX2 analytically  !
 ! A14   A(3,4,9)              130.9441         calculate D2E/DX2 analytically  !
 ! A15   A(5,4,9)              120.5596         calculate D2E/DX2 analytically  !
 ! A16   A(1,5,4)              110.9339         calculate D2E/DX2 analytically  !
 ! A17   A(1,5,6)              128.8518         calculate D2E/DX2 analytically  !
 ! A18   A(4,5,6)              120.2143         calculate D2E/DX2 analytically  !
 ! A19   A(5,6,7)              119.2254         calculate D2E/DX2 analytically  !
 ! A20   A(5,6,13)             120.9834         calculate D2E/DX2 analytically  !
 ! A21   A(7,6,13)             119.7912         calculate D2E/DX2 analytically  !
 ! A22   A(6,7,8)              120.5166         calculate D2E/DX2 analytically  !
 ! A23   A(6,7,12)             119.7651         calculate D2E/DX2 analytically  !
 ! A24   A(8,7,12)             119.7182         calculate D2E/DX2 analytically  !
 ! A25   A(7,8,9)              120.5424         calculate D2E/DX2 analytically  !
 ! A26   A(7,8,11)             119.6789         calculate D2E/DX2 analytically  !
 ! A27   A(9,8,11)             119.7788         calculate D2E/DX2 analytically  !
 ! A28   A(4,9,8)              118.9417         calculate D2E/DX2 analytically  !
 ! A29   A(4,9,10)             120.8798         calculate D2E/DX2 analytically  !
 ! A30   A(8,9,10)             120.1785         calculate D2E/DX2 analytically  !
 ! A31   A(3,14,15)            118.9407         calculate D2E/DX2 analytically  !
 ! A32   A(3,14,21)            120.8763         calculate D2E/DX2 analytically  !
 ! A33   A(15,14,21)           120.183          calculate D2E/DX2 analytically  !
 ! A34   A(14,15,16)           120.5406         calculate D2E/DX2 analytically  !
 ! A35   A(14,15,20)           119.7816         calculate D2E/DX2 analytically  !
 ! A36   A(16,15,20)           119.6778         calculate D2E/DX2 analytically  !
 ! A37   A(15,16,17)           120.5188         calculate D2E/DX2 analytically  !
 ! A38   A(15,16,19)           119.7179         calculate D2E/DX2 analytically  !
 ! A39   A(17,16,19)           119.7633         calculate D2E/DX2 analytically  !
 ! A40   A(2,17,16)            119.2258         calculate D2E/DX2 analytically  !
 ! A41   A(2,17,18)            120.9862         calculate D2E/DX2 analytically  !
 ! A42   A(16,17,18)           119.788          calculate D2E/DX2 analytically  !
 ! A43   A(1,22,23)            111.0822         calculate D2E/DX2 analytically  !
 ! A44   A(1,22,24)            110.6488         calculate D2E/DX2 analytically  !
 ! A45   A(1,22,25)            110.6478         calculate D2E/DX2 analytically  !
 ! A46   A(23,22,24)           108.2293         calculate D2E/DX2 analytically  !
 ! A47   A(23,22,25)           108.2305         calculate D2E/DX2 analytically  !
 ! A48   A(24,22,25)           107.8916         calculate D2E/DX2 analytically  !
 ! A49   A(1,26,27)            110.6478         calculate D2E/DX2 analytically  !
 ! A50   A(1,26,28)            110.649          calculate D2E/DX2 analytically  !
 ! A51   A(1,26,29)            111.0818         calculate D2E/DX2 analytically  !
 ! A52   A(27,26,28)           107.8921         calculate D2E/DX2 analytically  !
 ! A53   A(27,26,29)           108.2301         calculate D2E/DX2 analytically  !
 ! A54   A(28,26,29)           108.2294         calculate D2E/DX2 analytically  !
 ! D1    D(5,1,2,3)             -0.0026         calculate D2E/DX2 analytically  !
 ! D2    D(5,1,2,17)           179.9987         calculate D2E/DX2 analytically  !
 ! D3    D(22,1,2,3)          -118.4605         calculate D2E/DX2 analytically  !
 ! D4    D(22,1,2,17)           61.5408         calculate D2E/DX2 analytically  !
 ! D5    D(26,1,2,3)           118.4496         calculate D2E/DX2 analytically  !
 ! D6    D(26,1,2,17)          -61.5491         calculate D2E/DX2 analytically  !
 ! D7    D(2,1,5,4)              0.0028         calculate D2E/DX2 analytically  !
 ! D8    D(2,1,5,6)           -179.9981         calculate D2E/DX2 analytically  !
 ! D9    D(22,1,5,4)           118.4585         calculate D2E/DX2 analytically  !
 ! D10   D(22,1,5,6)           -61.5423         calculate D2E/DX2 analytically  !
 ! D11   D(26,1,5,4)          -118.447          calculate D2E/DX2 analytically  !
 ! D12   D(26,1,5,6)            61.5522         calculate D2E/DX2 analytically  !
 ! D13   D(2,1,22,23)           56.0637         calculate D2E/DX2 analytically  !
 ! D14   D(2,1,22,24)          176.2992         calculate D2E/DX2 analytically  !
 ! D15   D(2,1,22,25)          -64.1727         calculate D2E/DX2 analytically  !
 ! D16   D(5,1,22,23)          -56.0466         calculate D2E/DX2 analytically  !
 ! D17   D(5,1,22,24)           64.1888         calculate D2E/DX2 analytically  !
 ! D18   D(5,1,22,25)         -176.283          calculate D2E/DX2 analytically  !
 ! D19   D(26,1,22,23)        -179.9947         calculate D2E/DX2 analytically  !
 ! D20   D(26,1,22,24)         -59.7592         calculate D2E/DX2 analytically  !
 ! D21   D(26,1,22,25)          59.7689         calculate D2E/DX2 analytically  !
 ! D22   D(2,1,26,27)           64.1648         calculate D2E/DX2 analytically  !
 ! D23   D(2,1,26,28)         -176.3063         calculate D2E/DX2 analytically  !
 ! D24   D(2,1,26,29)          -56.0708         calculate D2E/DX2 analytically  !
 ! D25   D(5,1,26,27)          176.2708         calculate D2E/DX2 analytically  !
 ! D26   D(5,1,26,28)          -64.2003         calculate D2E/DX2 analytically  !
 ! D27   D(5,1,26,29)           56.0352         calculate D2E/DX2 analytically  !
 ! D28   D(22,1,26,27)         -59.7791         calculate D2E/DX2 analytically  !
 ! D29   D(22,1,26,28)          59.7497         calculate D2E/DX2 analytically  !
 ! D30   D(22,1,26,29)         179.9853         calculate D2E/DX2 analytically  !
 ! D31   D(1,2,3,4)              0.0016         calculate D2E/DX2 analytically  !
 ! D32   D(1,2,3,14)          -179.9982         calculate D2E/DX2 analytically  !
 ! D33   D(17,2,3,4)          -179.9995         calculate D2E/DX2 analytically  !
 ! D34   D(17,2,3,14)            0.0007         calculate D2E/DX2 analytically  !
 ! D35   D(1,2,17,16)          179.9981         calculate D2E/DX2 analytically  !
 ! D36   D(1,2,17,18)           -0.0022         calculate D2E/DX2 analytically  !
 ! D37   D(3,2,17,16)           -0.0005         calculate D2E/DX2 analytically  !
 ! D38   D(3,2,17,18)          179.9991         calculate D2E/DX2 analytically  !
 ! D39   D(2,3,4,5)              0.0003         calculate D2E/DX2 analytically  !
 ! D40   D(2,3,4,9)            179.9994         calculate D2E/DX2 analytically  !
 ! D41   D(14,3,4,5)           180.0            calculate D2E/DX2 analytically  !
 ! D42   D(14,3,4,9)            -0.0008         calculate D2E/DX2 analytically  !
 ! D43   D(2,3,14,15)           -0.0004         calculate D2E/DX2 analytically  !
 ! D44   D(2,3,14,21)          179.9998         calculate D2E/DX2 analytically  !
 ! D45   D(4,3,14,15)          179.9999         calculate D2E/DX2 analytically  !
 ! D46   D(4,3,14,21)            0.0001         calculate D2E/DX2 analytically  !
 ! D47   D(3,4,5,1)             -0.002          calculate D2E/DX2 analytically  !
 ! D48   D(3,4,5,6)            179.9988         calculate D2E/DX2 analytically  !
 ! D49   D(9,4,5,1)            179.9987         calculate D2E/DX2 analytically  !
 ! D50   D(9,4,5,6)             -0.0005         calculate D2E/DX2 analytically  !
 ! D51   D(3,4,9,8)           -179.9988         calculate D2E/DX2 analytically  !
 ! D52   D(3,4,9,10)             0.0009         calculate D2E/DX2 analytically  !
 ! D53   D(5,4,9,8)              0.0003         calculate D2E/DX2 analytically  !
 ! D54   D(5,4,9,10)           180.0            calculate D2E/DX2 analytically  !
 ! D55   D(1,5,6,7)           -179.9986         calculate D2E/DX2 analytically  !
 ! D56   D(1,5,6,13)             0.0013         calculate D2E/DX2 analytically  !
 ! D57   D(4,5,6,7)              0.0004         calculate D2E/DX2 analytically  !
 ! D58   D(4,5,6,13)          -179.9997         calculate D2E/DX2 analytically  !
 ! D59   D(5,6,7,8)             -0.0002         calculate D2E/DX2 analytically  !
 ! D60   D(5,6,7,12)          -179.9999         calculate D2E/DX2 analytically  !
 ! D61   D(13,6,7,8)           179.9999         calculate D2E/DX2 analytically  !
 ! D62   D(13,6,7,12)            0.0002         calculate D2E/DX2 analytically  !
 ! D63   D(6,7,8,9)              0.0            calculate D2E/DX2 analytically  !
 ! D64   D(6,7,8,11)          -179.9998         calculate D2E/DX2 analytically  !
 ! D65   D(12,7,8,9)           179.9997         calculate D2E/DX2 analytically  !
 ! D66   D(12,7,8,11)           -0.0001         calculate D2E/DX2 analytically  !
 ! D67   D(7,8,9,4)              0.0            calculate D2E/DX2 analytically  !
 ! D68   D(7,8,9,10)          -179.9997         calculate D2E/DX2 analytically  !
 ! D69   D(11,8,9,4)           179.9997         calculate D2E/DX2 analytically  !
 ! D70   D(11,8,9,10)            0.0            calculate D2E/DX2 analytically  !
 ! D71   D(3,14,15,16)          -0.0001         calculate D2E/DX2 analytically  !
 ! D72   D(3,14,15,20)         179.9999         calculate D2E/DX2 analytically  !
 ! D73   D(21,14,15,16)        179.9997         calculate D2E/DX2 analytically  !
 ! D74   D(21,14,15,20)         -0.0003         calculate D2E/DX2 analytically  !
 ! D75   D(14,15,16,17)          0.0003         calculate D2E/DX2 analytically  !
 ! D76   D(14,15,16,19)       -179.9996         calculate D2E/DX2 analytically  !
 ! D77   D(20,15,16,17)       -179.9997         calculate D2E/DX2 analytically  !
 ! D78   D(20,15,16,19)          0.0004         calculate D2E/DX2 analytically  !
 ! D79   D(15,16,17,2)           0.0            calculate D2E/DX2 analytically  !
 ! D80   D(15,16,17,18)       -179.9996         calculate D2E/DX2 analytically  !
 ! D81   D(19,16,17,2)         179.9999         calculate D2E/DX2 analytically  !
 ! D82   D(19,16,17,18)          0.0003         calculate D2E/DX2 analytically  !
 --------------------------------------------------------------------------------
 Trust Radius=3.00D-01 FncErr=1.00D-07 GrdErr=1.00D-07 EigMax=2.50D+02 EigMin=1.00D-04
 Number of steps in this run=      2 maximum allowed number of steps=      2.
 GradGradGradGradGradGradGradGradGradGradGradGradGradGradGradGradGradGrad

 Leave Link  103 at Wed Mar 11 12:49:26 2026, MaxMem=   104857600 cpu:               0.0 elap:               0.0
 (Enter /sw/cluster/pub/apps//g16/l202.exe)
                          Input orientation:                          
 ---------------------------------------------------------------------
 Center     Atomic      Atomic             Coordinates (Angstroms)
 Number     Number       Type             X           Y           Z
 ---------------------------------------------------------------------
      1          6           0        0.011976    0.006668    0.039672
      2          6           0        1.536209   -0.041033    0.051823
      3          6           0        2.078544    1.253348    0.032741
      4          6           0        0.976585    2.218784    0.007379
      5          6           0       -0.235510    1.511170    0.011052
      6          6           0       -1.441091    2.193337   -0.009996
      7          6           0       -1.434118    3.587631   -0.034804
      8          6           0       -0.230437    4.289103   -0.038435
      9          6           0        0.983526    3.610126   -0.017378
     10          1           0        1.915932    4.161468   -0.020328
     11          1           0       -0.240855    5.371715   -0.057810
     12          1           0       -2.371335    4.129666   -0.051373
     13          1           0       -2.384325    1.659526   -0.007432
     14          6           0        3.457106    1.443114    0.039536
     15          6           0        4.289842    0.329098    0.065562
     16          6           0        3.752507   -0.956139    0.084528
     17          6           0        2.371019   -1.146309    0.077716
     18          1           0        1.965788   -2.151406    0.092664
     19          1           0        4.413076   -1.813868    0.104717
     20          1           0        5.364597    0.461004    0.071144
     21          1           0        3.881123    2.439787    0.024887
     22          6           0       -0.580687   -0.636543    1.308374
     23          1           0       -0.187001   -0.163341    2.208679
     24          1           0       -1.668047   -0.537764    1.318172
     25          1           0       -0.340166   -1.700833    1.348800
     26          6           0       -0.561890   -0.681357   -1.214100
     27          1           0       -0.320920   -1.746314   -1.213205
     28          1           0       -1.648971   -0.583424   -1.243523
     29          1           0       -0.154825   -0.240205   -2.124671
 ---------------------------------------------------------------------
                    Distance matrix (angstroms):
                    1          2          3          4          5
     1  C    0.000000
     2  C    1.525028   0.000000
     3  C    2.413496   1.403537   0.000000
     4  C    2.413498   2.328504   1.465273   0.000000
     5  C    1.524990   2.355841   2.328473   1.403533   0.000000
     6  C    2.625907   3.722976   3.643245   2.417872   1.385359
     7  C    3.862645   4.690154   4.218084   2.772545   2.398010
     8  C    4.290001   4.677528   3.814743   2.396919   2.778378
     9  C    3.732569   3.693401   2.599227   1.391579   2.427442
    10  H    4.570668   4.220238   2.913146   2.158045   3.413761
    11  H    5.371885   5.698054   4.727447   3.380441   3.861163
    12  H    4.763147   5.716142   5.299217   3.855319   3.379670
    13  H    2.911428   4.273874   4.481495   3.407155   2.154010
    14  C    3.732599   2.427486   1.391579   2.599170   3.693353
    15  C    4.290078   2.778431   2.396905   3.814705   4.677507
    16  C    3.862718   2.398013   2.772485   4.218038   4.690128
    17  C    2.626002   1.385356   2.417833   3.643247   3.722987
    18  H    2.911610   2.154038   3.407148   4.481558   4.273972
    19  H    4.763220   3.379660   3.855261   5.299173   5.716118
    20  H    5.371961   3.861213   3.380448   4.727421   5.698040
    21  H    4.570622   3.413768   2.158006   2.912987   4.220093
    22  C    1.540966   2.532746   3.502919   3.502938   2.532758
    23  H    2.184740   2.763411   3.445927   3.445893   2.763314
    24  H    2.180240   3.481040   4.347109   4.038665   2.821144
    25  H    2.180225   2.820970   4.038485   4.347027   3.481018
    26  C    1.540988   2.532705   3.502797   3.502818   2.532725
    27  H    2.180245   2.820853   4.038290   4.346879   3.480992
    28  H    2.180262   3.481018   4.347062   4.038647   2.821197
    29  H    2.184754   2.763402   3.445731   3.445628   2.763175
                    6          7          8          9         10
     6  C    0.000000
     7  C    1.394532   0.000000
     8  C    2.420481   1.393171   0.000000
     9  C    2.808222   2.417811   1.391100   0.000000
    10  H    3.891433   3.398872   2.150237   1.083221   0.000000
    11  H    3.397784   2.146476   1.082835   2.145679   2.473425
    12  H    2.148589   1.082799   2.146866   3.395021   4.287497
    13  H    1.083813   2.149705   3.399246   3.891961   4.975147
    14  C    4.955565   5.341213   4.658724   3.289040   3.125420
    15  C    6.026996   6.587247   6.010439   4.658728   4.508867
    16  C    6.074669   6.896461   6.587225   5.341201   5.438190
    17  C    5.068837   6.074694   6.027003   4.955588   5.328152
    18  H    5.522151   6.671742   6.805935   5.845699   6.314082
    19  H    7.095218   7.961490   7.670004   6.418445   6.477346
    20  H    7.023173   7.483953   6.780174   5.396165   5.059160
    21  H    5.328031   5.438096   4.508759   3.125308   2.613084
    22  C    3.238304   4.513991   5.118453   4.715780   5.569512
    23  H    3.471195   4.545141   4.987552   4.534812   5.300451
    24  H    3.045399   4.347890   5.215914   5.100934   6.059643
    25  H    4.268832   5.574849   6.149455   5.641355   6.428924
    26  C    3.238321   4.513953   5.118351   4.715642   5.569348
    27  H    4.268881   5.574837   6.149353   5.641191   6.428713
    28  H    3.045521   4.347972   5.215936   5.100915   6.059598
    29  H    3.471089   4.544938   4.987257   4.534488   5.300096
                   11         12         13         14         15
    11  H    0.000000
    12  H    2.466105   0.000000
    13  H    4.286881   2.470565   0.000000
    14  C    5.396138   6.418454   5.845627   0.000000
    15  C    6.780149   7.670024   6.805870   1.391099   0.000000
    16  C    7.483913   7.961491   6.671647   2.417789   1.393170
    17  C    7.023168   7.095245   5.522070   2.808229   2.420506
    18  H    7.841509   7.634346   5.784176   3.891969   3.399244
    19  H    8.562599   9.020986   7.634245   3.395005   2.146864
    20  H    7.453376   8.562637   7.841455   2.145708   1.082834
    21  H    5.059026   6.477248   6.313928   1.083219   2.150282
    22  C    6.170989   5.269922   3.202559   4.715792   5.118505
    23  H    5.981365   5.320626   3.614170   4.534909   4.987742
    24  H    6.233149   4.914791   2.664275   5.641452   6.149546
    25  H    7.211751   6.330944   4.160524   5.100770   5.215773
    26  C    6.170879   5.269911   3.202662   4.715645   5.118383
    27  H    7.211636   6.330971   4.160682   5.100519   5.215526
    28  H    6.233168   4.914900   2.664486   5.641376   6.149463
    29  H    5.981050   5.320456   3.614187   4.534688   4.987613
                   16         17         18         19         20
    16  C    0.000000
    17  C    1.394532   0.000000
    18  H    2.149673   1.083816   0.000000
    19  H    1.082800   2.148572   2.470485   0.000000
    20  H    2.146464   3.397794   4.286846   2.466082   0.000000
    21  H    3.398884   3.891438   4.975154   4.287532   2.473544
    22  C    4.514035   3.238356   3.202701   5.269967   6.171041
    23  H    4.545357   3.471412   3.614473   5.320865   5.981564
    24  H    5.574883   4.268854   4.160584   6.330953   7.211844
    25  H    4.347750   3.045272   2.664266   4.914655   6.232998
    26  C    4.513974   3.238351   3.202784   5.269928   6.170906
    27  H    4.347563   3.045164   2.664288   4.914489   6.232729
    28  H    5.574819   4.268821   4.160582   6.330889   7.211749
    29  H    4.545367   3.471515   3.614728   5.320930   5.981414
                   21         22         23         24         25
    21  H    0.000000
    22  C    5.569461   0.000000
    23  H    5.300458   1.090622   0.000000
    24  H    6.428972   1.091881   1.768246   0.000000
    25  H    6.059436   1.091878   1.768257   1.765484   0.000000
    26  C    5.569290   2.522942   3.481996   2.767056   2.767119
    27  H    6.059165   2.767207   3.772669   3.111786   2.562481
    28  H    6.428889   2.766989   3.772469   2.562172   3.111545
    29  H    5.300173   3.481988   4.334151   3.772472   3.772636
                   26         27         28         29
    26  C    0.000000
    27  H    1.091880   0.000000
    28  H    1.091881   1.765490   0.000000
    29  H    1.090622   1.768254   1.768247   0.000000
 Stoichiometry    C15H14
 Framework group  C1[X(C15H14)]
 Deg. of freedom    81
 Full point group                 C1      NOp   1
 RotChk:  IX=0 Diff= 2.85D-15
 Largest Abelian subgroup         C1      NOp   1
 Largest concise Abelian subgroup C1      NOp   1
                         Standard orientation:                         
 ---------------------------------------------------------------------
 Center     Atomic      Atomic             Coordinates (Angstroms)
 Number     Number       Type             X           Y           Z
 ---------------------------------------------------------------------
      1          6           0       -0.000045    1.412552   -0.000003
      2          6           0        1.177926    0.443999   -0.000032
      3          6           0        0.732661   -0.887036   -0.000007
      4          6           0       -0.732611   -0.887082    0.000002
      5          6           0       -1.177915    0.443936   -0.000025
      6          6           0       -2.534411    0.725253   -0.000049
      7          6           0       -3.448232   -0.328146   -0.000037
      8          6           0       -3.005209   -1.649000   -0.000006
      9          6           0       -1.644511   -1.938240    0.000014
     10          1           0       -1.306580   -2.967399    0.000034
     11          1           0       -3.726663   -2.456488   -0.000001
     12          1           0       -4.510496   -0.118267   -0.000058
     13          1           0       -2.892042    1.748361   -0.000074
     14          6           0        1.644529   -1.938221    0.000011
     15          6           0        3.005230   -1.648998   -0.000005
     16          6           0        3.448228   -0.328137   -0.000040
     17          6           0        2.534426    0.725280   -0.000054
     18          1           0        2.892134    1.748364   -0.000088
     19          1           0        4.510491   -0.118243   -0.000058
     20          1           0        3.726713   -2.456459    0.000011
     21          1           0        1.306503   -2.967347    0.000034
     22          6           0       -0.000035    2.297694   -1.261390
     23          1           0       -0.000148    1.690043   -2.167048
     24          1           0       -0.882719    2.940104   -1.280985
     25          1           0        0.882766    2.939936   -1.281067
     26          6           0       -0.000019    2.297495    1.261552
     27          1           0        0.882875    2.939605    1.281415
     28          1           0       -0.882615    2.940022    1.281187
     29          1           0       -0.000287    1.689684    2.167103
 ---------------------------------------------------------------------
 Rotational constants (GHZ):           1.0626816           0.5528805           0.3944869
 Leave Link  202 at Wed Mar 11 12:49:26 2026, MaxMem=   104857600 cpu:               0.0 elap:               0.0
 (Enter /sw/cluster/pub/apps//g16/l301.exe)
 Standard basis: def2TZVP (5D, 7F)
 Ernie: Thresh=  0.10000D-02 Tol=  0.10000D-05 Strict=F.
 There are   624 symmetry adapted cartesian basis functions of A   symmetry.
 There are   549 symmetry adapted basis functions of A   symmetry.
   549 basis functions,   877 primitive gaussians,   624 cartesian basis functions
    52 alpha electrons       52 beta electrons
       nuclear repulsion energy       929.1505863305 Hartrees.
 IExCor=  402 DFT=T Ex+Corr=B3LYP ExCW=0 ScaHFX=  0.200000
 ScaDFX=  0.800000  0.720000  1.000000  0.810000 ScalE2=  1.000000  1.000000
 IRadAn=      5 IRanWt=     -1 IRanGd=            0 ICorTp=0 IEmpDi=  4
 NAtoms=   29 NActive=   29 NUniq=   29 SFac= 1.00D+00 NAtFMM=   60 NAOKFM=F Big=F
 Integral buffers will be    131072 words long.
 Raffenetti 2 integral format.
 Two-electron integral symmetry is turned on.
 Leave Link  301 at Wed Mar 11 12:49:26 2026, MaxMem=   104857600 cpu:               0.0 elap:               0.0
 (Enter /sw/cluster/pub/apps//g16/l302.exe)
 NPDir=0 NMtPBC=     1 NCelOv=     1 NCel=       1 NClECP=     1 NCelD=      1
         NCelK=      1 NCelE2=     1 NClLst=     1 CellRange=     0.0.
 One-electron integrals computed using PRISM.
 One-electron integral symmetry used in STVInt
   1 Symmetry operations used in ECPInt.
 ECPInt:  NShTT=   24531 NPrTT=   74292 LenC2=   23181 LenP2D=   52842.
 LDataN:  DoStor=T MaxTD1= 6 Len=  172
 NBasis=   549 RedAO= T EigKep=  6.03D-06  NBF=   549
 NBsUse=   549 1.00D-06 EigRej= -1.00D+00 NBFU=   549
 Precomputing XC quadrature grid using
 IXCGrd= 4 IRadAn=           5 IRanWt=          -1 IRanGd=           0 AccXCQ= 0.00D+00.
 Generated NRdTot=       0 NPtTot=           0 NUsed=           0 NTot=          32
 NSgBfM=   618   618   618   618   618 MxSgAt=    29 MxSgA2=    29.
 Leave Link  302 at Wed Mar 11 12:49:27 2026, MaxMem=   104857600 cpu:               0.6 elap:               0.6
 (Enter /sw/cluster/pub/apps//g16/l303.exe)
 DipDrv:  MaxL=1.
 Leave Link  303 at Wed Mar 11 12:49:27 2026, MaxMem=   104857600 cpu:               0.0 elap:               0.0
 (Enter /sw/cluster/pub/apps//g16/l401.exe)
 Initial guess from the checkpoint file:  "f1-def2TZVP.chk"
 B after Tr=     0.000000    0.000000    0.000000
         Rot=    1.000000   -0.000000    0.000000    0.000000 Ang=   0.00 deg.
 Guess basis will be translated and rotated to current coordinates.
 JPrj=2 DoOrth=T DoCkMO=T.
 Leave Link  401 at Wed Mar 11 12:49:27 2026, MaxMem=   104857600 cpu:               0.2 elap:               0.2
 (Enter /sw/cluster/pub/apps//g16/l502.exe)
 Integral symmetry usage will be decided dynamically.
 Closed shell SCF:
 Using DIIS extrapolation, IDIIS=  1040.
 NGot=   104857600 LenX=   104069519 LenY=   103679519
 Requested convergence on RMS density matrix=1.00D-08 within 128 cycles.
 Requested convergence on MAX density matrix=1.00D-06.
 Requested convergence on             energy=1.00D-06.
 No special actions if energy rises.
 Fock matrices will be formed incrementally for  20 cycles.

 Cycle   1  Pass 1  IDiag  1:
 FoFJK:  IHMeth= 1 ICntrl=       0 DoSepK=F KAlg= 0 I1Cent=           0 FoldK=F
 IRaf= 900000000 NMat=       1 IRICut=       1 DoRegI=T DoRafI=F ISym2E= 0 IDoP0=0 IntGTp=1.
 FoFCou: FMM=F IPFlag=           0 FMFlag=      100000 FMFlg1=           0
         NFxFlg=           0 DoJE=F BraDBF=F KetDBF=F FulRan=T
         wScrn=  0.000000 ICntrl=         0 IOpCl=  0 I1Cent=           0 NGrid=           0
         NMat0=    1 NMatS0=      1 NMatT0=    0 NMatD0=    1 NMtDS0=    0 NMtDT0=    0
 Symmetry not used in FoFCou.
 E= -580.257336103647    
 DIIS: error= 4.87D-08 at cycle   1 NSaved=   1.
 NSaved= 1 IEnMin= 1 EnMin= -580.257336103647     IErMin= 1 ErrMin= 4.87D-08
 ErrMax= 4.87D-08  0.00D+00 EMaxC= 1.00D-01 BMatC= 4.83D-13 BMatP= 4.83D-13
 IDIUse=1 WtCom= 1.00D+00 WtEn= 0.00D+00
 Coeff-Com:  0.100D+01
 Coeff:      0.100D+01
 Gap=     0.181 Goal=   None    Shift=    0.000
 RMSDP=4.22D-09 MaxDP=1.44D-07              OVMax= 8.97D-07

 SCF Done:  E(RB3LYP) =  -580.257336104     A.U. after    1 cycles
            NFock=  1  Conv=0.42D-08     -V/T= 2.0053
 KE= 5.771710205548D+02 PE=-3.203328497522D+03 EE= 1.116749554534D+03
 Leave Link  502 at Wed Mar 11 12:50:55 2026, MaxMem=   104857600 cpu:              88.2 elap:              88.3
 (Enter /sw/cluster/pub/apps//g16/l801.exe)
 DoSCS=F DFT=T ScalE2(SS,OS)=  1.000000  1.000000
 Range of M.O.s used for correlation:     1   549
 NBasis=   549 NAE=    52 NBE=    52 NFC=     0 NFV=     0
 NROrb=    549 NOA=    52 NOB=    52 NVA=   497 NVB=   497

 **** Warning!!: The largest alpha MO coefficient is  0.81568548D+02

 Leave Link  801 at Wed Mar 11 12:50:55 2026, MaxMem=   104857600 cpu:               0.0 elap:               0.0
 (Enter /sw/cluster/pub/apps//g16/l1101.exe)
 Using compressed storage, NAtomX=    29.
 Will process     30 centers per pass.
   1 Symmetry operations used in ECPInt.
 ECPInt:  NShTT=   24531 NPrTT=   74292 LenC2=   23181 LenP2D=   52842.
 LDataN:  DoStor=T MaxTD1= 7 Len=  274
 Leave Link 1101 at Wed Mar 11 12:50:56 2026, MaxMem=   104857600 cpu:               0.5 elap:               0.5
 (Enter /sw/cluster/pub/apps//g16/l1102.exe)
 Symmetrizing basis deriv contribution to polar:
 IMax=3 JMax=2 DiffMx= 0.00D+00
 Leave Link 1102 at Wed Mar 11 12:50:56 2026, MaxMem=   104857600 cpu:               0.0 elap:               0.0
 (Enter /sw/cluster/pub/apps//g16/l1110.exe)
 Forming Gx(P) for the SCF density, NAtomX=    29.
 Integral derivatives from FoFJK, PRISM(SPDF).
 Do as many integral derivatives as possible in FoFJK.
 G2DrvN: MDV=     104855376.
 G2DrvN: will do    30 centers at a time, making    1 passes.
 Calling FoFCou, ICntrl=  3107 FMM=F I1Cent=   0 AccDes= 0.00D+00.
 FoFJK:  IHMeth= 1 ICntrl=    3107 DoSepK=F KAlg= 0 I1Cent=           0 FoldK=F
 IRaf=         0 NMat=       1 IRICut=       1 DoRegI=T DoRafI=F ISym2E= 0 IDoP0=0 IntGTp=1.
 FoFCou: FMM=F IPFlag=           0 FMFlag=      100000 FMFlg1=           0
         NFxFlg=           0 DoJE=F BraDBF=F KetDBF=F FulRan=T
         wScrn=  0.000000 ICntrl=      3107 IOpCl=  0 I1Cent=           0 NGrid=           0
         NMat0=    1 NMatS0=      1 NMatT0=    0 NMatD0=    1 NMtDS0=    0 NMtDT0=    0
 Symmetry not used in FoFCou.
 End of G2Drv F.D. properties file   721 does not exist.
 End of G2Drv F.D. properties file   722 does not exist.
 End of G2Drv F.D. properties file   788 does not exist.
 Leave Link 1110 at Wed Mar 11 13:13:53 2026, MaxMem=   104857600 cpu:            1375.2 elap:            1376.9
 (Enter /sw/cluster/pub/apps//g16/l1002.exe)
 Minotr:  Closed shell wavefunction.
          IDoAtm=11111111111111111111111111111
          Direct CPHF calculation.
          Differentiating once with respect to electric field.
                with respect to dipole field.
          Differentiating once with respect to nuclear coordinates.
          Requested convergence is 1.0D-08 RMS, and 1.0D-07 maximum.
          Secondary convergence is 1.0D-12 RMS, and 1.0D-12 maximum.
          NewPWx=T KeepS1=F KeepF1=F KeepIn=T MapXYZ=F SortEE=F KeepMc=T.
         8741 words used for storage of precomputed grid.
 Two-electron integrals replicated using symmetry.
          MDV=     104857600 using IRadAn=       1.
          Solving linear equations simultaneously, MaxMat=     384.
 FoF2E skips out because all densities are zero.
 CalDSu exits because no D1Ps are significant.
 FoFJK:  IHMeth= 1 ICntrl=       0 DoSepK=F KAlg= 0 I1Cent=           0 FoldK=F
 IRaf= 880000000 NMat=      87 IRICut=     217 DoRegI=T DoRafI=T ISym2E= 2 IDoP0=3 IntGTp=3.
 FoFCou: FMM=F IPFlag=           0 FMFlag=      100000 FMFlg1=           0
         NFxFlg=           0 DoJE=F BraDBF=F KetDBF=F FulRan=T
         wScrn=  0.000000 ICntrl=         0 IOpCl=  0 I1Cent=           0 NGrid=           0
         NMat0=   87 NMatS0=     87 NMatT0=    0 NMatD0=   87 NMtDS0=    0 NMtDT0=    0
 Integrals replicated using symmetry in FoFCou.
 Raff kept on since  83.40% of shell-pairs survive, threshold=   0.20 IRatSp=83.
          There are    90 degrees of freedom in the 1st order CPHF.  IDoFFX=6 NUNeed=     3.
     87 vectors produced by pass  0 Test12= 2.87D-14 1.11D-09 XBig12= 3.26D+02 1.33D+01.
 AX will form    87 AO Fock derivatives at one time.
     87 vectors produced by pass  1 Test12= 2.87D-14 1.11D-09 XBig12= 5.15D+01 1.03D+00.
     87 vectors produced by pass  2 Test12= 2.87D-14 1.11D-09 XBig12= 5.53D-01 1.06D-01.
     87 vectors produced by pass  3 Test12= 2.87D-14 1.11D-09 XBig12= 1.74D-03 4.65D-03.
     87 vectors produced by pass  4 Test12= 2.87D-14 1.11D-09 XBig12= 3.85D-06 1.78D-04.
     82 vectors produced by pass  5 Test12= 2.87D-14 1.11D-09 XBig12= 5.43D-09 9.05D-06.
     26 vectors produced by pass  6 Test12= 2.87D-14 1.11D-09 XBig12= 9.22D-12 4.28D-07.
      3 vectors produced by pass  7 Test12= 2.87D-14 1.11D-09 XBig12= 1.40D-14 1.94D-08.
      3 vectors produced by pass  8 Test12= 2.87D-14 1.11D-09 XBig12= 3.58D-15 7.95D-09.
      3 vectors produced by pass  9 Test12= 2.87D-14 1.11D-09 XBig12= 1.54D-14 1.49D-08.
      2 vectors produced by pass 10 Test12= 2.87D-14 1.11D-09 XBig12= 7.00D-15 1.75D-08.
 InvSVY:  IOpt=1 It=  1 EMax= 1.07D-14
 Solved reduced A of dimension   554 with    90 vectors.
 FullF1:  Do perturbations      1 to       3.
 Isotropic polarizability for W=    0.000000      172.88 Bohr**3.
 End of Minotr F.D. properties file   721 does not exist.
 End of Minotr F.D. properties file   722 does not exist.
 End of Minotr F.D. properties file   788 does not exist.
 Leave Link 1002 at Wed Mar 11 14:24:18 2026, MaxMem=   104857600 cpu:            4220.0 elap:            4225.3
 (Enter /sw/cluster/pub/apps//g16/l601.exe)
 Copying SCF densities to generalized density rwf, IOpCl= 0 IROHF=0.

 **********************************************************************

            Population analysis using the SCF density.

 **********************************************************************

 Orbital symmetries:
       Occupied  (A) (A) (A) (A) (A) (A) (A) (A) (A) (A) (A) (A)
                 (A) (A) (A) (A) (A) (A) (A) (A) (A) (A) (A) (A)
                 (A) (A) (A) (A) (A) (A) (A) (A) (A) (A) (A) (A)
                 (A) (A) (A) (A) (A) (A) (A) (A) (A) (A) (A) (A)
                 (A) (A) (A) (A)
       Virtual   (A) (A) (A) (A) (A) (A) (A) (A) (A) (A) (A) (A)
                 (A) (A) (A) (A) (A) (A) (A) (A) (A) (A) (A) (A)
                 (A) (A) (A) (A) (A) (A) (A) (A) (A) (A) (A) (A)
                 (A) (A) (A) (A) (A) (A) (A) (A) (A) (A) (A) (A)
                 (A) (A) (A) (A) (A) (A) (A) (A) (A) (A) (A) (A)
                 (A) (A) (A) (A) (A) (A) (A) (A) (A) (A) (A) (A)
                 (A) (A) (A) (A) (A) (A) (A) (A) (A) (A) (A) (A)
                 (A) (A) (A) (A) (A) (A) (A) (A) (A) (A) (A) (A)
                 (A) (A) (A) (A) (A) (A) (A) (A) (A) (A) (A) (A)
                 (A) (A) (A) (A) (A) (A) (A) (A) (A) (A) (A) (A)
                 (A) (A) (A) (A) (A) (A) (A) (A) (A) (A) (A) (A)
                 (A) (A) (A) (A) (A) (A) (A) (A) (A) (A) (A) (A)
                 (A) (A) (A) (A) (A) (A) (A) (A) (A) (A) (A) (A)
                 (A) (A) (A) (A) (A) (A) (A) (A) (A) (A) (A) (A)
                 (A) (A) (A) (A) (A) (A) (A) (A) (A) (A) (A) (A)
                 (A) (A) (A) (A) (A) (A) (A) (A) (A) (A) (A) (A)
                 (A) (A) (A) (A) (A) (A) (A) (A) (A) (A) (A) (A)
                 (A) (A) (A) (A) (A) (A) (A) (A) (A) (A) (A) (A)
                 (A) (A) (A) (A) (A) (A) (A) (A) (A) (A) (A) (A)
                 (A) (A) (A) (A) (A) (A) (A) (A) (A) (A) (A) (A)
                 (A) (A) (A) (A) (A) (A) (A) (A) (A) (A) (A) (A)
                 (A) (A) (A) (A) (A) (A) (A) (A) (A) (A) (A) (A)
                 (A) (A) (A) (A) (A) (A) (A) (A) (A) (A) (A) (A)
                 (A) (A) (A) (A) (A) (A) (A) (A) (A) (A) (A) (A)
                 (A) (A) (A) (A) (A) (A) (A) (A) (A) (A) (A) (A)
                 (A) (A) (A) (A) (A) (A) (A) (A) (A) (A) (A) (A)
                 (A) (A) (A) (A) (A) (A) (A) (A) (A) (A) (A) (A)
                 (A) (A) (A) (A) (A) (A) (A) (A) (A) (A) (A) (A)
                 (A) (A) (A) (A) (A) (A) (A) (A) (A) (A) (A) (A)
                 (A) (A) (A) (A) (A) (A) (A) (A) (A) (A) (A) (A)
                 (A) (A) (A) (A) (A) (A) (A) (A) (A) (A) (A) (A)
                 (A) (A) (A) (A) (A) (A) (A) (A) (A) (A) (A) (A)
                 (A) (A) (A) (A) (A) (A) (A) (A) (A) (A) (A) (A)
                 (A) (A) (A) (A) (A) (A) (A) (A) (A) (A) (A) (A)
                 (A) (A) (A) (A) (A) (A) (A) (A) (A) (A) (A) (A)
                 (A) (A) (A) (A) (A) (A) (A) (A) (A) (A) (A) (A)
                 (A) (A) (A) (A) (A) (A) (A) (A) (A) (A) (A) (A)
                 (A) (A) (A) (A) (A) (A) (A) (A) (A) (A) (A) (A)
                 (A) (A) (A) (A) (A) (A) (A) (A) (A) (A) (A) (A)
                 (A) (A) (A) (A) (A) (A) (A) (A) (A) (A) (A) (A)
                 (A) (A) (A) (A) (A) (A) (A) (A) (A) (A) (A) (A)
                 (A) (A) (A) (A) (A)
 The electronic state is 1-A.
 Alpha  occ. eigenvalues --  -10.19673 -10.18005 -10.17974 -10.17729 -10.17726
 Alpha  occ. eigenvalues --  -10.17605 -10.17604 -10.17585 -10.17585 -10.17512
 Alpha  occ. eigenvalues --  -10.17512 -10.17454 -10.17454 -10.16670 -10.16670
 Alpha  occ. eigenvalues --   -0.89448  -0.84907  -0.81728  -0.77854  -0.74659
 Alpha  occ. eigenvalues --   -0.73640  -0.71758  -0.69258  -0.64830  -0.62546
 Alpha  occ. eigenvalues --   -0.58797  -0.57963  -0.56188  -0.51428  -0.50008
 Alpha  occ. eigenvalues --   -0.47879  -0.45590  -0.45192  -0.44037  -0.43777
 Alpha  occ. eigenvalues --   -0.43379  -0.42329  -0.42209  -0.39746  -0.38673
 Alpha  occ. eigenvalues --   -0.38649  -0.38084  -0.35875  -0.35149  -0.34962
 Alpha  occ. eigenvalues --   -0.34555  -0.32466  -0.32382  -0.28908  -0.25589
 Alpha  occ. eigenvalues --   -0.25219  -0.22225
 Alpha virt. eigenvalues --   -0.04175  -0.02214  -0.00244   0.02832   0.03198
 Alpha virt. eigenvalues --    0.05240   0.05341   0.07188   0.07209   0.08372
 Alpha virt. eigenvalues --    0.08706   0.09847   0.10053   0.11426   0.11641
 Alpha virt. eigenvalues --    0.12372   0.12714   0.13398   0.14155   0.14217
 Alpha virt. eigenvalues --    0.15713   0.15862   0.16895   0.18305   0.19130
 Alpha virt. eigenvalues --    0.19189   0.19397   0.20417   0.20515   0.20882
 Alpha virt. eigenvalues --    0.21403   0.21586   0.22431   0.22538   0.23874
 Alpha virt. eigenvalues --    0.24408   0.24516   0.24750   0.27437   0.28891
 Alpha virt. eigenvalues --    0.29590   0.29818   0.29914   0.30118   0.31106
 Alpha virt. eigenvalues --    0.31120   0.32720   0.33250   0.33326   0.34372
 Alpha virt. eigenvalues --    0.34786   0.34867   0.35566   0.36034   0.36716
 Alpha virt. eigenvalues --    0.37051   0.37137   0.38482   0.39144   0.39898
 Alpha virt. eigenvalues --    0.40290   0.40633   0.41474   0.41674   0.42208
 Alpha virt. eigenvalues --    0.42780   0.43290   0.43327   0.43405   0.44052
 Alpha virt. eigenvalues --    0.45287   0.46092   0.46643   0.46797   0.47662
 Alpha virt. eigenvalues --    0.48010   0.48097   0.49446   0.49570   0.49847
 Alpha virt. eigenvalues --    0.50906   0.51396   0.52446   0.53227   0.55304
 Alpha virt. eigenvalues --    0.55770   0.56503   0.58018   0.58940   0.59534
 Alpha virt. eigenvalues --    0.59889   0.62607   0.62793   0.63952   0.65005
 Alpha virt. eigenvalues --    0.65727   0.65954   0.66838   0.67354   0.68064
 Alpha virt. eigenvalues --    0.69267   0.70603   0.70924   0.71202   0.71589
 Alpha virt. eigenvalues --    0.72993   0.73299   0.74906   0.75784   0.76812
 Alpha virt. eigenvalues --    0.77381   0.79176   0.80481   0.81328   0.81650
 Alpha virt. eigenvalues --    0.81799   0.85040   0.85640   0.86628   0.86775
 Alpha virt. eigenvalues --    0.86883   0.89112   0.90081   0.90189   0.90270
 Alpha virt. eigenvalues --    0.92051   0.92872   0.93110   0.94556   0.95950
 Alpha virt. eigenvalues --    0.97877   0.98885   0.99337   0.99946   1.00339
 Alpha virt. eigenvalues --    1.02312   1.04049   1.05334   1.05844   1.05868
 Alpha virt. eigenvalues --    1.08625   1.08704   1.08894   1.10000   1.11880
 Alpha virt. eigenvalues --    1.12448   1.13818   1.14097   1.14592   1.19364
 Alpha virt. eigenvalues --    1.19396   1.19951   1.21783   1.22057   1.22099
 Alpha virt. eigenvalues --    1.23378   1.24681   1.24982   1.25308   1.25894
 Alpha virt. eigenvalues --    1.27544   1.27547   1.30087   1.31533   1.33347
 Alpha virt. eigenvalues --    1.33354   1.35162   1.35268   1.37995   1.39133
 Alpha virt. eigenvalues --    1.39150   1.40170   1.41585   1.42267   1.44715
 Alpha virt. eigenvalues --    1.45549   1.45968   1.46777   1.48527   1.48701
 Alpha virt. eigenvalues --    1.48939   1.51091   1.52394   1.52437   1.54717
 Alpha virt. eigenvalues --    1.54921   1.55579   1.55955   1.57850   1.58552
 Alpha virt. eigenvalues --    1.59239   1.59842   1.60169   1.61142   1.61467
 Alpha virt. eigenvalues --    1.62883   1.63366   1.63919   1.66203   1.67911
 Alpha virt. eigenvalues --    1.68261   1.69949   1.70641   1.71295   1.72041
 Alpha virt. eigenvalues --    1.73895   1.74710   1.75504   1.75521   1.78631
 Alpha virt. eigenvalues --    1.79359   1.79461   1.81556   1.81575   1.84566
 Alpha virt. eigenvalues --    1.85375   1.88184   1.89349   1.89689   1.91637
 Alpha virt. eigenvalues --    1.94529   1.94733   1.97763   2.01198   2.02079
 Alpha virt. eigenvalues --    2.02431   2.03894   2.05192   2.05298   2.06506
 Alpha virt. eigenvalues --    2.07379   2.10606   2.11294   2.11419   2.13475
 Alpha virt. eigenvalues --    2.13837   2.13966   2.15596   2.16872   2.18337
 Alpha virt. eigenvalues --    2.19198   2.19585   2.21997   2.23216   2.24630
 Alpha virt. eigenvalues --    2.24807   2.24924   2.27011   2.28501   2.29428
 Alpha virt. eigenvalues --    2.31851   2.33363   2.33905   2.35165   2.35285
 Alpha virt. eigenvalues --    2.37997   2.39743   2.41350   2.42194   2.42960
 Alpha virt. eigenvalues --    2.44269   2.46170   2.46387   2.49336   2.49897
 Alpha virt. eigenvalues --    2.50198   2.51885   2.54604   2.54631   2.54788
 Alpha virt. eigenvalues --    2.55539   2.55923   2.59148   2.60884   2.61383
 Alpha virt. eigenvalues --    2.61855   2.64014   2.64181   2.65026   2.65395
 Alpha virt. eigenvalues --    2.65670   2.65722   2.65728   2.67660   2.67937
 Alpha virt. eigenvalues --    2.70148   2.72159   2.73325   2.73394   2.73774
 Alpha virt. eigenvalues --    2.74350   2.74407   2.74476   2.75940   2.76681
 Alpha virt. eigenvalues --    2.77410   2.79109   2.80214   2.80744   2.81258
 Alpha virt. eigenvalues --    2.81757   2.82905   2.84703   2.84906   2.85715
 Alpha virt. eigenvalues --    2.88253   2.89009   2.89069   2.90415   2.90653
 Alpha virt. eigenvalues --    2.92081   2.92329   2.93265   2.95274   2.95663
 Alpha virt. eigenvalues --    2.96572   2.98423   2.98614   3.01659   3.02280
 Alpha virt. eigenvalues --    3.03794   3.04490   3.05146   3.06422   3.06623
 Alpha virt. eigenvalues --    3.09463   3.09807   3.11987   3.13087   3.14331
 Alpha virt. eigenvalues --    3.14492   3.14845   3.16568   3.16874   3.17613
 Alpha virt. eigenvalues --    3.18368   3.19108   3.19596   3.20654   3.21418
 Alpha virt. eigenvalues --    3.21511   3.22646   3.23067   3.23890   3.26435
 Alpha virt. eigenvalues --    3.27779   3.28604   3.28736   3.29604   3.30388
 Alpha virt. eigenvalues --    3.32521   3.32785   3.32871   3.32932   3.33370
 Alpha virt. eigenvalues --    3.35761   3.35801   3.36121   3.36401   3.38096
 Alpha virt. eigenvalues --    3.38209   3.39216   3.39762   3.41759   3.43538
 Alpha virt. eigenvalues --    3.43705   3.46431   3.46487   3.47745   3.47842
 Alpha virt. eigenvalues --    3.47894   3.51327   3.51616   3.51680   3.52163
 Alpha virt. eigenvalues --    3.54064   3.54725   3.54760   3.57046   3.57308
 Alpha virt. eigenvalues --    3.58673   3.58898   3.59403   3.61809   3.62130
 Alpha virt. eigenvalues --    3.62762   3.64127   3.64938   3.67285   3.69400
 Alpha virt. eigenvalues --    3.69573   3.70336   3.74592   3.74810   3.77168
 Alpha virt. eigenvalues --    3.80518   3.82966   3.85028   3.86384   3.88111
 Alpha virt. eigenvalues --    3.88281   3.89924   3.90857   3.92774   3.95389
 Alpha virt. eigenvalues --    3.95566   3.96695   3.98918   3.99750   4.03971
 Alpha virt. eigenvalues --    4.04796   4.06177   4.10328   4.11446   4.11566
 Alpha virt. eigenvalues --    4.12139   4.13191   4.14763   4.15395   4.15828
 Alpha virt. eigenvalues --    4.18034   4.19680   4.20287   4.21013   4.23077
 Alpha virt. eigenvalues --    4.23787   4.26591   4.26909   4.27897   4.30374
 Alpha virt. eigenvalues --    4.30405   4.31732   4.32337   4.33435   4.35592
 Alpha virt. eigenvalues --    4.35937   4.36280   4.38702   4.41370   4.42206
 Alpha virt. eigenvalues --    4.43710   4.46987   4.47815   4.52343   4.52783
 Alpha virt. eigenvalues --    4.53972   4.59049   4.59235   4.61778   4.62691
 Alpha virt. eigenvalues --    4.63602   4.71584   4.75317   4.76312   4.76636
 Alpha virt. eigenvalues --    4.80536   4.81859   4.82684   4.82788   4.84760
 Alpha virt. eigenvalues --    4.91718   4.92220   4.92529   4.96198   4.98054
 Alpha virt. eigenvalues --    5.02010   5.02174   5.11473   5.11667   5.19607
 Alpha virt. eigenvalues --    5.26983   5.30410   5.34095   5.35921   5.42930
 Alpha virt. eigenvalues --    5.50042   5.57520   5.60151   5.61968   5.76091
 Alpha virt. eigenvalues --    5.77127   6.09592  22.03330  22.41831  22.47097
 Alpha virt. eigenvalues --   22.47964  22.59969  22.61994  22.65114  22.69527
 Alpha virt. eigenvalues --   22.71749  22.82911  22.97604  23.00518  23.11839
 Alpha virt. eigenvalues --   23.60306  23.78668
          Condensed to atoms (all electrons):
               1          2          3          4          5          6
     1  C    5.285753   0.200111  -0.058816  -0.058897   0.200155  -0.106986
     2  C    0.200111   5.368904   0.397750  -0.130657  -0.009175   0.023268
     3  C   -0.058816   0.397750   5.119988   0.329533  -0.130681   0.002892
     4  C   -0.058897  -0.130657   0.329533   5.119986   0.397775   0.015950
     5  C    0.200155  -0.009175  -0.130681   0.397775   5.368853   0.406321
     6  C   -0.106986   0.023268   0.002892   0.015950   0.406321   5.078567
     7  C    0.006314   0.000356  -0.005611  -0.083225   0.002947   0.461892
     8  C   -0.002169  -0.000860   0.004823  -0.012360  -0.081195   0.002858
     9  C    0.006793   0.018381  -0.106188   0.446009  -0.013114  -0.063932
    10  H   -0.000124   0.000153  -0.012651  -0.056801   0.012084  -0.002105
    11  H    0.000118  -0.000002  -0.000222   0.010572   0.000134   0.008696
    12  H   -0.000264   0.000015   0.000185  -0.000417   0.010664  -0.054960
    13  H   -0.003825   0.000141  -0.000340   0.015816  -0.071938   0.434008
    14  C    0.006799  -0.013093   0.446013  -0.106186   0.018377  -0.001579
    15  C   -0.002169  -0.081187  -0.012369   0.004826  -0.000863   0.000185
    16  C    0.006318   0.002961  -0.083238  -0.005615   0.000357   0.000002
    17  C   -0.107008   0.406318   0.015956   0.002897   0.023264  -0.000135
    18  H   -0.003824  -0.071931   0.015816  -0.000339   0.000140  -0.000083
    19  H   -0.000264   0.010664  -0.000416   0.000185   0.000015  -0.000001
    20  H    0.000118   0.000134   0.010571  -0.000222  -0.000002   0.000000
    21  H   -0.000124   0.012083  -0.056803  -0.012654   0.000153  -0.000203
    22  C    0.277880  -0.029755  -0.004673  -0.004677  -0.029743  -0.001371
    23  H   -0.034704  -0.006372   0.002039   0.002038  -0.006372  -0.000295
    24  H   -0.032064   0.016432  -0.000270  -0.000417  -0.024691   0.005996
    25  H   -0.032050  -0.024705  -0.000418  -0.000268   0.016425  -0.000441
    26  C    0.277871  -0.029752  -0.004674  -0.004679  -0.029735  -0.001375
    27  H   -0.032039  -0.024709  -0.000419  -0.000266   0.016418  -0.000441
    28  H   -0.032061   0.016431  -0.000269  -0.000418  -0.024685   0.005994
    29  H   -0.034694  -0.006378   0.002037   0.002041  -0.006377  -0.000295
               7          8          9         10         11         12
     1  C    0.006314  -0.002169   0.006793  -0.000124   0.000118  -0.000264
     2  C    0.000356  -0.000860   0.018381   0.000153  -0.000002   0.000015
     3  C   -0.005611   0.004823  -0.106188  -0.012651  -0.000222   0.000185
     4  C   -0.083225  -0.012360   0.446009  -0.056801   0.010572  -0.000417
     5  C    0.002947  -0.081195  -0.013114   0.012084   0.000134   0.010664
     6  C    0.461892   0.002858  -0.063932  -0.002105   0.008696  -0.054960
     7  C    4.902620   0.478588   0.000549   0.009250  -0.049035   0.427986
     8  C    0.478588   4.891143   0.475018  -0.049829   0.426214  -0.049328
     9  C    0.000549   0.475018   5.056492   0.429883  -0.053730   0.008999
    10  H    0.009250  -0.049829   0.429883   0.565267  -0.007027  -0.000304
    11  H   -0.049035   0.426214  -0.053730  -0.007027   0.566319  -0.007550
    12  H    0.427986  -0.049328   0.008999  -0.000304  -0.007550   0.566220
    13  H   -0.050259   0.010001  -0.002792   0.000079  -0.000328  -0.007085
    14  C    0.000186  -0.000547   0.005343   0.007170   0.000023  -0.000004
    15  C   -0.000021   0.000021  -0.000547  -0.000414   0.000000   0.000000
    16  C    0.000004  -0.000021   0.000186   0.000093  -0.000001   0.000000
    17  C    0.000002   0.000185  -0.001579  -0.000203   0.000000  -0.000001
    18  H    0.000006  -0.000004   0.000057   0.000001   0.000000  -0.000000
    19  H    0.000000   0.000000  -0.000004  -0.000000  -0.000000  -0.000000
    20  H   -0.000001   0.000000   0.000023  -0.000001   0.000000  -0.000000
    21  H    0.000093  -0.000414   0.007173   0.004338  -0.000001  -0.000000
    22  C    0.001593  -0.000384   0.000395   0.000045  -0.000003   0.000018
    23  H    0.000086  -0.000112   0.000095   0.000007  -0.000001   0.000005
    24  H   -0.000478   0.000115  -0.000113   0.000001   0.000000  -0.000007
    25  H   -0.000004   0.000007   0.000001  -0.000002   0.000000  -0.000002
    26  C    0.001593  -0.000384   0.000395   0.000045  -0.000003   0.000018
    27  H   -0.000004   0.000007   0.000001  -0.000002   0.000000  -0.000002
    28  H   -0.000478   0.000115  -0.000113   0.000001   0.000000  -0.000007
    29  H    0.000086  -0.000112   0.000095   0.000007  -0.000001   0.000005
              13         14         15         16         17         18
     1  C   -0.003825   0.006799  -0.002169   0.006318  -0.107008  -0.003824
     2  C    0.000141  -0.013093  -0.081187   0.002961   0.406318  -0.071931
     3  C   -0.000340   0.446013  -0.012369  -0.083238   0.015956   0.015816
     4  C    0.015816  -0.106186   0.004826  -0.005615   0.002897  -0.000339
     5  C   -0.071938   0.018377  -0.000863   0.000357   0.023264   0.000140
     6  C    0.434008  -0.001579   0.000185   0.000002  -0.000135  -0.000083
     7  C   -0.050259   0.000186  -0.000021   0.000004   0.000002   0.000006
     8  C    0.010001  -0.000547   0.000021  -0.000021   0.000185  -0.000004
     9  C   -0.002792   0.005343  -0.000547   0.000186  -0.001579   0.000057
    10  H    0.000079   0.007170  -0.000414   0.000093  -0.000203   0.000001
    11  H   -0.000328   0.000023   0.000000  -0.000001   0.000000   0.000000
    12  H   -0.007085  -0.000004   0.000000   0.000000  -0.000001  -0.000000
    13  H    0.570403   0.000057  -0.000004   0.000006  -0.000083  -0.000007
    14  C    0.000057   5.056475   0.475003   0.000546  -0.063940  -0.002792
    15  C   -0.000004   0.475003   4.891154   0.478589   0.002869   0.010001
    16  C    0.000006   0.000546   0.478589   4.902609   0.461895  -0.050257
    17  C   -0.000083  -0.063940   0.002869   0.461895   5.078562   0.433997
    18  H   -0.000007  -0.002792   0.010001  -0.050257   0.433997   0.570405
    19  H   -0.000000   0.008999  -0.049329   0.427982  -0.054959  -0.007086
    20  H    0.000000  -0.053728   0.426216  -0.049035   0.008696  -0.000328
    21  H    0.000001   0.429889  -0.049829   0.009250  -0.002105   0.000079
    22  C   -0.000309   0.000395  -0.000384   0.001593  -0.001372  -0.000309
    23  H    0.000015   0.000095  -0.000112   0.000086  -0.000295   0.000015
    24  H    0.002508   0.000001   0.000007  -0.000004  -0.000441  -0.000155
    25  H   -0.000155  -0.000113   0.000115  -0.000478   0.005999   0.002509
    26  C   -0.000309   0.000395  -0.000384   0.001593  -0.001374  -0.000310
    27  H   -0.000155  -0.000113   0.000115  -0.000478   0.006000   0.002508
    28  H    0.002507   0.000001   0.000007  -0.000004  -0.000441  -0.000155
    29  H    0.000015   0.000095  -0.000112   0.000086  -0.000295   0.000015
              19         20         21         22         23         24
     1  C   -0.000264   0.000118  -0.000124   0.277880  -0.034704  -0.032064
     2  C    0.010664   0.000134   0.012083  -0.029755  -0.006372   0.016432
     3  C   -0.000416   0.010571  -0.056803  -0.004673   0.002039  -0.000270
     4  C    0.000185  -0.000222  -0.012654  -0.004677   0.002038  -0.000417
     5  C    0.000015  -0.000002   0.000153  -0.029743  -0.006372  -0.024691
     6  C   -0.000001   0.000000  -0.000203  -0.001371  -0.000295   0.005996
     7  C    0.000000  -0.000001   0.000093   0.001593   0.000086  -0.000478
     8  C    0.000000   0.000000  -0.000414  -0.000384  -0.000112   0.000115
     9  C   -0.000004   0.000023   0.007173   0.000395   0.000095  -0.000113
    10  H   -0.000000  -0.000001   0.004338   0.000045   0.000007   0.000001
    11  H   -0.000000   0.000000  -0.000001  -0.000003  -0.000001   0.000000
    12  H   -0.000000  -0.000000  -0.000000   0.000018   0.000005  -0.000007
    13  H   -0.000000   0.000000   0.000001  -0.000309   0.000015   0.002508
    14  C    0.008999  -0.053728   0.429889   0.000395   0.000095   0.000001
    15  C   -0.049329   0.426216  -0.049829  -0.000384  -0.000112   0.000007
    16  C    0.427982  -0.049035   0.009250   0.001593   0.000086  -0.000004
    17  C   -0.054959   0.008696  -0.002105  -0.001372  -0.000295  -0.000441
    18  H   -0.007086  -0.000328   0.000079  -0.000309   0.000015  -0.000155
    19  H    0.566224  -0.007550  -0.000304   0.000018   0.000005  -0.000002
    20  H   -0.007550   0.566314  -0.007026  -0.000003  -0.000001   0.000000
    21  H   -0.000304  -0.007026   0.565262   0.000045   0.000007  -0.000002
    22  C    0.000018  -0.000003   0.000045   5.026491   0.405670   0.400889
    23  H    0.000005  -0.000001   0.000007   0.405670   0.549618  -0.022727
    24  H   -0.000002   0.000000  -0.000002   0.400889  -0.022727   0.576582
    25  H   -0.000007   0.000000   0.000001   0.400890  -0.022725  -0.026839
    26  C    0.000018  -0.000003   0.000045  -0.092453   0.011841  -0.004398
    27  H   -0.000007   0.000000   0.000001  -0.004391  -0.000173   0.000036
    28  H   -0.000002   0.000000  -0.000002  -0.004399  -0.000172   0.001889
    29  H    0.000005  -0.000001   0.000007   0.011840  -0.000458  -0.000172
              25         26         27         28         29
     1  C   -0.032050   0.277871  -0.032039  -0.032061  -0.034694
     2  C   -0.024705  -0.029752  -0.024709   0.016431  -0.006378
     3  C   -0.000418  -0.004674  -0.000419  -0.000269   0.002037
     4  C   -0.000268  -0.004679  -0.000266  -0.000418   0.002041
     5  C    0.016425  -0.029735   0.016418  -0.024685  -0.006377
     6  C   -0.000441  -0.001375  -0.000441   0.005994  -0.000295
     7  C   -0.000004   0.001593  -0.000004  -0.000478   0.000086
     8  C    0.000007  -0.000384   0.000007   0.000115  -0.000112
     9  C    0.000001   0.000395   0.000001  -0.000113   0.000095
    10  H   -0.000002   0.000045  -0.000002   0.000001   0.000007
    11  H    0.000000  -0.000003   0.000000   0.000000  -0.000001
    12  H   -0.000002   0.000018  -0.000002  -0.000007   0.000005
    13  H   -0.000155  -0.000309  -0.000155   0.002507   0.000015
    14  C   -0.000113   0.000395  -0.000113   0.000001   0.000095
    15  C    0.000115  -0.000384   0.000115   0.000007  -0.000112
    16  C   -0.000478   0.001593  -0.000478  -0.000004   0.000086
    17  C    0.005999  -0.001374   0.006000  -0.000441  -0.000295
    18  H    0.002509  -0.000310   0.002508  -0.000155   0.000015
    19  H   -0.000007   0.000018  -0.000007  -0.000002   0.000005
    20  H    0.000000  -0.000003   0.000000   0.000000  -0.000001
    21  H    0.000001   0.000045   0.000001  -0.000002   0.000007
    22  C    0.400890  -0.092453  -0.004391  -0.004399   0.011840
    23  H   -0.022725   0.011841  -0.000173  -0.000172  -0.000458
    24  H   -0.026839  -0.004398   0.000036   0.001889  -0.000172
    25  H    0.576575  -0.004392   0.001887   0.000036  -0.000172
    26  C   -0.004392   5.026508   0.400885   0.400883   0.405671
    27  H    0.001887   0.400885   0.576576  -0.026838  -0.022724
    28  H    0.000036   0.400883  -0.026838   0.576586  -0.022727
    29  H   -0.000172   0.405671  -0.022724  -0.022727   0.549612
 Mulliken charges:
               1
     1  C    0.273851
     2  C   -0.045523
     3  C    0.130454
     4  C    0.130472
     5  C   -0.045512
     6  C   -0.212429
     7  C   -0.105033
     8  C   -0.091374
     9  C   -0.213773
    10  H    0.101038
    11  H    0.105825
    12  H    0.105815
    13  H    0.102032
    14  C   -0.213768
    15  C   -0.091381
    16  C   -0.105026
    17  C   -0.212410
    18  H    0.102032
    19  H    0.105814
    20  H    0.105827
    21  H    0.101040
    22  C   -0.353534
    23  H    0.122898
    24  H    0.108323
    25  H    0.108327
    26  C   -0.353535
    27  H    0.108327
    28  H    0.108322
    29  H    0.122901
 Sum of Mulliken charges =  -0.00000
 Mulliken charges with hydrogens summed into heavy atoms:
               1
     1  C    0.273851
     2  C   -0.045523
     3  C    0.130454
     4  C    0.130472
     5  C   -0.045512
     6  C   -0.110397
     7  C    0.000781
     8  C    0.014452
     9  C   -0.112734
    14  C   -0.112728
    15  C    0.014445
    16  C    0.000788
    17  C   -0.110378
    22  C   -0.013986
    26  C   -0.013985
 APT charges:
               1
     1  C    0.110928
     2  C   -0.067764
     3  C    0.055287
     4  C    0.055297
     5  C   -0.067766
     6  C    0.006304
     7  C   -0.069626
     8  C   -0.061898
     9  C   -0.025366
    10  H    0.033840
    11  H    0.022985
    12  H    0.024810
    13  H    0.028749
    14  C   -0.025377
    15  C   -0.061883
    16  C   -0.069633
    17  C    0.006302
    18  H    0.028744
    19  H    0.024806
    20  H    0.022987
    21  H    0.033846
    22  C    0.037432
    23  H   -0.003895
    24  H   -0.018162
    25  H   -0.018152
    26  C    0.037421
    27  H   -0.018153
    28  H   -0.018167
    29  H   -0.003893
 Sum of APT charges =  -0.00000
 APT charges with hydrogens summed into heavy atoms:
               1
     1  C    0.110928
     2  C   -0.067764
     3  C    0.055287
     4  C    0.055297
     5  C   -0.067766
     6  C    0.035053
     7  C   -0.044816
     8  C   -0.038913
     9  C    0.008473
    14  C    0.008469
    15  C   -0.038896
    16  C   -0.044827
    17  C    0.035046
    22  C   -0.002778
    26  C   -0.002792
 Electronic spatial extent (au):  <R**2>=           2903.0995
 Charge=             -0.0000 electrons
 Dipole moment (field-independent basis, Debye):
    X=              0.0000    Y=              0.4981    Z=              0.0000  Tot=              0.4981
 Quadrupole moment (field-independent basis, Debye-Ang):
   XX=            -83.0090   YY=            -81.4262   ZZ=            -94.6596
   XY=              0.0000   XZ=              0.0000   YZ=             -0.0002
 Traceless Quadrupole moment (field-independent basis, Debye-Ang):
   XX=              3.3559   YY=              4.9388   ZZ=             -8.2947
   XY=              0.0000   XZ=              0.0000   YZ=             -0.0002
 Octapole moment (field-independent basis, Debye-Ang**2):
  XXX=              0.0018  YYY=            -10.9744  ZZZ=              0.0002  XYY=             -0.0005
  XXY=             -0.8180  XXZ=             -0.0008  XZZ=             -0.0004  YZZ=              4.9894
  YYZ=              0.0003  XYZ=             -0.0000
 Hexadecapole moment (field-independent basis, Debye-Ang**3):
 XXXX=          -2290.0469 YYYY=          -1279.1280 ZZZZ=           -285.3244 XXXY=              0.0011
 XXXZ=              0.0010 YYYX=             -0.0010 YYYZ=             -0.0013 ZZZX=             -0.0003
 ZZZY=             -0.0009 XXYY=           -587.0772 XXZZ=           -516.0683 YYZZ=           -290.1197
 XXYZ=             -0.0013 YYXZ=              0.0005 ZZXY=             -0.0001
 N-N= 9.291505863305D+02 E-N=-3.203328479569D+03  KE= 5.771710205548D+02
  Exact polarizability: 235.110  -0.000 182.592   0.000  -0.001 100.929
 Approx polarizability: 364.831  -0.001 309.044   0.000  -0.002 162.321
 No NMR shielding tensors so no spin-rotation constants.
 Leave Link  601 at Wed Mar 11 14:24:19 2026, MaxMem=   104857600 cpu:               0.3 elap:               0.3
 (Enter /sw/cluster/pub/apps//g16/l701.exe)
 ... and contract with generalized density number  0.
 Compute integral second derivatives.
   1 Symmetry operations used in ECPInt.
 ECPInt:  NShTT=   24531 NPrTT=   74292 LenC2=   23181 LenP2D=   52842.
 LDataN:  DoStor=T MaxTD1= 8 Len=  415
 Leave Link  701 at Wed Mar 11 14:24:19 2026, MaxMem=   104857600 cpu:               0.5 elap:               0.5
 (Enter /sw/cluster/pub/apps//g16/l702.exe)
 L702 exits ... SP integral derivatives will be done elsewhere.
 Leave Link  702 at Wed Mar 11 14:24:19 2026, MaxMem=   104857600 cpu:               0.0 elap:               0.0
 (Enter /sw/cluster/pub/apps//g16/l703.exe)
 Integral derivatives from FoFJK, PRISM(SPDF).
 Compute integral second derivatives, UseDBF=F ICtDFT=           0.
 Calling FoFJK, ICntrl=    100127 FMM=F ISym2X=0 I1Cent= 0 IOpClX= 0 NMat=1 NMatS=1 NMatT=0.
 FoFJK:  IHMeth= 1 ICntrl=  100127 DoSepK=F KAlg= 0 I1Cent=           0 FoldK=F
 IRaf=         0 NMat=       1 IRICut=       1 DoRegI=T DoRafI=F ISym2E= 0 IDoP0=0 IntGTp=1.
 FoFCou: FMM=F IPFlag=           0 FMFlag=      100000 FMFlg1=         800
         NFxFlg=           0 DoJE=F BraDBF=F KetDBF=F FulRan=T
         wScrn=  0.000000 ICntrl=    100127 IOpCl=  0 I1Cent=           0 NGrid=           0
         NMat0=    1 NMatS0=      1 NMatT0=    0 NMatD0=    1 NMtDS0=    0 NMtDT0=    0
 Symmetry not used in FoFCou.
 Leave Link  703 at Wed Mar 11 15:06:50 2026, MaxMem=   104857600 cpu:            2547.8 elap:            2551.0
 (Enter /sw/cluster/pub/apps//g16/l716.exe)
 Dipole        = 1.26772433D-05 1.95955221D-01 1.28374499D-05
 Polarizability= 2.35109802D+02-2.01509232D-04 1.82592124D+02
                 4.55447372D-05-5.39237848D-04 1.00928545D+02
 Full mass-weighted force constant matrix:
 Low frequencies ---   -5.4681   -1.6337   -0.0015   -0.0014    0.0020    2.2811
 Low frequencies ---   78.4830  117.8646  122.6414
 Diagonal vibrational polarizability:
        1.8352393       1.1459918      11.3793062
 Harmonic frequencies (cm**-1), IR intensities (KM/Mole), Raman scattering
 activities (A**4/AMU), depolarization ratios for plane and unpolarized
 incident light, reduced masses (AMU), force constants (mDyne/A),
 and normal coordinates:
                      1                      2                      3
                      A                      A                      A
 Frequencies --     78.4827               117.8644               122.6412
 Red. masses --      3.4932                 4.0254                 3.3083
 Frc consts  --      0.0127                 0.0329                 0.0293
 IR Inten    --      0.0024                 1.9029                 0.0000
  Atom  AN      X      Y      Z        X      Y      Z        X      Y      Z
     1   6    -0.00   0.00  -0.00    -0.00   0.00   0.11    -0.00  -0.00  -0.00
     2   6     0.00  -0.00   0.04    -0.00   0.00   0.15     0.00   0.00   0.08
     3   6     0.00  -0.00  -0.09    -0.00   0.00   0.16     0.00  -0.00  -0.01
     4   6     0.00  -0.00  -0.09    -0.00   0.00   0.16     0.00   0.00   0.01
     5   6     0.00  -0.00   0.04     0.00   0.00   0.15     0.00  -0.00  -0.08
     6   6    -0.00   0.00   0.17     0.00  -0.00   0.01     0.00  -0.00  -0.14
     7   6    -0.00   0.00   0.15     0.00  -0.00  -0.16     0.00  -0.00  -0.02
     8   6    -0.00  -0.00  -0.02     0.00  -0.00  -0.16     0.00   0.00   0.16
     9   6     0.00  -0.00  -0.14     0.00  -0.00   0.02     0.00   0.00   0.16
    10   1     0.00  -0.00  -0.25     0.00  -0.00   0.00     0.00   0.00   0.29
    11   1    -0.00  -0.00  -0.04     0.00  -0.00  -0.31    -0.00   0.00   0.30
    12   1    -0.00   0.00   0.27     0.00  -0.00  -0.31     0.00  -0.00  -0.04
    13   1    -0.00   0.00   0.29     0.00  -0.00  -0.01     0.00  -0.00  -0.24
    14   6    -0.00  -0.00  -0.14    -0.00  -0.00   0.02     0.00  -0.00  -0.16
    15   6     0.00  -0.00  -0.02    -0.00  -0.00  -0.16     0.00  -0.00  -0.16
    16   6     0.00   0.00   0.15    -0.00  -0.00  -0.16     0.00   0.00   0.02
    17   6     0.00   0.00   0.17    -0.00  -0.00   0.01     0.00   0.00   0.14
    18   1     0.00   0.00   0.29    -0.00  -0.00  -0.01     0.00   0.00   0.24
    19   1     0.00   0.00   0.27    -0.00  -0.00  -0.31     0.00   0.00   0.04
    20   1    -0.00  -0.00  -0.04    -0.00  -0.00  -0.31     0.00  -0.00  -0.30
    21   1    -0.00  -0.00  -0.25    -0.00  -0.00   0.00     0.00  -0.00  -0.29
    22   6     0.00  -0.14  -0.11     0.00  -0.17  -0.01     0.16   0.00   0.00
    23   1     0.00  -0.24  -0.04     0.00  -0.30   0.08     0.29   0.00  -0.00
    24   1    -0.00  -0.14  -0.18    -0.00  -0.17  -0.10     0.15  -0.01  -0.12
    25   1     0.00  -0.14  -0.18     0.00  -0.17  -0.10     0.15   0.01   0.12
    26   6    -0.00   0.14  -0.11    -0.00   0.17  -0.01    -0.16  -0.00   0.00
    27   1    -0.00   0.14  -0.18    -0.00   0.17  -0.10    -0.15  -0.01   0.12
    28   1     0.00   0.14  -0.18     0.00   0.17  -0.10    -0.15   0.01  -0.12
    29   1    -0.00   0.24  -0.04    -0.00   0.30   0.08    -0.29  -0.00  -0.00
                      4                      5                      6
                      A                      A                      A
 Frequencies --    193.8492               205.0721               241.5745
 Red. masses --      2.7737                 4.1145                 2.0567
 Frc consts  --      0.0614                 0.1019                 0.0707
 IR Inten    --      0.0000                 0.0412                 0.0427
  Atom  AN      X      Y      Z        X      Y      Z        X      Y      Z
     1   6    -0.00  -0.00   0.00     0.00  -0.11   0.00    -0.00   0.00   0.00
     2   6    -0.00  -0.00   0.05    -0.02  -0.08   0.00    -0.05  -0.01  -0.00
     3   6     0.00  -0.00   0.06     0.02  -0.10   0.00    -0.04  -0.01  -0.00
     4   6    -0.00  -0.00  -0.06    -0.02  -0.10   0.00    -0.04   0.01  -0.00
     5   6     0.00  -0.00  -0.05     0.02  -0.08   0.00    -0.05   0.01  -0.00
     6   6    -0.00   0.00   0.09     0.06   0.07  -0.00    -0.06  -0.04   0.00
     7   6    -0.00   0.00   0.13    -0.04   0.17  -0.00    -0.04  -0.07   0.00
     8   6    -0.00   0.00  -0.03    -0.13   0.14   0.00    -0.02  -0.06   0.00
     9   6    -0.00  -0.00  -0.12    -0.15   0.00   0.00    -0.01  -0.02  -0.00
    10   1    -0.00  -0.00  -0.20    -0.28  -0.04   0.00     0.03  -0.01  -0.00
    11   1    -0.00   0.00  -0.05    -0.20   0.19   0.00     0.00  -0.08   0.00
    12   1    -0.00   0.00   0.25    -0.03   0.25  -0.00    -0.04  -0.09   0.00
    13   1     0.00   0.00   0.18     0.18   0.11  -0.00    -0.10  -0.05   0.00
    14   6     0.00   0.00   0.12     0.15   0.00  -0.00    -0.01   0.02   0.00
    15   6     0.00   0.00   0.03     0.13   0.14  -0.00    -0.02   0.06   0.00
    16   6     0.00   0.00  -0.13     0.04   0.17   0.00    -0.04   0.07  -0.00
    17   6    -0.00   0.00  -0.09    -0.06   0.07   0.00    -0.06   0.04  -0.00
    18   1    -0.00   0.00  -0.18    -0.18   0.11   0.00    -0.10   0.05  -0.00
    19   1    -0.00   0.00  -0.25     0.03   0.25   0.00    -0.04   0.09  -0.00
    20   1     0.00   0.00   0.05     0.20   0.19  -0.00     0.00   0.08   0.00
    21   1     0.00   0.00   0.20     0.28  -0.04  -0.00     0.03   0.01  -0.00
    22   6     0.19  -0.00   0.00    -0.00  -0.15  -0.03     0.17   0.00  -0.00
    23   1     0.40  -0.00  -0.00    -0.00  -0.20   0.01    -0.05   0.00   0.00
    24   1     0.17  -0.03  -0.18    -0.00  -0.15  -0.06     0.37   0.27   0.04
    25   1     0.17   0.03   0.18     0.00  -0.15  -0.06     0.37  -0.27  -0.04
    26   6    -0.19  -0.00   0.00     0.00  -0.15   0.03     0.17   0.00   0.00
    27   1    -0.17  -0.03   0.18     0.00  -0.15   0.06     0.36  -0.27   0.04
    28   1    -0.17   0.03  -0.18    -0.00  -0.15   0.06     0.36   0.27  -0.04
    29   1    -0.40   0.00  -0.00     0.00  -0.20  -0.01    -0.05   0.00  -0.00
                      7                      8                      9
                      A                      A                      A
 Frequencies --    244.0268               281.8733               321.0577
 Red. masses --      1.0544                 1.1937                 2.5950
 Frc consts  --      0.0370                 0.0559                 0.1576
 IR Inten    --      0.0000                 0.0505                 0.1920
  Atom  AN      X      Y      Z        X      Y      Z        X      Y      Z
     1   6    -0.00  -0.00   0.00     0.00  -0.00  -0.00    -0.00  -0.03   0.00
     2   6    -0.00  -0.00  -0.00    -0.02  -0.00  -0.00    -0.01  -0.06  -0.00
     3   6    -0.00  -0.00  -0.00    -0.02  -0.00   0.00     0.01  -0.08  -0.00
     4   6    -0.00  -0.00   0.00    -0.02   0.00   0.00    -0.01  -0.08   0.00
     5   6    -0.00   0.00   0.00    -0.02   0.00   0.00     0.01  -0.06   0.00
     6   6    -0.00  -0.00  -0.00    -0.02  -0.01   0.00     0.02  -0.03   0.00
     7   6    -0.00  -0.00  -0.01    -0.02  -0.02  -0.00    -0.03   0.01  -0.00
     8   6    -0.00  -0.00  -0.00    -0.01  -0.02  -0.00    -0.07  -0.00  -0.00
     9   6    -0.00  -0.00   0.00    -0.01  -0.01   0.00    -0.07  -0.05   0.00
    10   1     0.00  -0.00   0.00     0.00  -0.00   0.00    -0.12  -0.06   0.00
    11   1    -0.00  -0.00  -0.00    -0.01  -0.03  -0.00    -0.10   0.02  -0.00
    12   1    -0.00  -0.00  -0.01    -0.02  -0.03  -0.00    -0.02   0.05  -0.00
    13   1    -0.00  -0.00  -0.01    -0.04  -0.02   0.00     0.05  -0.02   0.00
    14   6    -0.00   0.00  -0.00    -0.01   0.01  -0.00     0.07  -0.05  -0.00
    15   6    -0.00   0.00   0.00    -0.01   0.02  -0.00     0.07  -0.00   0.00
    16   6    -0.00   0.00   0.01    -0.02   0.02   0.00     0.03   0.01   0.00
    17   6    -0.00   0.00   0.00    -0.02   0.01   0.00    -0.02  -0.03  -0.00
    18   1    -0.00   0.00   0.01    -0.04   0.02   0.00    -0.05  -0.02  -0.00
    19   1    -0.00   0.00   0.01    -0.02   0.03   0.00     0.02   0.05   0.00
    20   1     0.00   0.00   0.00    -0.01   0.03  -0.00     0.10   0.02   0.00
    21   1     0.00   0.00  -0.00     0.00   0.00  -0.00     0.12  -0.06  -0.00
    22   6    -0.04  -0.00   0.00     0.08   0.00   0.00    -0.00   0.17   0.13
    23   1     0.34  -0.00  -0.00     0.49   0.00  -0.00    -0.00   0.39  -0.02
    24   1    -0.26  -0.31  -0.17    -0.09  -0.24  -0.24     0.01   0.18   0.29
    25   1    -0.26   0.31   0.17    -0.09   0.24   0.24    -0.01   0.18   0.29
    26   6     0.04   0.00   0.00     0.08   0.00  -0.00    -0.00   0.17  -0.13
    27   1     0.26  -0.31   0.17    -0.09   0.24  -0.24    -0.01   0.18  -0.29
    28   1     0.26   0.31  -0.17    -0.09  -0.24   0.24     0.01   0.18  -0.29
    29   1    -0.34   0.00  -0.00     0.49  -0.00   0.00    -0.00   0.39   0.02
                     10                     11                     12
                      A                      A                      A
 Frequencies --    325.6219               355.3581               420.3749
 Red. masses --      3.5762                 3.6335                 6.1777
 Frc consts  --      0.2234                 0.2703                 0.6432
 IR Inten    --      0.0000                 0.5720                 0.2827
  Atom  AN      X      Y      Z        X      Y      Z        X      Y      Z
     1   6    -0.00  -0.00  -0.00     0.00   0.00   0.18     0.00  -0.06  -0.00
     2   6    -0.00  -0.00   0.11    -0.00   0.00   0.04    -0.13  -0.05  -0.00
     3   6    -0.00  -0.00   0.10    -0.00   0.00  -0.12    -0.06  -0.07   0.00
     4   6    -0.00  -0.00  -0.10     0.00   0.00  -0.12     0.06  -0.07   0.00
     5   6    -0.00  -0.00  -0.11     0.00   0.00   0.04     0.13  -0.05  -0.00
     6   6    -0.00  -0.00  -0.18     0.00  -0.00  -0.16     0.23   0.08  -0.00
     7   6    -0.00  -0.00   0.10     0.00  -0.00  -0.03     0.27   0.08   0.00
     8   6    -0.00  -0.00   0.10     0.00   0.00   0.15     0.18   0.05  -0.00
     9   6    -0.00  -0.00  -0.17     0.00  -0.00  -0.09     0.13  -0.09  -0.00
    10   1    -0.00  -0.00  -0.26     0.00  -0.00  -0.13     0.12  -0.10  -0.00
    11   1    -0.00  -0.00   0.27     0.00   0.00   0.36     0.08   0.14  -0.00
    12   1    -0.00   0.00   0.28     0.00  -0.00  -0.03     0.27   0.09   0.00
    13   1    -0.00  -0.00  -0.27     0.00  -0.00  -0.28     0.30   0.10  -0.00
    14   6     0.00  -0.00   0.17    -0.00   0.00  -0.09    -0.13  -0.09   0.00
    15   6     0.00   0.00  -0.10    -0.00   0.00   0.15    -0.18   0.05  -0.00
    16   6    -0.00   0.00  -0.10    -0.00  -0.00  -0.03    -0.27   0.08   0.00
    17   6    -0.00   0.00   0.18    -0.00   0.00  -0.16    -0.23   0.08   0.00
    18   1    -0.00   0.00   0.27    -0.00  -0.00  -0.28    -0.30   0.10  -0.00
    19   1    -0.00   0.00  -0.28    -0.00  -0.00  -0.03    -0.27   0.09   0.00
    20   1     0.00   0.00  -0.27    -0.00   0.00   0.36    -0.08   0.14  -0.00
    21   1     0.00  -0.00   0.26    -0.00   0.00  -0.13    -0.12  -0.10  -0.00
    22   6    -0.10   0.00   0.00     0.00  -0.14   0.11    -0.00   0.01   0.05
    23   1    -0.20   0.00  -0.00    -0.00  -0.27   0.20    -0.00   0.09  -0.00
    24   1    -0.12  -0.02   0.10    -0.00  -0.15   0.01     0.00   0.01   0.12
    25   1    -0.12   0.02  -0.10     0.00  -0.15   0.01    -0.00   0.01   0.12
    26   6     0.10   0.00  -0.00     0.00   0.14   0.11    -0.00   0.01  -0.05
    27   1     0.12  -0.02  -0.10    -0.00   0.15   0.01    -0.00   0.01  -0.12
    28   1     0.12   0.02   0.10     0.00   0.15   0.01     0.00   0.01  -0.12
    29   1     0.20   0.00   0.00     0.00   0.27   0.20    -0.00   0.09   0.00
                     13                     14                     15
                      A                      A                      A
 Frequencies --    437.0738               491.2996               521.2304
 Red. masses --      3.2882                 2.9766                 5.2454
 Frc consts  --      0.3701                 0.4233                 0.8396
 IR Inten    --      5.6858                 0.0000                 0.2548
  Atom  AN      X      Y      Z        X      Y      Z        X      Y      Z
     1   6     0.00   0.00  -0.04     0.00  -0.00  -0.00     0.05  -0.00  -0.00
     2   6     0.00   0.00   0.04     0.00   0.00  -0.21     0.11   0.16   0.00
     3   6     0.00   0.00   0.21    -0.00   0.00  -0.17    -0.02   0.17   0.00
     4   6    -0.00   0.00   0.21    -0.00  -0.00   0.17    -0.02  -0.17  -0.00
     5   6    -0.00   0.00   0.04    -0.00  -0.00   0.21     0.11  -0.16  -0.00
     6   6    -0.00  -0.00  -0.14     0.00  -0.00  -0.07     0.16  -0.12   0.00
     7   6    -0.00   0.00   0.14     0.00   0.00   0.02     0.03   0.00   0.00
     8   6    -0.00  -0.00  -0.02    -0.00   0.00   0.06    -0.17  -0.06  -0.00
     9   6    -0.00   0.00  -0.13    -0.00  -0.00  -0.08    -0.16  -0.16   0.00
    10   1     0.00  -0.00  -0.40    -0.00  -0.00  -0.44    -0.27  -0.20   0.00
    11   1    -0.00  -0.00  -0.10    -0.00   0.00  -0.03    -0.26   0.02  -0.00
    12   1    -0.00   0.00   0.26     0.00   0.00  -0.11     0.07   0.20   0.00
    13   1    -0.00  -0.00  -0.39     0.00  -0.00  -0.39     0.26  -0.09   0.00
    14   6     0.00  -0.00  -0.13    -0.00   0.00   0.08    -0.16   0.16  -0.00
    15   6     0.00  -0.00  -0.02    -0.00  -0.00  -0.06    -0.17   0.06   0.00
    16   6     0.00   0.00   0.14     0.00  -0.00  -0.02     0.03  -0.00   0.00
    17   6     0.00  -0.00  -0.14     0.00   0.00   0.07     0.16   0.12  -0.00
    18   1     0.00  -0.00  -0.39     0.00   0.00   0.39     0.26   0.09  -0.00
    19   1     0.00   0.00   0.26     0.00  -0.00   0.11     0.07  -0.20  -0.00
    20   1     0.00  -0.00  -0.10    -0.00  -0.00   0.03    -0.26  -0.02  -0.00
    21   1     0.00  -0.00  -0.40    -0.00   0.00   0.44    -0.27   0.20  -0.00
    22   6    -0.00   0.03  -0.02     0.04   0.00  -0.00     0.02   0.00  -0.00
    23   1     0.00   0.07  -0.05     0.12   0.00  -0.00     0.00   0.00  -0.00
    24   1     0.00   0.04   0.00     0.08   0.04  -0.08     0.04   0.03   0.01
    25   1    -0.00   0.04   0.00     0.08  -0.04   0.08     0.04  -0.03  -0.01
    26   6     0.00  -0.03  -0.02    -0.04  -0.00  -0.00     0.02   0.00   0.00
    27   1     0.00  -0.04   0.00    -0.08   0.04   0.08     0.04  -0.03   0.01
    28   1    -0.00  -0.04   0.00    -0.08  -0.04  -0.08     0.04   0.03  -0.01
    29   1    -0.00  -0.07  -0.05    -0.12  -0.00  -0.00     0.00   0.00   0.00
                     16                     17                     18
                      A                      A                      A
 Frequencies --    557.8628               579.9047               581.6615
 Red. masses --      3.9017                 3.7084                 3.5058
 Frc consts  --      0.7154                 0.7348                 0.6988
 IR Inten    --      0.9541                 0.0000                11.0810
  Atom  AN      X      Y      Z        X      Y      Z        X      Y      Z
     1   6     0.00  -0.20   0.00     0.00   0.00   0.00     0.00  -0.00  -0.08
     2   6     0.08  -0.01  -0.00     0.00  -0.00   0.06     0.00   0.00   0.17
     3   6    -0.00   0.06   0.00    -0.00  -0.00  -0.13    -0.00   0.00   0.02
     4   6     0.00   0.06   0.00    -0.00   0.00   0.13     0.00   0.00   0.02
     5   6    -0.08  -0.01  -0.00     0.00   0.00  -0.06    -0.00   0.00   0.17
     6   6    -0.10   0.06  -0.00     0.00  -0.00  -0.12    -0.00   0.00   0.09
     7   6    -0.05   0.02   0.00    -0.00   0.00   0.19     0.00  -0.00  -0.13
     8   6     0.08   0.05  -0.00     0.00  -0.00  -0.19     0.00   0.00   0.16
     9   6     0.07   0.05   0.00    -0.00   0.00   0.13     0.00  -0.00  -0.11
    10   1     0.08   0.06   0.00     0.00   0.00   0.06     0.00  -0.00  -0.29
    11   1     0.12   0.02  -0.00     0.00  -0.00  -0.44     0.00   0.00   0.22
    12   1    -0.07  -0.09   0.00    -0.00   0.00   0.36     0.00  -0.00  -0.39
    13   1    -0.10   0.07  -0.00    -0.00  -0.00  -0.22    -0.00   0.00  -0.07
    14   6    -0.07   0.05   0.00    -0.00  -0.00  -0.13    -0.00   0.00  -0.11
    15   6    -0.08   0.05  -0.00     0.00   0.00   0.19    -0.00   0.00   0.16
    16   6     0.05   0.02   0.00    -0.00  -0.00  -0.19     0.00  -0.00  -0.13
    17   6     0.10   0.06  -0.00     0.00   0.00   0.12     0.00   0.00   0.09
    18   1     0.10   0.07  -0.00    -0.00   0.00   0.22     0.00   0.00  -0.07
    19   1     0.07  -0.09   0.00    -0.00  -0.00  -0.36    -0.00  -0.00  -0.39
    20   1    -0.12   0.02  -0.00     0.00   0.00   0.44    -0.00   0.00   0.22
    21   1    -0.08   0.06   0.00     0.00  -0.00  -0.06    -0.00  -0.00  -0.29
    22   6    -0.00  -0.14   0.22    -0.01  -0.00   0.00    -0.00   0.09  -0.10
    23   1    -0.00   0.07   0.08    -0.04  -0.00   0.00     0.00   0.20  -0.17
    24   1     0.01  -0.12   0.37    -0.02  -0.01   0.03     0.00   0.10  -0.01
    25   1    -0.01  -0.12   0.37    -0.02   0.01  -0.03    -0.00   0.10  -0.01
    26   6    -0.00  -0.14  -0.22     0.01   0.00   0.00     0.00  -0.09  -0.10
    27   1    -0.01  -0.12  -0.37     0.02  -0.01  -0.03     0.00  -0.10  -0.01
    28   1     0.01  -0.12  -0.37     0.02   0.01   0.03    -0.00  -0.10  -0.01
    29   1    -0.00   0.07  -0.08     0.04   0.00   0.00    -0.00  -0.20  -0.17
                     19                     20                     21
                      A                      A                      A
 Frequencies --    608.2613               637.6368               719.1346
 Red. masses --      3.8940                 6.8563                 5.4819
 Frc consts  --      0.8488                 1.6424                 1.6703
 IR Inten    --      0.3758                 5.8558                 0.1270
  Atom  AN      X      Y      Z        X      Y      Z        X      Y      Z
     1   6     0.26  -0.00   0.00     0.05  -0.00  -0.00     0.00   0.00   0.00
     2   6     0.08  -0.15   0.00     0.09   0.06  -0.00    -0.14   0.05   0.00
     3   6    -0.11  -0.11   0.00     0.22  -0.05  -0.00    -0.02   0.12  -0.00
     4   6    -0.11   0.11  -0.00     0.22   0.05   0.00     0.02   0.12  -0.00
     5   6     0.08   0.15  -0.00     0.09  -0.06   0.00     0.14   0.05  -0.00
     6   6     0.03  -0.02   0.00     0.01  -0.24   0.00     0.18  -0.18   0.00
     7   6     0.06  -0.09   0.00    -0.25  -0.03  -0.00     0.05  -0.06   0.00
     8   6    -0.08  -0.13   0.00    -0.08   0.06  -0.00    -0.12  -0.07  -0.00
     9   6    -0.07   0.06  -0.00    -0.01   0.27  -0.00    -0.06   0.23  -0.00
    10   1     0.11   0.12  -0.00    -0.11   0.24  -0.00     0.08   0.28  -0.00
    11   1    -0.08  -0.13   0.00     0.15  -0.15  -0.00    -0.01  -0.16   0.00
    12   1     0.07   0.00  -0.00    -0.22   0.10  -0.00     0.11   0.22   0.00
    13   1    -0.16  -0.08  -0.00     0.11  -0.20  -0.00     0.14  -0.19   0.00
    14   6    -0.07  -0.06   0.00    -0.01  -0.27   0.00     0.06   0.23  -0.00
    15   6    -0.08   0.13  -0.00    -0.08  -0.06   0.00     0.12  -0.07  -0.00
    16   6     0.06   0.09  -0.00    -0.25   0.03   0.00    -0.05  -0.06   0.00
    17   6     0.03   0.02  -0.00     0.01   0.24  -0.00    -0.18  -0.18   0.00
    18   1    -0.16   0.08   0.00     0.11   0.20   0.00    -0.14  -0.19   0.00
    19   1     0.07  -0.00   0.00    -0.22  -0.10   0.00    -0.11   0.22   0.00
    20   1    -0.08   0.13  -0.00     0.15   0.15  -0.00     0.01  -0.16   0.00
    21   1     0.11  -0.12   0.00    -0.11  -0.24   0.00    -0.08   0.28   0.00
    22   6    -0.00   0.00   0.00     0.01  -0.00   0.00     0.00  -0.08   0.12
    23   1    -0.17  -0.00   0.00    -0.03   0.00   0.00    -0.00  -0.08   0.11
    24   1    -0.15  -0.19   0.26    -0.01  -0.03   0.05    -0.00  -0.09   0.13
    25   1    -0.15   0.19  -0.26    -0.01   0.03  -0.05     0.00  -0.09   0.13
    26   6    -0.00   0.00   0.00     0.01  -0.00  -0.00     0.00  -0.08  -0.12
    27   1    -0.15   0.19   0.26    -0.01   0.03   0.05     0.00  -0.09  -0.13
    28   1    -0.15  -0.19  -0.26    -0.01  -0.03  -0.05    -0.00  -0.09  -0.13
    29   1    -0.17  -0.00  -0.00    -0.03  -0.00  -0.00    -0.00  -0.08  -0.11
                     22                     23                     24
                      A                      A                      A
 Frequencies --    750.1390               762.7139               778.5625
 Red. masses --      1.7283                 1.3522                 5.5469
 Frc consts  --      0.5730                 0.4635                 1.9810
 IR Inten    --     84.3963                 0.0000                 0.0001
  Atom  AN      X      Y      Z        X      Y      Z        X      Y      Z
     1   6    -0.00  -0.00   0.00    -0.00   0.00   0.00    -0.00  -0.03  -0.00
     2   6    -0.00  -0.00  -0.07     0.00   0.00   0.09    -0.03  -0.15  -0.00
     3   6    -0.00   0.00   0.10    -0.00  -0.00   0.01    -0.11  -0.05   0.00
     4   6     0.00   0.00   0.10     0.00  -0.00  -0.01     0.11  -0.05   0.00
     5   6     0.00  -0.00  -0.07     0.00  -0.00  -0.09     0.03  -0.15  -0.00
     6   6    -0.00  -0.00   0.01    -0.00   0.00   0.05     0.03  -0.19   0.00
     7   6    -0.00  -0.00  -0.09    -0.00   0.00   0.03    -0.20   0.03  -0.00
     8   6     0.00   0.00   0.01     0.00   0.00   0.06     0.14   0.18   0.00
     9   6     0.00  -0.00  -0.08     0.00  -0.00   0.03     0.11   0.12  -0.00
    10   1    -0.00   0.00   0.15     0.00  -0.00  -0.32    -0.04   0.08  -0.00
    11   1    -0.00   0.00   0.41     0.00  -0.00  -0.41     0.34   0.00  -0.00
    12   1    -0.00   0.00   0.36     0.00  -0.00  -0.42    -0.21   0.00  -0.00
    13   1    -0.00   0.00   0.39     0.00  -0.00  -0.16     0.28  -0.11   0.00
    14   6    -0.00  -0.00  -0.08    -0.00   0.00  -0.03    -0.11   0.12  -0.00
    15   6    -0.00   0.00   0.01    -0.00   0.00  -0.06    -0.14   0.18   0.00
    16   6     0.00  -0.00  -0.09     0.00  -0.00  -0.03     0.20   0.03  -0.00
    17   6     0.00  -0.00   0.01    -0.00  -0.00  -0.05    -0.03  -0.19   0.00
    18   1     0.00   0.00   0.39    -0.00   0.00   0.16    -0.28  -0.11   0.00
    19   1     0.00   0.00   0.36     0.00   0.00   0.42     0.21   0.00  -0.00
    20   1    -0.00   0.00   0.41    -0.00   0.00   0.41    -0.34   0.00  -0.00
    21   1     0.00   0.00   0.15     0.00   0.00   0.32     0.04   0.08  -0.00
    22   6     0.00  -0.01   0.01     0.00   0.00  -0.00    -0.00   0.05  -0.08
    23   1    -0.00  -0.03   0.02    -0.03   0.00  -0.00     0.00   0.09  -0.11
    24   1    -0.00  -0.02  -0.00    -0.02  -0.03   0.04     0.00   0.06  -0.06
    25   1     0.00  -0.02  -0.00    -0.02   0.03  -0.04    -0.00   0.06  -0.06
    26   6    -0.00   0.01   0.01    -0.00  -0.00  -0.00    -0.00   0.05   0.08
    27   1    -0.00   0.02  -0.00     0.02  -0.03  -0.04    -0.00   0.06   0.06
    28   1     0.00   0.02  -0.00     0.02   0.03   0.04     0.00   0.06   0.06
    29   1     0.00   0.03   0.02     0.03  -0.00   0.00     0.00   0.09   0.11
                     25                     26                     27
                      A                      A                      A
 Frequencies --    778.9356               802.4556               808.6034
 Red. masses --      2.3131                 2.8667                 2.8649
 Frc consts  --      0.8269                 1.0876                 1.1036
 IR Inten    --     34.6179                 0.0453                 0.0000
  Atom  AN      X      Y      Z        X      Y      Z        X      Y      Z
     1   6     0.00  -0.00   0.01     0.23  -0.00  -0.00    -0.00  -0.00  -0.00
     2   6    -0.00  -0.00   0.18    -0.02   0.03  -0.00     0.00  -0.00  -0.15
     3   6    -0.00  -0.00  -0.07     0.03   0.07   0.00    -0.00  -0.00   0.22
     4   6     0.00  -0.00  -0.07     0.03  -0.07  -0.00    -0.00   0.00  -0.22
     5   6     0.00  -0.00   0.18    -0.02  -0.03   0.00     0.00   0.00   0.15
     6   6     0.00  -0.00  -0.07    -0.09   0.03  -0.00     0.00  -0.00  -0.01
     7   6    -0.00   0.00   0.02    -0.12   0.02   0.00     0.00  -0.00   0.11
     8   6     0.00   0.00  -0.10     0.05   0.06  -0.00    -0.00  -0.00  -0.05
     9   6     0.00   0.00   0.02     0.04  -0.12   0.00    -0.00   0.00   0.03
    10   1    -0.00   0.00   0.38    -0.10  -0.16   0.00     0.00   0.00   0.31
    11   1     0.00   0.00   0.37     0.05   0.05  -0.00    -0.00  -0.00  -0.08
    12   1    -0.00   0.00   0.37    -0.15  -0.11  -0.00     0.00   0.00  -0.32
    13   1     0.00  -0.00  -0.02    -0.06   0.05  -0.00     0.00  -0.00  -0.44
    14   6    -0.00   0.00   0.02     0.04   0.12  -0.00    -0.00  -0.00  -0.03
    15   6    -0.00   0.00  -0.10     0.05  -0.06   0.00    -0.00   0.00   0.05
    16   6     0.00   0.00   0.02    -0.12  -0.02  -0.00     0.00   0.00  -0.11
    17   6    -0.00  -0.00  -0.07    -0.09  -0.03   0.00     0.00   0.00   0.01
    18   1    -0.00  -0.00  -0.02    -0.06  -0.05   0.00     0.00   0.00   0.44
    19   1     0.00   0.00   0.37    -0.15   0.11   0.00     0.00  -0.00   0.32
    20   1    -0.00   0.00   0.37     0.05  -0.05   0.00    -0.00   0.00   0.08
    21   1     0.00   0.00   0.38    -0.10   0.16  -0.00     0.00  -0.00  -0.31
    22   6    -0.00   0.04  -0.05     0.06   0.00  -0.00    -0.01   0.00  -0.00
    23   1     0.00   0.10  -0.09    -0.15   0.00  -0.00     0.05   0.00  -0.00
    24   1     0.00   0.05  -0.00    -0.11  -0.23   0.30     0.03   0.05  -0.07
    25   1    -0.00   0.05  -0.00    -0.11   0.23  -0.30     0.03  -0.05   0.07
    26   6     0.00  -0.04  -0.05     0.06   0.00   0.00     0.01  -0.00   0.00
    27   1     0.00  -0.05  -0.00    -0.11   0.23   0.30    -0.03   0.05   0.07
    28   1    -0.00  -0.05  -0.00    -0.11  -0.23  -0.30    -0.03  -0.05  -0.07
    29   1    -0.00  -0.10  -0.09    -0.15   0.00  -0.00    -0.05   0.00  -0.00
                     28                     29                     30
                      A                      A                      A
 Frequencies --    880.7843               887.0750               938.5051
 Red. masses --      1.3565                 1.6633                 1.3806
 Frc consts  --      0.6200                 0.7712                 0.7165
 IR Inten    --      0.0204                 0.0000                 0.0000
  Atom  AN      X      Y      Z        X      Y      Z        X      Y      Z
     1   6     0.00  -0.00  -0.01     0.00  -0.00  -0.00     0.00  -0.00  -0.00
     2   6    -0.00  -0.00  -0.04    -0.00  -0.00  -0.07     0.00  -0.00  -0.02
     3   6     0.00   0.00   0.02     0.00   0.00   0.09     0.00   0.00  -0.02
     4   6    -0.00   0.00   0.02    -0.00  -0.00  -0.09    -0.00   0.00   0.02
     5   6     0.00  -0.00  -0.04    -0.00   0.00   0.07    -0.00  -0.00   0.02
     6   6    -0.00   0.00   0.07     0.00  -0.00  -0.08     0.00   0.00  -0.07
     7   6     0.00   0.00   0.04     0.00  -0.00  -0.03     0.00  -0.00   0.03
     8   6    -0.00  -0.00  -0.03    -0.00   0.00   0.02    -0.00  -0.00   0.07
     9   6    -0.00   0.00  -0.08    -0.00   0.00   0.10    -0.00   0.00  -0.07
    10   1    -0.00   0.00   0.45     0.00  -0.00  -0.46     0.00   0.00   0.39
    11   1    -0.00   0.00   0.21     0.00  -0.00  -0.22     0.00  -0.00  -0.39
    12   1     0.00  -0.00  -0.30    -0.00   0.00   0.25     0.00  -0.00  -0.15
    13   1     0.00  -0.00  -0.38    -0.00   0.00   0.37    -0.00   0.00   0.39
    14   6     0.00   0.00  -0.08     0.00  -0.00  -0.10     0.00   0.00   0.07
    15   6     0.00  -0.00  -0.03    -0.00  -0.00  -0.02     0.00  -0.00  -0.07
    16   6    -0.00   0.00   0.04    -0.00   0.00   0.03    -0.00  -0.00  -0.03
    17   6     0.00   0.00   0.07     0.00   0.00   0.08     0.00   0.00   0.07
    18   1    -0.00  -0.00  -0.38    -0.00  -0.00  -0.37    -0.00  -0.00  -0.39
    19   1    -0.00  -0.00  -0.30    -0.00  -0.00  -0.25    -0.00   0.00   0.15
    20   1     0.00   0.00   0.21     0.00   0.00   0.22     0.00   0.00   0.40
    21   1     0.00   0.00   0.45     0.00   0.00   0.46    -0.00   0.00  -0.39
    22   6     0.00  -0.01   0.01    -0.01   0.00  -0.00    -0.01  -0.00   0.00
    23   1    -0.00  -0.02   0.02     0.03   0.00  -0.00     0.02   0.00  -0.00
    24   1     0.00  -0.01   0.01     0.02   0.03  -0.04     0.01   0.02  -0.03
    25   1    -0.00  -0.01   0.01     0.02  -0.03   0.04     0.01  -0.02   0.03
    26   6    -0.00   0.01   0.01     0.01  -0.00   0.00     0.01   0.00   0.00
    27   1     0.00   0.01   0.01    -0.02   0.03   0.04    -0.01   0.02   0.03
    28   1    -0.00   0.01   0.01    -0.02  -0.03  -0.04    -0.01  -0.02  -0.03
    29   1     0.00   0.02   0.02    -0.03   0.00  -0.00    -0.02  -0.00  -0.00
                     31                     32                     33
                      A                      A                      A
 Frequencies --    939.0032               941.8986               950.6963
 Red. masses --      1.4253                 2.5094                 1.4595
 Frc consts  --      0.7404                 1.3117                 0.7772
 IR Inten    --      1.0275                 1.8464                 0.4515
  Atom  AN      X      Y      Z        X      Y      Z        X      Y      Z
     1   6     0.00   0.00   0.05     0.00   0.23   0.00     0.00  -0.00   0.11
     2   6    -0.00   0.00   0.02    -0.02   0.04  -0.00     0.00  -0.00  -0.02
     3   6    -0.00  -0.00   0.01    -0.01  -0.03  -0.00     0.00   0.00   0.00
     4   6     0.00  -0.00   0.01     0.01  -0.03  -0.00    -0.00   0.00   0.00
     5   6     0.00   0.00   0.02     0.02   0.04  -0.00    -0.00  -0.00  -0.02
     6   6     0.00  -0.00  -0.08     0.01  -0.04   0.00    -0.00   0.00   0.02
     7   6    -0.00   0.00   0.05    -0.06   0.01  -0.00     0.00  -0.00  -0.00
     8   6     0.00   0.00   0.05     0.02   0.04  -0.00    -0.00  -0.00  -0.02
     9   6     0.00  -0.00  -0.07     0.02  -0.08   0.00    -0.00   0.00   0.02
    10   1    -0.00  -0.00   0.37    -0.07  -0.11  -0.00     0.00   0.00  -0.12
    11   1     0.00   0.00  -0.31     0.01   0.05   0.00    -0.00  -0.00   0.13
    12   1    -0.00  -0.00  -0.24    -0.06  -0.01   0.00     0.00   0.00   0.02
    13   1     0.00  -0.00   0.42     0.03  -0.02  -0.00    -0.00   0.00  -0.11
    14   6    -0.00  -0.00  -0.06    -0.02  -0.08   0.00     0.00   0.00   0.02
    15   6    -0.00   0.00   0.05    -0.02   0.04  -0.00     0.00  -0.00  -0.02
    16   6     0.00   0.00   0.05     0.06   0.01  -0.00    -0.00  -0.00  -0.00
    17   6    -0.00  -0.00  -0.08    -0.01  -0.04   0.00     0.00   0.00   0.02
    18   1    -0.00  -0.00   0.41    -0.03  -0.02  -0.00     0.00   0.00  -0.11
    19   1     0.00  -0.00  -0.24     0.06  -0.01   0.00    -0.00   0.00   0.02
    20   1    -0.00   0.00  -0.30    -0.01   0.05   0.00     0.00  -0.00   0.13
    21   1     0.00  -0.00   0.36     0.07  -0.11  -0.00    -0.00   0.00  -0.12
    22   6    -0.00   0.04  -0.02     0.00  -0.00   0.16     0.00   0.11  -0.01
    23   1     0.00  -0.06   0.05    -0.00  -0.41   0.43    -0.00  -0.32   0.27
    24   1    -0.01   0.02  -0.09    -0.03  -0.05  -0.15    -0.04   0.05  -0.36
    25   1     0.01   0.02  -0.09     0.03  -0.05  -0.15     0.04   0.05  -0.36
    26   6     0.00  -0.04  -0.02     0.00  -0.00  -0.16    -0.00  -0.11  -0.01
    27   1    -0.01  -0.02  -0.09     0.03  -0.05   0.15    -0.04  -0.05  -0.36
    28   1     0.01  -0.02  -0.09    -0.03  -0.05   0.15     0.04  -0.05  -0.36
    29   1    -0.00   0.06   0.05    -0.00  -0.41  -0.43    -0.00   0.32   0.27
                     34                     35                     36
                      A                      A                      A
 Frequencies --    961.3672               962.9487              1028.7456
 Red. masses --      1.2528                 1.2332                 6.3934
 Frc consts  --      0.6822                 0.6737                 3.9865
 IR Inten    --      0.0000                 0.0518                 4.2095
  Atom  AN      X      Y      Z        X      Y      Z        X      Y      Z
     1   6    -0.00  -0.00   0.00    -0.00  -0.00   0.01    -0.01   0.00  -0.00
     2   6     0.00   0.00  -0.00     0.00  -0.00   0.01     0.00   0.02   0.00
     3   6     0.00   0.00   0.02     0.00   0.00  -0.01     0.26   0.05  -0.00
     4   6     0.00  -0.00  -0.02     0.00   0.00  -0.01     0.26  -0.05   0.00
     5   6    -0.00  -0.00   0.00    -0.00  -0.00   0.01     0.00  -0.02  -0.00
     6   6    -0.00   0.00   0.05    -0.00   0.00   0.04    -0.06   0.27  -0.00
     7   6     0.00  -0.00  -0.07     0.00  -0.00  -0.06    -0.04   0.02  -0.00
     8   6    -0.00   0.00   0.06    -0.00   0.00   0.06    -0.19  -0.24   0.00
     9   6    -0.00  -0.00  -0.02    -0.00   0.00  -0.03     0.04   0.01   0.00
    10   1    -0.00   0.00   0.16    -0.00   0.00   0.24     0.16   0.04  -0.00
    11   1     0.00  -0.00  -0.38     0.00  -0.00  -0.41    -0.14  -0.31   0.00
    12   1    -0.00   0.00   0.45    -0.00   0.00   0.42    -0.04   0.10  -0.00
    13   1     0.00  -0.00  -0.34     0.00  -0.00  -0.29     0.04   0.32  -0.00
    14   6    -0.00   0.00   0.02     0.00   0.00  -0.03     0.04  -0.01   0.00
    15   6    -0.00  -0.00  -0.06     0.00   0.00   0.06    -0.19   0.24  -0.00
    16   6     0.00   0.00   0.07    -0.00  -0.00  -0.06    -0.04  -0.02   0.00
    17   6    -0.00  -0.00  -0.05     0.00   0.00   0.04    -0.06  -0.27   0.00
    18   1     0.00   0.00   0.34    -0.00  -0.00  -0.29     0.04  -0.32   0.00
    19   1    -0.00  -0.00  -0.45     0.00   0.00   0.42    -0.04  -0.10   0.00
    20   1     0.00   0.00   0.38    -0.00  -0.00  -0.41    -0.14   0.30  -0.00
    21   1    -0.00  -0.00  -0.16     0.00   0.00   0.24     0.16  -0.04  -0.00
    22   6    -0.00   0.00  -0.00     0.00   0.01  -0.00    -0.01   0.00   0.00
    23   1     0.01  -0.00   0.00    -0.00  -0.03   0.02     0.00  -0.00   0.00
    24   1     0.00   0.01  -0.01    -0.00   0.01  -0.03     0.00   0.01  -0.02
    25   1     0.00  -0.01   0.01     0.00   0.01  -0.03     0.00  -0.01   0.02
    26   6     0.00  -0.00  -0.00    -0.00  -0.01  -0.00    -0.01   0.00  -0.00
    27   1    -0.00   0.01   0.01    -0.00  -0.01  -0.03     0.00  -0.01  -0.02
    28   1    -0.00  -0.01  -0.01     0.00  -0.01  -0.03     0.00   0.01   0.02
    29   1    -0.01   0.00   0.00    -0.00   0.03   0.02     0.00  -0.00  -0.00
                     37                     38                     39
                      A                      A                      A
 Frequencies --   1033.6036              1049.4411              1051.6701
 Red. masses --      1.3195                 2.2875                 2.3790
 Frc consts  --      0.8306                 1.4843                 1.5503
 IR Inten    --      0.0000                 1.0306                 8.0050
  Atom  AN      X      Y      Z        X      Y      Z        X      Y      Z
     1   6    -0.00   0.00   0.00    -0.00  -0.01  -0.00    -0.01   0.00   0.00
     2   6     0.00   0.00   0.04    -0.03   0.00   0.00    -0.05   0.04   0.00
     3   6    -0.00  -0.00  -0.01    -0.01   0.02  -0.00     0.10   0.04  -0.00
     4   6    -0.00   0.00   0.01     0.01   0.02  -0.00     0.10  -0.04   0.00
     5   6     0.00   0.00  -0.04     0.03   0.00   0.00    -0.05  -0.04  -0.00
     6   6     0.00  -0.00   0.01     0.05   0.08  -0.00    -0.07   0.01  -0.00
     7   6    -0.00   0.00   0.00    -0.13   0.06  -0.00     0.15  -0.06   0.00
     8   6     0.00   0.00  -0.00    -0.06  -0.12   0.00    -0.00   0.04  -0.00
     9   6     0.00  -0.00   0.00     0.09  -0.05   0.00    -0.09   0.08  -0.00
    10   1     0.00  -0.00  -0.02     0.39   0.04   0.00    -0.43  -0.03  -0.00
    11   1     0.00  -0.00   0.03     0.04  -0.22   0.00    -0.09   0.13  -0.00
    12   1    -0.00   0.00  -0.02    -0.11   0.21  -0.00     0.13  -0.19   0.00
    13   1     0.00  -0.00  -0.02     0.37   0.19  -0.00    -0.36  -0.10  -0.00
    14   6    -0.00  -0.00  -0.00    -0.09  -0.05   0.00    -0.09  -0.08   0.00
    15   6     0.00  -0.00   0.00     0.06  -0.12   0.00    -0.00  -0.04   0.00
    16   6    -0.00  -0.00  -0.00     0.13   0.06  -0.00     0.15   0.06  -0.00
    17   6     0.00   0.00  -0.01    -0.05   0.08  -0.00    -0.07  -0.01   0.00
    18   1     0.00  -0.00   0.02    -0.37   0.19  -0.00    -0.36   0.10  -0.00
    19   1    -0.00   0.00   0.02     0.11   0.21  -0.00     0.13   0.19  -0.00
    20   1     0.00   0.00  -0.03    -0.04  -0.22   0.00    -0.09  -0.13   0.00
    21   1     0.00  -0.00   0.02    -0.39   0.04   0.00    -0.43   0.03   0.00
    22   6    -0.11   0.00   0.00     0.00  -0.01  -0.01     0.03   0.00   0.00
    23   1     0.21  -0.00  -0.00    -0.00   0.03  -0.03    -0.06  -0.00   0.00
    24   1     0.12   0.30  -0.34     0.01   0.00   0.02    -0.03  -0.09   0.10
    25   1     0.12  -0.30   0.34    -0.01   0.00   0.02    -0.03   0.09  -0.10
    26   6     0.11  -0.00   0.00     0.00  -0.01   0.01     0.03   0.00  -0.00
    27   1    -0.12   0.30   0.34    -0.01   0.00  -0.02    -0.03   0.09   0.10
    28   1    -0.12  -0.30  -0.34     0.01   0.00  -0.02    -0.03  -0.09  -0.10
    29   1    -0.21  -0.00  -0.00    -0.00   0.03   0.03    -0.06  -0.00  -0.00
                     40                     41                     42
                      A                      A                      A
 Frequencies --   1101.9397              1110.7814              1137.1924
 Red. masses --      2.4240                 2.0439                 1.5318
 Frc consts  --      1.7342                 1.4858                 1.1672
 IR Inten    --      5.7317                 1.8199                 0.4636
  Atom  AN      X      Y      Z        X      Y      Z        X      Y      Z
     1   6     0.00  -0.02   0.00     0.07   0.00  -0.00    -0.06   0.00   0.00
     2   6     0.04  -0.11  -0.00     0.10  -0.13  -0.00    -0.03  -0.03   0.00
     3   6    -0.03  -0.07   0.00     0.06  -0.00   0.00     0.04  -0.02   0.00
     4   6     0.03  -0.07   0.00     0.06   0.00  -0.00     0.04   0.02   0.00
     5   6    -0.04  -0.11  -0.00     0.10   0.13   0.00    -0.03   0.03  -0.00
     6   6    -0.01   0.11   0.00    -0.03  -0.01  -0.00    -0.02  -0.07   0.00
     7   6     0.04  -0.04   0.00    -0.04  -0.01  -0.00     0.02   0.04  -0.00
     8   6    -0.00  -0.06   0.00    -0.00   0.03  -0.00    -0.05   0.02  -0.00
     9   6    -0.04   0.13  -0.00    -0.00  -0.08   0.00     0.07  -0.05   0.00
    10   1    -0.06   0.13  -0.00    -0.25  -0.16   0.00     0.28   0.02   0.00
    11   1     0.19  -0.23   0.00    -0.07   0.08  -0.00    -0.30   0.23  -0.00
    12   1    -0.00  -0.26   0.00    -0.04  -0.03   0.00     0.09   0.36  -0.00
    13   1     0.22   0.19  -0.00    -0.35  -0.11   0.00    -0.25  -0.15   0.00
    14   6     0.04   0.13  -0.00    -0.00   0.08  -0.00     0.07   0.05  -0.00
    15   6     0.00  -0.06   0.00    -0.00  -0.03   0.00    -0.06  -0.02   0.00
    16   6    -0.04  -0.04   0.00    -0.04   0.01   0.00     0.02  -0.04   0.00
    17   6     0.01   0.11  -0.00    -0.03   0.01   0.00    -0.02   0.07  -0.00
    18   1    -0.22   0.19  -0.00    -0.35   0.11  -0.00    -0.25   0.15   0.00
    19   1     0.00  -0.26   0.00    -0.04   0.03  -0.00     0.09  -0.36   0.00
    20   1    -0.19  -0.23   0.00    -0.07  -0.08   0.00    -0.30  -0.23   0.00
    21   1     0.06   0.13  -0.00    -0.25   0.16  -0.00     0.28  -0.02  -0.00
    22   6    -0.00   0.06   0.04    -0.08  -0.00  -0.00     0.03  -0.00  -0.00
    23   1     0.00  -0.20   0.21     0.15   0.00  -0.00    -0.06   0.00  -0.00
    24   1    -0.03   0.02  -0.21     0.08   0.21  -0.22    -0.03  -0.08   0.08
    25   1     0.03   0.02  -0.21     0.08  -0.21   0.22    -0.03   0.08  -0.08
    26   6    -0.00   0.06  -0.04    -0.08  -0.00   0.00     0.03  -0.00   0.00
    27   1     0.03   0.02   0.21     0.08  -0.21  -0.22    -0.03   0.08   0.08
    28   1    -0.03   0.02   0.21     0.08   0.21   0.22    -0.03  -0.08  -0.08
    29   1     0.00  -0.20  -0.21     0.15   0.00   0.00    -0.06   0.00  -0.00
                     43                     44                     45
                      A                      A                      A
 Frequencies --   1152.2765              1157.4632              1184.2317
 Red. masses --      1.7307                 3.8266                 1.1462
 Frc consts  --      1.3539                 3.0205                 0.9471
 IR Inten    --      0.2108                 1.7094                 2.6187
  Atom  AN      X      Y      Z        X      Y      Z        X      Y      Z
     1   6     0.00   0.06   0.00     0.00   0.00   0.44    -0.02  -0.00  -0.00
     2   6    -0.08   0.08  -0.00     0.00  -0.00  -0.08    -0.00   0.00  -0.00
     3   6    -0.02  -0.04   0.00     0.00   0.00   0.01    -0.01  -0.00  -0.00
     4   6     0.02  -0.04   0.00    -0.00   0.00   0.01    -0.01   0.00   0.00
     5   6     0.08   0.08  -0.00    -0.00  -0.00  -0.08    -0.00  -0.00   0.00
     6   6     0.03   0.06  -0.00    -0.00  -0.00   0.02    -0.02  -0.01  -0.00
     7   6    -0.05  -0.04   0.00     0.00   0.00   0.00     0.01   0.05  -0.00
     8   6     0.03  -0.01   0.00    -0.00   0.00  -0.00     0.04  -0.04   0.00
     9   6    -0.04  -0.00  -0.00     0.00   0.00   0.01    -0.02  -0.01  -0.00
    10   1    -0.38  -0.11  -0.00     0.00   0.00  -0.02    -0.20  -0.06  -0.00
    11   1     0.26  -0.21   0.00    -0.00   0.00   0.01     0.34  -0.31   0.00
    12   1    -0.10  -0.28   0.00     0.00   0.00  -0.01     0.08   0.45  -0.00
    13   1     0.06   0.08  -0.00     0.00  -0.00  -0.08    -0.18  -0.06   0.00
    14   6     0.04  -0.00  -0.00    -0.00   0.00   0.01    -0.02   0.01  -0.00
    15   6    -0.03  -0.01   0.00     0.00   0.00  -0.00     0.04   0.04  -0.00
    16   6     0.05  -0.04   0.00    -0.00   0.00   0.00     0.01  -0.05   0.00
    17   6    -0.03   0.06  -0.00     0.00  -0.00   0.02    -0.02   0.01   0.00
    18   1    -0.06   0.08  -0.00    -0.00  -0.00  -0.08    -0.17   0.06  -0.00
    19   1     0.10  -0.28   0.00    -0.00   0.00  -0.01     0.08  -0.44   0.00
    20   1    -0.26  -0.21   0.00     0.00   0.00   0.01     0.34   0.31  -0.00
    21   1     0.38  -0.11   0.00    -0.00   0.00  -0.02    -0.20   0.06   0.00
    22   6    -0.00  -0.05  -0.02    -0.00  -0.00  -0.16     0.01   0.00   0.00
    23   1     0.00   0.13  -0.14     0.00   0.36  -0.39    -0.02  -0.00   0.00
    24   1     0.02  -0.01   0.17     0.06   0.10   0.16    -0.01  -0.02   0.02
    25   1    -0.02  -0.01   0.17    -0.06   0.10   0.16    -0.01   0.02  -0.02
    26   6    -0.00  -0.05   0.02     0.00   0.00  -0.16     0.01   0.00  -0.00
    27   1    -0.02  -0.01  -0.17     0.06  -0.10   0.16    -0.01   0.02   0.02
    28   1     0.02  -0.01  -0.17    -0.06  -0.10   0.16    -0.01  -0.02  -0.02
    29   1     0.00   0.13   0.14     0.00  -0.36  -0.39    -0.02  -0.00  -0.00
                     46                     47                     48
                      A                      A                      A
 Frequencies --   1184.6339              1227.5853              1244.7135
 Red. masses --      1.1313                 2.5129                 2.3837
 Frc consts  --      0.9354                 2.2312                 2.1759
 IR Inten    --      0.0028                 0.3180                 5.2635
  Atom  AN      X      Y      Z        X      Y      Z        X      Y      Z
     1   6     0.00  -0.02   0.00     0.23  -0.00   0.00    -0.00  -0.09   0.00
     2   6     0.00  -0.00  -0.00    -0.01   0.15  -0.00     0.04  -0.00  -0.00
     3   6    -0.01  -0.01   0.00    -0.03   0.01  -0.00     0.12   0.15  -0.00
     4   6     0.01  -0.01   0.00    -0.03  -0.01   0.00    -0.12   0.15  -0.00
     5   6    -0.00  -0.00  -0.00    -0.01  -0.15   0.00    -0.04  -0.00  -0.00
     6   6    -0.02  -0.00  -0.00    -0.08  -0.00  -0.00     0.01  -0.06   0.00
     7   6     0.01   0.05  -0.00     0.04   0.05  -0.00     0.01   0.02  -0.00
     8   6     0.03  -0.03   0.00     0.02  -0.01   0.00     0.07  -0.02   0.00
     9   6    -0.01  -0.00   0.00    -0.02   0.05  -0.00    -0.07  -0.06   0.00
    10   1    -0.19  -0.06  -0.00     0.40   0.19  -0.00    -0.30  -0.13  -0.00
    11   1     0.30  -0.28   0.00    -0.05   0.05  -0.00     0.11  -0.05   0.00
    12   1     0.09   0.45  -0.00     0.05   0.11  -0.00    -0.01  -0.07   0.00
    13   1    -0.24  -0.08  -0.00    -0.25  -0.07   0.00     0.52   0.11   0.00
    14   6     0.01  -0.00   0.00    -0.02  -0.05   0.00     0.07  -0.06   0.00
    15   6    -0.03  -0.03   0.00     0.02   0.01  -0.00    -0.07  -0.02   0.00
    16   6    -0.01   0.05  -0.00     0.04  -0.05   0.00    -0.01   0.02  -0.00
    17   6     0.02  -0.00  -0.00    -0.08   0.00   0.00    -0.01  -0.06   0.00
    18   1     0.24  -0.08  -0.00    -0.25   0.07  -0.00    -0.52   0.11   0.00
    19   1    -0.09   0.45  -0.00     0.05  -0.11   0.00     0.01  -0.07   0.00
    20   1    -0.31  -0.28   0.00    -0.05  -0.05   0.00    -0.11  -0.05   0.00
    21   1     0.19  -0.06  -0.00     0.40  -0.19   0.00     0.30  -0.13  -0.00
    22   6    -0.00   0.01   0.00    -0.07   0.00   0.00     0.00   0.03   0.01
    23   1     0.00  -0.03   0.03     0.18  -0.00   0.00    -0.00  -0.04   0.05
    24   1    -0.01  -0.00  -0.03     0.08   0.18  -0.14    -0.01   0.01  -0.10
    25   1     0.01  -0.00  -0.03     0.08  -0.18   0.14     0.01   0.01  -0.10
    26   6    -0.00   0.01  -0.00    -0.07   0.00  -0.00     0.00   0.03  -0.01
    27   1     0.01  -0.00   0.03     0.08  -0.18  -0.14     0.01   0.01   0.10
    28   1    -0.01  -0.00   0.03     0.08   0.18   0.14    -0.01   0.01   0.10
    29   1     0.00  -0.03  -0.03     0.18  -0.00  -0.00    -0.00  -0.04  -0.05
                     49                     50                     51
                      A                      A                      A
 Frequencies --   1270.8924              1324.6858              1325.5740
 Red. masses --      3.2440                 1.9333                 1.6462
 Frc consts  --      3.0871                 1.9988                 1.7043
 IR Inten    --      1.7085                 0.0002                 4.4367
  Atom  AN      X      Y      Z        X      Y      Z        X      Y      Z
     1   6     0.00   0.32  -0.00    -0.00  -0.05   0.00     0.12   0.00  -0.00
     2   6     0.12  -0.11   0.00     0.07   0.04  -0.00    -0.11  -0.02   0.00
     3   6    -0.00   0.00  -0.00    -0.14   0.02   0.00     0.02  -0.06   0.00
     4   6     0.00   0.00  -0.00     0.13   0.02  -0.00     0.02   0.06  -0.00
     5   6    -0.12  -0.11   0.00    -0.07   0.04  -0.00    -0.11   0.02  -0.00
     6   6    -0.05  -0.03  -0.00     0.00   0.01   0.00    -0.03  -0.04   0.00
     7   6     0.07   0.02   0.00     0.00  -0.06   0.00     0.03  -0.03   0.00
     8   6     0.01  -0.03   0.00    -0.05  -0.02  -0.00     0.00  -0.02   0.00
     9   6    -0.01   0.03  -0.00     0.10   0.01   0.00     0.04   0.00   0.00
    10   1    -0.01   0.03   0.00    -0.49  -0.19  -0.00    -0.32  -0.12  -0.00
    11   1     0.02  -0.03   0.00    -0.25   0.15  -0.00    -0.15   0.12  -0.00
    12   1     0.11   0.21  -0.00     0.05   0.20  -0.00     0.09   0.26  -0.00
    13   1     0.32   0.10   0.00     0.21   0.08  -0.00     0.45   0.12   0.00
    14   6     0.01   0.03  -0.00    -0.10   0.01   0.00     0.04  -0.00  -0.00
    15   6    -0.01  -0.03   0.00     0.05  -0.02   0.00     0.00   0.02  -0.00
    16   6    -0.07   0.02  -0.00    -0.00  -0.06   0.00     0.03   0.03  -0.00
    17   6     0.05  -0.03  -0.00    -0.00   0.01   0.00    -0.03   0.04  -0.00
    18   1    -0.32   0.10   0.00    -0.21   0.08  -0.00     0.45  -0.12  -0.00
    19   1    -0.11   0.21  -0.00    -0.05   0.20  -0.00     0.09  -0.26   0.00
    20   1    -0.02  -0.03   0.00     0.25   0.15  -0.00    -0.15  -0.12   0.00
    21   1     0.01   0.03   0.00     0.49  -0.19   0.00    -0.32   0.12  -0.00
    22   6    -0.00  -0.11  -0.01     0.00   0.01   0.00    -0.03  -0.00   0.00
    23   1     0.00   0.21  -0.22    -0.00   0.00   0.01     0.10   0.00  -0.00
    24   1     0.12   0.08   0.23    -0.01  -0.00  -0.04     0.03   0.07  -0.04
    25   1    -0.12   0.08   0.23     0.01  -0.00  -0.04     0.03  -0.07   0.04
    26   6    -0.00  -0.11   0.01     0.00   0.01  -0.00    -0.03  -0.00  -0.00
    27   1    -0.12   0.08  -0.23     0.01  -0.00   0.04     0.03  -0.07  -0.04
    28   1     0.12   0.08  -0.23    -0.01  -0.00   0.04     0.03   0.07   0.04
    29   1     0.00   0.21   0.22    -0.00   0.00  -0.01     0.10   0.00   0.00
                     52                     53                     54
                      A                      A                      A
 Frequencies --   1335.6095              1378.9338              1398.1451
 Red. masses --      5.6270                 4.6482                 1.1992
 Frc consts  --      5.9140                 5.2074                 1.3812
 IR Inten    --     10.3661                 1.0051                 5.9019
  Atom  AN      X      Y      Z        X      Y      Z        X      Y      Z
     1   6    -0.11  -0.00   0.00    -0.00  -0.03  -0.00    -0.00  -0.00  -0.00
     2   6     0.15   0.07  -0.00     0.18   0.13  -0.00    -0.00   0.00  -0.00
     3   6     0.06  -0.23   0.00     0.17  -0.13   0.00    -0.00   0.00   0.00
     4   6     0.06   0.23  -0.00    -0.17  -0.13   0.00     0.00   0.00   0.00
     5   6     0.15  -0.07   0.00    -0.18   0.13  -0.00     0.00   0.00  -0.00
     6   6    -0.16  -0.06  -0.00     0.12   0.00   0.00     0.00   0.00   0.00
     7   6     0.01   0.17  -0.00     0.00  -0.16   0.00    -0.00  -0.00   0.00
     8   6     0.13  -0.14   0.00    -0.06   0.15  -0.00    -0.00  -0.00  -0.00
     9   6    -0.14  -0.07   0.00     0.06   0.01  -0.00     0.00  -0.00   0.00
    10   1    -0.06  -0.05  -0.00     0.17   0.05   0.00    -0.00  -0.00  -0.00
    11   1    -0.28   0.22  -0.00     0.35  -0.21   0.00    -0.00  -0.00  -0.00
    12   1    -0.07  -0.24   0.00     0.10   0.30  -0.00    -0.00  -0.00   0.00
    13   1     0.25   0.08   0.00     0.18   0.02   0.00    -0.00  -0.00  -0.01
    14   6    -0.14   0.07  -0.00    -0.06   0.01  -0.00    -0.00  -0.00   0.00
    15   6     0.13   0.14  -0.00     0.06   0.15  -0.00     0.00   0.00  -0.00
    16   6     0.01  -0.17   0.00    -0.00  -0.16   0.00     0.00  -0.00   0.00
    17   6    -0.16   0.06   0.00    -0.12   0.00   0.00    -0.00   0.00   0.00
    18   1     0.25  -0.08  -0.00    -0.18   0.02  -0.00     0.00  -0.00  -0.01
    19   1    -0.07   0.24  -0.00    -0.10   0.30  -0.00     0.00  -0.00   0.00
    20   1    -0.28  -0.22   0.00    -0.35  -0.21   0.00     0.00  -0.00  -0.00
    21   1    -0.06   0.05   0.00    -0.17   0.05   0.00     0.00  -0.00  -0.00
    22   6     0.04   0.00   0.00     0.00  -0.00   0.01     0.00   0.05  -0.08
    23   1    -0.11  -0.00   0.00    -0.00   0.04  -0.03    -0.00  -0.35   0.21
    24   1    -0.03  -0.08   0.03     0.01   0.01  -0.05    -0.14  -0.14   0.35
    25   1    -0.03   0.08  -0.03    -0.01   0.01  -0.05     0.14  -0.14   0.35
    26   6     0.04   0.00  -0.00     0.00  -0.00  -0.01    -0.00  -0.05  -0.08
    27   1    -0.03   0.08   0.03    -0.01   0.01   0.05    -0.14   0.14   0.35
    28   1    -0.03  -0.08  -0.03     0.01   0.01   0.05     0.14   0.14   0.35
    29   1    -0.11  -0.00  -0.00     0.00   0.04   0.03     0.00   0.35   0.21
                     55                     56                     57
                      A                      A                      A
 Frequencies --   1420.7148              1480.8006              1483.9118
 Red. masses --      1.2108                 2.3159                 2.0978
 Frc consts  --      1.4399                 2.9920                 2.7217
 IR Inten    --      1.5520                10.4627                24.9695
  Atom  AN      X      Y      Z        X      Y      Z        X      Y      Z
     1   6     0.00   0.01   0.00    -0.00  -0.03  -0.00     0.02  -0.00   0.00
     2   6     0.01   0.00  -0.00    -0.07   0.08   0.00    -0.07  -0.08  -0.00
     3   6     0.01  -0.01   0.00    -0.00  -0.09   0.00     0.07   0.00   0.00
     4   6    -0.01  -0.01   0.00     0.00  -0.09   0.00     0.07  -0.00  -0.00
     5   6    -0.01   0.00  -0.00     0.07   0.08  -0.00    -0.07   0.08   0.00
     6   6    -0.01  -0.00   0.00    -0.10  -0.00  -0.00    -0.03  -0.07  -0.00
     7   6     0.01  -0.01   0.00    -0.02  -0.06   0.00     0.07   0.07  -0.00
     8   6     0.00  -0.00   0.00     0.12  -0.03   0.00    -0.07   0.06  -0.00
     9   6    -0.00   0.01  -0.00    -0.09   0.04  -0.00    -0.07  -0.07   0.00
    10   1     0.00   0.01  -0.00     0.16   0.13  -0.00     0.30   0.04   0.00
    11   1    -0.01   0.01  -0.00    -0.17   0.25  -0.00     0.33  -0.29   0.00
    12   1     0.02   0.04  -0.00     0.07   0.40  -0.00     0.02  -0.26   0.00
    13   1     0.07   0.03  -0.00     0.32   0.15   0.00     0.21   0.00   0.00
    14   6     0.00   0.01  -0.00     0.09   0.04  -0.00    -0.07   0.07  -0.00
    15   6    -0.00  -0.00   0.00    -0.12  -0.03   0.00    -0.07  -0.06   0.00
    16   6    -0.01  -0.01   0.00     0.02  -0.06   0.00     0.07  -0.07   0.00
    17   6     0.01  -0.00   0.00     0.10  -0.00  -0.00    -0.03   0.07   0.00
    18   1    -0.07   0.03   0.00    -0.32   0.15   0.00     0.21   0.00  -0.00
    19   1    -0.02   0.04  -0.00    -0.07   0.40  -0.00     0.02   0.26  -0.00
    20   1     0.01   0.01  -0.00     0.17   0.25  -0.00     0.33   0.29  -0.00
    21   1    -0.00   0.01  -0.00    -0.16   0.13  -0.00     0.30  -0.04  -0.00
    22   6     0.00   0.05  -0.08     0.00  -0.00   0.01    -0.02   0.00   0.00
    23   1    -0.00  -0.34   0.20    -0.00   0.07  -0.04     0.18   0.00  -0.00
    24   1    -0.14  -0.15   0.34    -0.01  -0.03  -0.06     0.02   0.05   0.09
    25   1     0.14  -0.15   0.34     0.01  -0.03  -0.06     0.02  -0.05  -0.09
    26   6     0.00   0.05   0.08     0.00  -0.00  -0.01    -0.02  -0.00  -0.00
    27   1     0.14  -0.15  -0.34     0.01  -0.03   0.06     0.02  -0.04   0.09
    28   1    -0.14  -0.15  -0.34    -0.01  -0.03   0.06     0.02   0.04  -0.09
    29   1    -0.00  -0.34  -0.20     0.00   0.07   0.04     0.17  -0.00   0.00
                     58                     59                     60
                      A                      A                      A
 Frequencies --   1484.0641              1488.0215              1502.2355
 Red. masses --      1.0457                 1.0480                 1.2575
 Frc consts  --      1.3569                 1.3672                 1.6719
 IR Inten    --      0.0001                 3.8922                 0.0080
  Atom  AN      X      Y      Z        X      Y      Z        X      Y      Z
     1   6     0.00   0.00  -0.00    -0.00  -0.00   0.02    -0.03   0.00  -0.00
     2   6    -0.00  -0.00   0.00     0.00   0.00  -0.00    -0.01   0.03  -0.00
     3   6     0.00   0.00  -0.00    -0.00  -0.00  -0.00    -0.02  -0.04   0.00
     4   6     0.00   0.00   0.00    -0.00  -0.00  -0.00    -0.02   0.04  -0.00
     5   6    -0.00   0.00  -0.00     0.00  -0.00  -0.00    -0.01  -0.03   0.00
     6   6    -0.00  -0.00   0.00    -0.00   0.00   0.00     0.05   0.01   0.00
     7   6     0.00   0.00   0.00    -0.00  -0.00   0.00    -0.01   0.03  -0.00
     8   6    -0.00   0.00  -0.00     0.00  -0.00  -0.00    -0.02  -0.02   0.00
     9   6    -0.00  -0.00   0.00     0.00   0.00   0.00     0.04   0.00   0.00
    10   1     0.00   0.00   0.00    -0.00   0.00   0.00    -0.15  -0.06  -0.00
    11   1     0.00  -0.00  -0.00    -0.00   0.00  -0.00    -0.05  -0.01  -0.00
    12   1     0.00  -0.00  -0.00     0.00   0.00   0.00    -0.05  -0.13   0.00
    13   1     0.00  -0.00  -0.00    -0.00   0.00  -0.01    -0.15  -0.07  -0.00
    14   6    -0.00   0.00  -0.00     0.00  -0.00   0.00     0.04  -0.00  -0.00
    15   6    -0.00  -0.00   0.00    -0.00   0.00  -0.00    -0.01   0.02  -0.00
    16   6     0.00  -0.00  -0.00    -0.00  -0.00   0.00    -0.01  -0.03   0.00
    17   6    -0.00   0.00  -0.00     0.00  -0.00   0.00     0.05  -0.01  -0.00
    18   1     0.00  -0.00   0.00    -0.00   0.00  -0.01    -0.16   0.07  -0.00
    19   1     0.00   0.00   0.00    -0.00   0.00   0.00    -0.05   0.13  -0.00
    20   1     0.00   0.00   0.00    -0.00  -0.00  -0.00    -0.05   0.00   0.00
    21   1     0.00  -0.00  -0.00    -0.00   0.00   0.00    -0.15   0.06  -0.00
    22   6     0.04  -0.00  -0.00     0.00   0.04   0.02    -0.03   0.00   0.00
    23   1    -0.51  -0.00   0.00    -0.00   0.24  -0.13     0.45   0.00  -0.00
    24   1    -0.04  -0.10  -0.33    -0.27  -0.36  -0.10     0.03   0.07   0.31
    25   1    -0.04   0.10   0.33     0.27  -0.36  -0.10     0.04  -0.08  -0.31
    26   6    -0.04   0.00  -0.00    -0.00  -0.04   0.02    -0.03   0.00  -0.00
    27   1     0.04  -0.10   0.33    -0.27   0.36  -0.10     0.04  -0.08   0.31
    28   1     0.04   0.10  -0.33     0.27   0.36  -0.10     0.03   0.07  -0.31
    29   1     0.51   0.00   0.00     0.00  -0.24  -0.13     0.45   0.00   0.00
                     61                     62                     63
                      A                      A                      A
 Frequencies --   1502.5211              1513.4477              1516.8970
 Red. masses --      1.0919                 2.7767                 1.9170
 Frc consts  --      1.4523                 3.7473                 2.5989
 IR Inten    --      7.9536                 0.6753                11.4248
  Atom  AN      X      Y      Z        X      Y      Z        X      Y      Z
     1   6    -0.00  -0.03  -0.00     0.00  -0.07   0.00    -0.06  -0.00  -0.00
     2   6    -0.02  -0.01   0.00     0.04   0.11  -0.00     0.06  -0.05  -0.00
     3   6     0.02   0.00  -0.00    -0.15  -0.03   0.00     0.01   0.08  -0.00
     4   6    -0.02   0.00  -0.00     0.15  -0.03   0.00     0.01  -0.08   0.00
     5   6     0.02  -0.01   0.00    -0.04   0.11  -0.00     0.06   0.05   0.00
     6   6     0.01   0.01  -0.00    -0.08  -0.09   0.00    -0.06   0.02  -0.00
     7   6    -0.02  -0.02   0.00     0.08   0.08  -0.00    -0.02  -0.09   0.00
     8   6     0.01  -0.01   0.00    -0.07   0.04  -0.00     0.08   0.01   0.00
     9   6     0.01   0.01  -0.00    -0.06  -0.05   0.00    -0.09   0.01  -0.00
    10   1    -0.04  -0.00  -0.00     0.29   0.05   0.00     0.20   0.11   0.00
    11   1    -0.05   0.05  -0.00     0.26  -0.25   0.00    -0.05   0.14  -0.00
    12   1    -0.00   0.05  -0.00     0.03  -0.23   0.00     0.07   0.32  -0.00
    13   1    -0.05  -0.00   0.00     0.28   0.03   0.00     0.19   0.12   0.00
    14   6    -0.01   0.01  -0.00     0.06  -0.05   0.00    -0.09  -0.01   0.00
    15   6    -0.01  -0.01   0.00     0.07   0.04  -0.00     0.08  -0.01  -0.00
    16   6     0.02  -0.02   0.00    -0.08   0.08  -0.00    -0.02   0.09  -0.00
    17   6    -0.01   0.01  -0.00     0.08  -0.09   0.00    -0.06  -0.02   0.00
    18   1     0.04  -0.00  -0.00    -0.28   0.03   0.00     0.19  -0.12  -0.00
    19   1     0.00   0.06  -0.00    -0.03  -0.23   0.00     0.07  -0.32   0.00
    20   1     0.05   0.05  -0.00    -0.26  -0.25   0.00    -0.05  -0.14   0.00
    21   1     0.04  -0.00  -0.00    -0.29   0.05   0.00     0.20  -0.11   0.00
    22   6    -0.00  -0.02  -0.02     0.00  -0.01  -0.01    -0.02  -0.00  -0.00
    23   1     0.01  -0.25   0.15    -0.00  -0.10   0.06     0.33  -0.00   0.00
    24   1     0.26   0.35   0.10     0.10   0.14   0.02     0.02   0.05   0.24
    25   1    -0.26   0.35   0.09    -0.10   0.14   0.02     0.02  -0.05  -0.23
    26   6    -0.00  -0.02   0.02     0.00  -0.01   0.01    -0.02  -0.00   0.00
    27   1    -0.26   0.35  -0.09    -0.10   0.14  -0.02     0.02  -0.05   0.23
    28   1     0.26   0.35  -0.10     0.10   0.14  -0.02     0.02   0.05  -0.24
    29   1     0.01  -0.25  -0.15    -0.00  -0.10  -0.06     0.33  -0.00  -0.00
                     64                     65                     66
                      A                      A                      A
 Frequencies --   1620.3619              1623.9142              1645.3947
 Red. masses --      5.5365                 6.4032                 6.1012
 Frc consts  --      8.5647                 9.9488                 9.7321
 IR Inten    --      0.4399                 0.2212                 0.0702
  Atom  AN      X      Y      Z        X      Y      Z        X      Y      Z
     1   6    -0.00  -0.02   0.00    -0.04   0.00   0.00    -0.00  -0.00   0.00
     2   6     0.16   0.14  -0.00     0.13   0.16  -0.00     0.19  -0.01  -0.00
     3   6     0.06  -0.16   0.00    -0.01  -0.24   0.00    -0.20   0.08  -0.00
     4   6    -0.06  -0.16   0.00    -0.01   0.24  -0.00     0.20   0.08  -0.00
     5   6    -0.16   0.14  -0.00     0.13  -0.16   0.00    -0.19  -0.01  -0.00
     6   6     0.10  -0.09   0.00    -0.08   0.09  -0.00     0.22   0.07   0.00
     7   6    -0.03   0.23  -0.00     0.04  -0.22   0.00    -0.10  -0.08   0.00
     8   6     0.11  -0.19   0.00    -0.15   0.20  -0.00     0.13  -0.01   0.00
     9   6     0.03   0.11  -0.00     0.05  -0.12   0.00    -0.23  -0.07  -0.00
    10   1    -0.20   0.05  -0.00     0.05  -0.13   0.00     0.34   0.11  -0.00
    11   1    -0.27   0.14  -0.00     0.30  -0.19   0.00    -0.03   0.15  -0.00
    12   1    -0.14  -0.31   0.00     0.14   0.24  -0.00    -0.06   0.14  -0.00
    13   1    -0.10  -0.17   0.00     0.06   0.14  -0.00    -0.29  -0.11  -0.00
    14   6    -0.03   0.11  -0.00     0.05   0.12  -0.00     0.23  -0.07   0.00
    15   6    -0.11  -0.19   0.00    -0.15  -0.20   0.00    -0.13  -0.01   0.00
    16   6     0.03   0.23  -0.00     0.04   0.22  -0.00     0.10  -0.08   0.00
    17   6    -0.10  -0.09   0.00    -0.08  -0.09   0.00    -0.22   0.07   0.00
    18   1     0.10  -0.17   0.00     0.06  -0.14   0.00     0.29  -0.11  -0.00
    19   1     0.14  -0.31   0.00     0.14  -0.24   0.00     0.06   0.14  -0.00
    20   1     0.27   0.14  -0.00     0.30   0.19  -0.00     0.03   0.15  -0.00
    21   1     0.20   0.05  -0.00     0.05   0.13  -0.00    -0.34   0.11  -0.00
    22   6     0.00  -0.00   0.00     0.01   0.00  -0.00     0.00   0.00  -0.01
    23   1     0.00   0.00  -0.00     0.03  -0.00   0.00     0.00  -0.02   0.01
    24   1     0.01   0.01  -0.00    -0.00  -0.01   0.05    -0.01  -0.00   0.02
    25   1    -0.01   0.01  -0.00    -0.00   0.01  -0.05     0.01  -0.00   0.02
    26   6     0.00  -0.00  -0.00     0.01   0.00   0.00     0.00   0.00   0.01
    27   1    -0.01   0.01   0.00    -0.00   0.01   0.05     0.01  -0.00  -0.02
    28   1     0.01   0.01   0.00    -0.00  -0.01  -0.05    -0.01  -0.00  -0.02
    29   1     0.00   0.00   0.00     0.03  -0.00  -0.00     0.00  -0.02  -0.01
                     67                     68                     69
                      A                      A                      A
 Frequencies --   1646.7011              3028.8150              3033.0673
 Red. masses --      6.4729                 1.0338                 1.0343
 Frc consts  --     10.3415                 5.5878                 5.6061
 IR Inten    --      2.7026                19.8163                38.2856
  Atom  AN      X      Y      Z        X      Y      Z        X      Y      Z
     1   6     0.06   0.00  -0.00    -0.00  -0.00   0.00    -0.00   0.00   0.00
     2   6    -0.19   0.03   0.00    -0.00   0.00  -0.00     0.00  -0.00  -0.00
     3   6     0.14  -0.16   0.00    -0.00  -0.00  -0.00    -0.00   0.00  -0.00
     4   6     0.14   0.16  -0.00    -0.00  -0.00  -0.00     0.00   0.00  -0.00
     5   6    -0.19  -0.03  -0.00     0.00   0.00  -0.00    -0.00  -0.00  -0.00
     6   6     0.24   0.08   0.00    -0.00   0.00   0.00     0.00  -0.00   0.00
     7   6    -0.10  -0.10   0.00    -0.00   0.00   0.00     0.00  -0.00   0.00
     8   6     0.13   0.01   0.00     0.00  -0.00  -0.00     0.00   0.00   0.00
     9   6    -0.23  -0.10  -0.00    -0.00  -0.00   0.00    -0.00   0.00   0.00
    10   1     0.29   0.06  -0.00    -0.00   0.00   0.00     0.00  -0.00   0.00
    11   1    -0.00   0.14  -0.00     0.00   0.00  -0.00    -0.00  -0.00  -0.00
    12   1    -0.06   0.15  -0.00     0.00  -0.00   0.00    -0.00   0.00   0.00
    13   1    -0.31  -0.12  -0.00     0.00  -0.00  -0.00    -0.00   0.01  -0.00
    14   6    -0.23   0.10  -0.00    -0.00  -0.00   0.00     0.00   0.00   0.00
    15   6     0.13  -0.01  -0.00     0.00  -0.00  -0.00    -0.00   0.00  -0.00
    16   6    -0.10   0.10  -0.00     0.00  -0.00   0.00    -0.00  -0.00   0.00
    17   6     0.24  -0.08  -0.00     0.00   0.00   0.00    -0.00  -0.00   0.00
    18   1    -0.31   0.12   0.00    -0.00  -0.00  -0.00     0.00   0.01  -0.00
    19   1    -0.06  -0.15   0.00    -0.00  -0.00   0.00     0.00   0.00  -0.00
    20   1    -0.00  -0.14   0.00    -0.00   0.00  -0.00     0.00  -0.00  -0.00
    21   1     0.29  -0.06   0.00     0.00   0.00   0.00    -0.00  -0.00   0.00
    22   6    -0.00   0.00  -0.00    -0.00   0.02  -0.02    -0.00   0.02  -0.03
    23   1    -0.04  -0.00   0.00     0.00   0.20   0.28     0.00   0.21   0.29
    24   1     0.00   0.01  -0.06     0.36  -0.25  -0.00     0.35  -0.25  -0.00
    25   1     0.00  -0.01   0.06    -0.36  -0.25  -0.00    -0.35  -0.25  -0.00
    26   6    -0.00   0.00   0.00     0.00  -0.02  -0.02    -0.00   0.02   0.02
    27   1     0.00  -0.01  -0.06     0.36   0.25  -0.00    -0.35  -0.25   0.00
    28   1     0.00   0.01   0.06    -0.36   0.25  -0.00     0.35  -0.25   0.00
    29   1    -0.04   0.00   0.00    -0.00  -0.20   0.28     0.00   0.21  -0.29
                     70                     71                     72
                      A                      A                      A
 Frequencies --   3088.9373              3094.1904              3103.9151
 Red. masses --      1.1025                 1.1016                 1.1024
 Frc consts  --      6.1979                 6.2142                 6.2574
 IR Inten    --      0.0000                42.5125                13.9358
  Atom  AN      X      Y      Z        X      Y      Z        X      Y      Z
     1   6    -0.00  -0.00  -0.00    -0.00   0.00   0.00    -0.00   0.00  -0.00
     2   6     0.00   0.00  -0.00     0.00  -0.00   0.00     0.00  -0.00   0.00
     3   6    -0.00  -0.00   0.00    -0.00  -0.00  -0.00     0.00  -0.00   0.00
     4   6     0.00   0.00  -0.00    -0.00   0.00   0.00    -0.00  -0.00   0.00
     5   6     0.00   0.00   0.00     0.00   0.00  -0.00     0.00   0.00   0.00
     6   6     0.00   0.00  -0.00     0.00  -0.00   0.00     0.00  -0.00   0.00
     7   6     0.00   0.00  -0.00    -0.00   0.00   0.00    -0.00   0.00  -0.00
     8   6     0.00  -0.00   0.00     0.00  -0.00  -0.00     0.00  -0.00   0.00
     9   6    -0.00  -0.00  -0.00    -0.00  -0.00   0.00     0.00  -0.00  -0.00
    10   1    -0.00  -0.00   0.00    -0.00   0.00  -0.00    -0.00   0.00  -0.00
    11   1     0.00   0.00   0.00     0.00  -0.00  -0.00     0.00  -0.00   0.00
    12   1    -0.00   0.00   0.00     0.00  -0.00   0.00     0.00  -0.00  -0.00
    13   1     0.00  -0.00   0.00    -0.01   0.02  -0.00    -0.00   0.00   0.00
    14   6    -0.00   0.00   0.00    -0.00   0.00  -0.00     0.00   0.00  -0.00
    15   6     0.00   0.00  -0.00     0.00   0.00  -0.00    -0.00   0.00   0.00
    16   6    -0.00  -0.00   0.00    -0.00  -0.00   0.00    -0.00  -0.00  -0.00
    17   6     0.00   0.00   0.00     0.00   0.00  -0.00     0.00   0.00   0.00
    18   1    -0.00  -0.00  -0.00    -0.01  -0.02   0.00    -0.00  -0.00   0.00
    19   1     0.00   0.00  -0.00     0.00   0.00  -0.00     0.00   0.00  -0.00
    20   1    -0.00   0.00  -0.00     0.00   0.00  -0.00     0.00  -0.00   0.00
    21   1    -0.00  -0.00  -0.00    -0.00  -0.00   0.00    -0.00  -0.00  -0.00
    22   6     0.07  -0.00  -0.00    -0.07   0.00   0.00    -0.00  -0.05  -0.04
    23   1     0.02   0.00   0.00    -0.01  -0.00  -0.00     0.00   0.34   0.51
    24   1    -0.40   0.30  -0.00     0.40  -0.30   0.00    -0.20   0.13  -0.01
    25   1    -0.40  -0.30   0.00     0.40   0.30  -0.00     0.20   0.13  -0.01
    26   6    -0.07   0.00  -0.00    -0.07   0.00  -0.00     0.00   0.05  -0.04
    27   1     0.40   0.30   0.00     0.40   0.30   0.00    -0.20  -0.13  -0.01
    28   1     0.40  -0.30  -0.00     0.40  -0.30  -0.00     0.20  -0.13  -0.01
    29   1    -0.02  -0.00   0.00    -0.01  -0.00   0.00    -0.00  -0.34   0.51
                     73                     74                     75
                      A                      A                      A
 Frequencies --   3105.6925              3160.8835              3161.3484
 Red. masses --      1.1022                 1.0857                 1.0859
 Frc consts  --      6.2638                 6.3913                 6.3940
 IR Inten    --     28.5076                 1.5300                 8.2627
  Atom  AN      X      Y      Z        X      Y      Z        X      Y      Z
     1   6    -0.00  -0.00  -0.00    -0.00  -0.00  -0.00     0.00  -0.00  -0.00
     2   6    -0.00   0.00   0.00     0.00  -0.00  -0.00     0.00  -0.00  -0.00
     3   6    -0.00   0.00  -0.00    -0.00   0.00  -0.00    -0.00   0.00  -0.00
     4   6     0.00   0.00  -0.00    -0.00  -0.00   0.00     0.00   0.00   0.00
     5   6     0.00   0.00  -0.00     0.00   0.00   0.00    -0.00  -0.00  -0.00
     6   6    -0.00   0.00  -0.00    -0.01   0.04  -0.00     0.02  -0.04   0.00
     7   6     0.00  -0.00   0.00     0.03  -0.01   0.00    -0.03   0.01  -0.00
     8   6    -0.00  -0.00   0.00    -0.01  -0.02   0.00     0.01   0.02  -0.00
     9   6    -0.00   0.00  -0.00    -0.00   0.02  -0.00     0.00  -0.01   0.00
    10   1     0.00  -0.00  -0.00     0.06  -0.19   0.00    -0.05   0.16  -0.00
    11   1     0.00   0.00  -0.00     0.17   0.19  -0.00    -0.17  -0.19   0.00
    12   1    -0.00   0.00  -0.00    -0.34   0.07  -0.00     0.36  -0.07   0.00
    13   1     0.01  -0.02   0.00     0.17  -0.48   0.00    -0.18   0.50  -0.00
    14   6     0.00   0.00  -0.00    -0.01  -0.02   0.00    -0.00  -0.01   0.00
    15   6     0.00  -0.00   0.00    -0.01   0.02  -0.00    -0.01   0.01  -0.00
    16   6    -0.00  -0.00  -0.00     0.03   0.01  -0.00     0.03   0.01  -0.00
    17   6     0.00   0.00  -0.00    -0.02  -0.04   0.00    -0.02  -0.04   0.00
    18   1    -0.01  -0.02   0.00     0.17   0.49  -0.00     0.17   0.49  -0.00
    19   1     0.00   0.00  -0.00    -0.35  -0.07   0.00    -0.35  -0.07   0.00
    20   1    -0.00   0.00  -0.00     0.17  -0.20   0.00     0.16  -0.18   0.00
    21   1    -0.00  -0.00  -0.00     0.06   0.20  -0.00     0.05   0.16  -0.00
    22   6    -0.00  -0.05  -0.04    -0.00  -0.00  -0.00     0.00  -0.00  -0.00
    23   1     0.00   0.34   0.50    -0.00   0.00   0.00     0.00   0.01   0.01
    24   1    -0.21   0.14  -0.01     0.01  -0.01   0.00    -0.01   0.01  -0.00
    25   1     0.21   0.14  -0.01     0.01   0.01  -0.00     0.01   0.01  -0.00
    26   6    -0.00  -0.05   0.04    -0.00  -0.00   0.00     0.00  -0.00   0.00
    27   1     0.21   0.14   0.01     0.01   0.01   0.00     0.01   0.01   0.00
    28   1    -0.21   0.14   0.01     0.01  -0.01  -0.00    -0.01   0.01   0.00
    29   1     0.00   0.34  -0.50    -0.00   0.00  -0.00     0.00   0.01  -0.01
                     76                     77                     78
                      A                      A                      A
 Frequencies --   3167.1714              3168.8874              3178.2615
 Red. masses --      1.0878                 1.0878                 1.0921
 Frc consts  --      6.4288                 6.4359                 6.4997
 IR Inten    --      2.2996                 3.0645                 6.1438
  Atom  AN      X      Y      Z        X      Y      Z        X      Y      Z
     1   6     0.00   0.00  -0.00    -0.00   0.00   0.00    -0.00   0.00  -0.00
     2   6     0.00  -0.00  -0.00    -0.00   0.00   0.00     0.00   0.00  -0.00
     3   6     0.00  -0.00   0.00    -0.00   0.00  -0.00    -0.00   0.00  -0.00
     4   6     0.00   0.00  -0.00     0.00   0.00   0.00    -0.00  -0.00   0.00
     5   6     0.00   0.00   0.00     0.00   0.00   0.00     0.00  -0.00   0.00
     6   6    -0.01   0.03  -0.00    -0.01   0.03  -0.00    -0.01   0.02  -0.00
     7   6     0.00  -0.00   0.00    -0.00  -0.00  -0.00    -0.04   0.01  -0.00
     8   6     0.02   0.02  -0.00     0.02   0.03  -0.00     0.02   0.02  -0.00
     9   6     0.01  -0.04   0.00     0.01  -0.04   0.00    -0.01   0.03  -0.00
    10   1    -0.15   0.47  -0.00    -0.14   0.42  -0.00     0.12  -0.38   0.00
    11   1    -0.23  -0.26   0.00    -0.27  -0.30   0.00    -0.20  -0.22   0.00
    12   1    -0.01   0.00  -0.00     0.04  -0.01   0.00     0.40  -0.08   0.00
    13   1     0.12  -0.34   0.00     0.12  -0.34   0.00     0.09  -0.26   0.00
    14   6     0.01   0.04  -0.00    -0.01  -0.04   0.00    -0.01  -0.03   0.00
    15   6     0.02  -0.02   0.00    -0.02   0.03  -0.00     0.02  -0.02   0.00
    16   6     0.00   0.00  -0.00     0.00  -0.00  -0.00    -0.04  -0.01   0.00
    17   6    -0.01  -0.03   0.00     0.01   0.03  -0.00    -0.01  -0.02   0.00
    18   1     0.12   0.34  -0.00    -0.12  -0.34   0.00     0.09   0.26  -0.00
    19   1    -0.01  -0.00   0.00    -0.04  -0.01   0.00     0.41   0.08  -0.00
    20   1    -0.23   0.26  -0.00     0.27  -0.31   0.00    -0.20   0.22  -0.00
    21   1    -0.15  -0.47   0.00     0.14   0.43  -0.00     0.12   0.38  -0.00
    22   6    -0.00   0.00   0.00     0.00   0.00   0.00    -0.00   0.00   0.00
    23   1    -0.00  -0.00  -0.00    -0.00  -0.00  -0.00    -0.00  -0.00  -0.00
    24   1     0.01  -0.00  -0.00     0.01  -0.00   0.00     0.00  -0.00  -0.00
    25   1     0.01   0.00   0.00    -0.01  -0.00   0.00     0.00   0.00   0.00
    26   6    -0.00   0.00  -0.00     0.00   0.00  -0.00    -0.00   0.00  -0.00
    27   1     0.01   0.00  -0.00    -0.01  -0.00  -0.00     0.00   0.00  -0.00
    28   1     0.01  -0.00   0.00     0.01  -0.00  -0.00     0.00  -0.00   0.00
    29   1    -0.00  -0.00   0.00    -0.00  -0.00   0.00    -0.00  -0.00   0.00
                     79                     80                     81
                      A                      A                      A
 Frequencies --   3179.5012              3190.7414              3191.3566
 Red. masses --      1.0921                 1.0966                 1.0965
 Frc consts  --      6.5045                 6.5775                 6.5796
 IR Inten    --     34.9371                41.9537                 7.0456
  Atom  AN      X      Y      Z        X      Y      Z        X      Y      Z
     1   6     0.00  -0.00   0.00     0.00   0.00  -0.00    -0.00   0.00   0.00
     2   6     0.00   0.00  -0.00     0.00  -0.00  -0.00    -0.00   0.00  -0.00
     3   6    -0.00   0.00  -0.00     0.00  -0.00   0.00    -0.00   0.00  -0.00
     4   6     0.00   0.00  -0.00     0.00   0.00  -0.00     0.00   0.00  -0.00
     5   6    -0.00   0.00  -0.00     0.00   0.00   0.00     0.00   0.00   0.00
     6   6     0.01  -0.02   0.00    -0.00   0.01  -0.00    -0.00   0.01  -0.00
     7   6     0.04  -0.01   0.00    -0.04   0.01  -0.00    -0.04   0.01  -0.00
     8   6    -0.02  -0.01   0.00    -0.03  -0.03   0.00    -0.03  -0.03   0.00
     9   6     0.01  -0.04   0.00     0.01  -0.02   0.00     0.01  -0.02   0.00
    10   1    -0.14   0.43  -0.00    -0.07   0.21  -0.00    -0.08   0.24  -0.00
    11   1     0.15   0.17  -0.00     0.31   0.35  -0.00     0.31   0.35  -0.00
    12   1    -0.41   0.08  -0.00     0.44  -0.09   0.00     0.42  -0.09   0.00
    13   1    -0.08   0.24  -0.00     0.05  -0.15   0.00     0.05  -0.15   0.00
    14   6    -0.01  -0.04   0.00     0.01   0.02  -0.00    -0.01  -0.02   0.00
    15   6     0.01  -0.01   0.00    -0.03   0.03  -0.00     0.03  -0.03   0.00
    16   6    -0.04  -0.01   0.00    -0.04  -0.01   0.00     0.04   0.01  -0.00
    17   6    -0.01  -0.02   0.00    -0.00  -0.01   0.00     0.00   0.01  -0.00
    18   1     0.08   0.24  -0.00     0.05   0.15  -0.00    -0.05  -0.15   0.00
    19   1     0.41   0.08  -0.00     0.44   0.09  -0.00    -0.42  -0.08   0.00
    20   1    -0.15   0.17  -0.00     0.31  -0.35   0.00    -0.31   0.35  -0.00
    21   1     0.14   0.43  -0.00    -0.07  -0.21   0.00     0.08   0.24  -0.00
    22   6     0.00  -0.00  -0.00    -0.00   0.00   0.00    -0.00   0.00   0.00
    23   1     0.00   0.00   0.00     0.00  -0.00  -0.00    -0.00  -0.00  -0.00
    24   1    -0.00   0.00  -0.00     0.00  -0.00  -0.00     0.00  -0.00   0.00
    25   1     0.00   0.00  -0.00     0.00   0.00   0.00    -0.00  -0.00   0.00
    26   6     0.00  -0.00   0.00    -0.00   0.00  -0.00    -0.00   0.00  -0.00
    27   1     0.00   0.00   0.00     0.00   0.00  -0.00    -0.00  -0.00  -0.00
    28   1    -0.00   0.00   0.00     0.00  -0.00   0.00     0.00  -0.00  -0.00
    29   1     0.00   0.00  -0.00     0.00  -0.00   0.00    -0.00  -0.00   0.00

 -------------------
 - Thermochemistry -
 -------------------
 Temperature   298.150 Kelvin.  Pressure   1.00000 Atm.
 Atom     1 has atomic number  6 and mass  12.00000
 Atom     2 has atomic number  6 and mass  12.00000
 Atom     3 has atomic number  6 and mass  12.00000
 Atom     4 has atomic number  6 and mass  12.00000
 Atom     5 has atomic number  6 and mass  12.00000
 Atom     6 has atomic number  6 and mass  12.00000
 Atom     7 has atomic number  6 and mass  12.00000
 Atom     8 has atomic number  6 and mass  12.00000
 Atom     9 has atomic number  6 and mass  12.00000
 Atom    10 has atomic number  1 and mass   1.00783
 Atom    11 has atomic number  1 and mass   1.00783
 Atom    12 has atomic number  1 and mass   1.00783
 Atom    13 has atomic number  1 and mass   1.00783
 Atom    14 has atomic number  6 and mass  12.00000
 Atom    15 has atomic number  6 and mass  12.00000
 Atom    16 has atomic number  6 and mass  12.00000
 Atom    17 has atomic number  6 and mass  12.00000
 Atom    18 has atomic number  1 and mass   1.00783
 Atom    19 has atomic number  1 and mass   1.00783
 Atom    20 has atomic number  1 and mass   1.00783
 Atom    21 has atomic number  1 and mass   1.00783
 Atom    22 has atomic number  6 and mass  12.00000
 Atom    23 has atomic number  1 and mass   1.00783
 Atom    24 has atomic number  1 and mass   1.00783
 Atom    25 has atomic number  1 and mass   1.00783
 Atom    26 has atomic number  6 and mass  12.00000
 Atom    27 has atomic number  1 and mass   1.00783
 Atom    28 has atomic number  1 and mass   1.00783
 Atom    29 has atomic number  1 and mass   1.00783
 Molecular mass:   194.10955 amu.
 Principal axes and moments of inertia in atomic units:
                           1         2         3
     Eigenvalues --  1698.289753264.251674574.90782
           X            1.00000   0.00000   0.00000
           Y           -0.00000   1.00000  -0.00000
           Z           -0.00000   0.00000   1.00000
 This molecule is an asymmetric top.
 Rotational symmetry number  1.
 Warning -- assumption of classical behavior for rotation
           may cause significant error
 Rotational temperatures (Kelvin)      0.05100     0.02653     0.01893
 Rotational constants (GHZ):           1.06268     0.55288     0.39449
 Zero-point vibrational energy     638000.9 (Joules/Mol)
                                  152.48588 (Kcal/Mol)
 Warning -- explicit consideration of  19 degrees of freedom as
           vibrations may cause significant error
 Vibrational temperatures:    112.92   169.58   176.45   278.91   295.05
          (Kelvin)            347.57   351.10   405.55   461.93   468.50
                              511.28   604.83   628.85   706.87   749.93
                              802.64   834.35   836.88   875.15   917.42
                             1034.67  1079.28  1097.38  1120.18  1120.71
                             1154.55  1163.40  1267.25  1276.30  1350.30
                             1351.02  1355.18  1367.84  1383.19  1385.47
                             1480.14  1487.12  1509.91  1513.12  1585.45
                             1598.17  1636.17  1657.87  1665.33  1703.85
                             1704.42  1766.22  1790.87  1828.53  1905.93
                             1907.21  1921.64  1983.98  2011.62  2044.09
                             2130.54  2135.02  2135.24  2140.93  2161.38
                             2161.79  2177.51  2182.48  2331.34  2336.45
                             2367.36  2369.24  4357.79  4363.91  4444.29
                             4451.85  4465.84  4468.40  4547.81  4548.48
                             4556.85  4559.32  4572.81  4574.59  4590.77
                             4591.65
 
 Zero-point correction=                           0.243002 (Hartree/Particle)
 Thermal correction to Energy=                    0.254943
 Thermal correction to Enthalpy=                  0.255887
 Thermal correction to Gibbs Free Energy=         0.205759
 Sum of electronic and zero-point Energies=           -580.014334
 Sum of electronic and thermal Energies=              -580.002393
 Sum of electronic and thermal Enthalpies=            -580.001449
 Sum of electronic and thermal Free Energies=         -580.051577
 
                     E (Thermal)             CV                S
                      KCal/Mol        Cal/Mol-Kelvin    Cal/Mol-Kelvin
 Total                  159.979             49.723            105.502
 Electronic               0.000              0.000              0.000
 Translational            0.889              2.981             41.695
 Rotational               0.889              2.981             31.606
 Vibrational            158.202             43.761             32.201
 Vibration     1          0.600              1.964              3.928
 Vibration     2          0.608              1.934              3.135
 Vibration     3          0.610              1.930              3.058
 Vibration     4          0.635              1.848              2.191
 Vibration     5          0.640              1.833              2.087
 Vibration     6          0.658              1.777              1.791
 Vibration     7          0.659              1.773              1.773
 Vibration     8          0.681              1.707              1.522
 Vibration     9          0.707              1.633              1.305
 Vibration    10          0.710              1.624              1.282
 Vibration    11          0.731              1.564              1.142
 Vibration    12          0.783              1.426              0.891
 Vibration    13          0.797              1.389              0.836
 Vibration    14          0.847              1.269              0.680
 Vibration    15          0.876              1.203              0.607
 Vibration    16          0.913              1.123              0.528
 Vibration    17          0.937              1.075              0.486
 Vibration    18          0.938              1.071              0.482
 Vibration    19          0.967              1.014              0.436
                       Q            Log10(Q)             Ln(Q)
 Total Bot       0.227674D-94        -94.642687       -217.922840
 Total V=0       0.134972D+18         17.130245         39.443846
 Vib (Bot)       0.118810-108       -108.925146       -250.809417
 Vib (Bot)    1  0.262467D+01          0.419075          0.964956
 Vib (Bot)    2  0.173468D+01          0.239220          0.550825
 Vib (Bot)    3  0.166527D+01          0.221485          0.509989
 Vib (Bot)    4  0.103099D+01          0.013256          0.030523
 Vib (Bot)    5  0.970411D+00         -0.013044         -0.030036
 Vib (Bot)    6  0.811093D+00         -0.090929         -0.209372
 Vib (Bot)    7  0.802036D+00         -0.095806         -0.220602
 Vib (Bot)    8  0.681409D+00         -0.166592         -0.383592
 Vib (Bot)    9  0.585139D+00         -0.232741         -0.535906
 Vib (Bot)   10  0.575350D+00         -0.240068         -0.552776
 Vib (Bot)   11  0.517378D+00         -0.286192         -0.658982
 Vib (Bot)   12  0.417577D+00         -0.379264         -0.873287
 Vib (Bot)   13  0.396438D+00         -0.401824         -0.925235
 Vib (Bot)   14  0.337101D+00         -0.472240         -1.087373
 Vib (Bot)   15  0.309328D+00         -0.509580         -1.173352
 Vib (Bot)   16  0.279182D+00         -0.554112         -1.275890
 Vib (Bot)   17  0.262796D+00         -0.580382         -1.336379
 Vib (Bot)   18  0.261541D+00         -0.582461         -1.341165
 Vib (Bot)   19  0.243398D+00         -0.613684         -1.413059
 Vib (V=0)       0.704346D+03          2.847786          6.557269
 Vib (V=0)    1  0.317187D+01          0.501316          1.154322
 Vib (V=0)    2  0.230531D+01          0.362729          0.835213
 Vib (V=0)    3  0.223872D+01          0.349999          0.805902
 Vib (V=0)    4  0.164584D+01          0.216388          0.498251
 Vib (V=0)    5  0.159165D+01          0.201847          0.464770
 Vib (V=0)    6  0.145282D+01          0.162213          0.373509
 Vib (V=0)    7  0.144513D+01          0.159905          0.368196
 Vib (V=0)    8  0.134517D+01          0.128778          0.296523
 Vib (V=0)    9  0.126967D+01          0.103690          0.238755
 Vib (V=0)   10  0.126225D+01          0.101146          0.232897
 Vib (V=0)   11  0.121950D+01          0.086182          0.198441
 Vib (V=0)   12  0.115144D+01          0.061240          0.141011
 Vib (V=0)   13  0.113809D+01          0.056178          0.129354
 Vib (V=0)   14  0.110302D+01          0.042585          0.098055
 Vib (V=0)   15  0.108795D+01          0.036609          0.084294
 Vib (V=0)   16  0.107266D+01          0.030463          0.070144
 Vib (V=0)   17  0.106486D+01          0.027291          0.062839
 Vib (V=0)   18  0.106427D+01          0.027053          0.062292
 Vib (V=0)   19  0.105610D+01          0.023703          0.054579
 Electronic      0.100000D+01          0.000000          0.000000
 Translational   0.106298D+09          8.026524         18.481755
 Rotational      0.180275D+07          6.255934         14.404821
 ***** Axes restored to original set *****
 -------------------------------------------------------------------
 Center     Atomic                   Forces (Hartrees/Bohr)
 Number     Number              X              Y              Z
 -------------------------------------------------------------------
      1        6          -0.000048903   -0.000088370   -0.000007293
      2        6           0.000035454    0.000089293   -0.000000175
      3        6          -0.000006635   -0.000049611   -0.000000022
      4        6          -0.000063640   -0.000019579    0.000000880
      5        6           0.000061641    0.000048481    0.000001158
      6        6           0.000011564   -0.000013781   -0.000000144
      7        6          -0.000038121   -0.000041342    0.000000857
      8        6           0.000070280    0.000012599    0.000000158
      9        6          -0.000019845    0.000014542   -0.000000312
     10        1           0.000009689    0.000006668    0.000000001
     11        1          -0.000002481    0.000003761   -0.000000202
     12        1          -0.000004303    0.000000572   -0.000000098
     13        1          -0.000016643    0.000010327   -0.000000381
     14        6           0.000012189   -0.000023907    0.000000763
     15        6           0.000000716    0.000070276   -0.000001349
     16        6          -0.000032661   -0.000046886    0.000000857
     17        6          -0.000017166    0.000002493    0.000000149
     18        1           0.000008294   -0.000012397   -0.000000181
     19        1           0.000001505   -0.000002992    0.000000052
     20        1           0.000004101    0.000001233    0.000000151
     21        1           0.000012118    0.000008651   -0.000000130
     22        6           0.000009668    0.000014715   -0.000025654
     23        1           0.000006356    0.000004617    0.000008934
     24        1          -0.000010594    0.000005695   -0.000002347
     25        1           0.000006176   -0.000011040   -0.000000621
     26        6           0.000010458    0.000015490    0.000029171
     27        1           0.000005181   -0.000010253    0.000002285
     28        1          -0.000011067    0.000006618    0.000002106
     29        1           0.000006670    0.000004128   -0.000008613
 -------------------------------------------------------------------
 Cartesian Forces:  Max     0.000089293 RMS     0.000025165
 FormGI is forming the generalized inverse of G from B-inverse, IUseBI=4.
 Leave Link  716 at Wed Mar 11 15:06:50 2026, MaxMem=   104857600 cpu:               0.0 elap:               0.0
 (Enter /sw/cluster/pub/apps//g16/l103.exe)

 GradGradGradGradGradGradGradGradGradGradGradGradGradGradGradGradGradGrad
 Berny optimization.
 Red2BG is reusing G-inverse.
 Internal  Forces:  Max     0.000050199 RMS     0.000010358
 Search for a local minimum.
 Step number   1 out of a maximum of    2
 All quantities printed in internal units (Hartrees-Bohrs-Radians)
 Second derivative matrix not updated -- analytic derivatives used.
 ITU=  0
     Eigenvalues ---    0.00274   0.00353   0.00577   0.01032   0.01360
     Eigenvalues ---    0.01497   0.01625   0.01631   0.01733   0.01771
     Eigenvalues ---    0.01959   0.02130   0.02199   0.02383   0.02437
     Eigenvalues ---    0.02512   0.02758   0.02781   0.02795   0.02822
     Eigenvalues ---    0.04184   0.04504   0.04518   0.04573   0.04618
     Eigenvalues ---    0.04843   0.06503   0.09307   0.10842   0.10941
     Eigenvalues ---    0.11209   0.11414   0.11813   0.12203   0.12256
     Eigenvalues ---    0.12335   0.12338   0.12359   0.14335   0.14387
     Eigenvalues ---    0.14898   0.15319   0.16716   0.18008   0.19125
     Eigenvalues ---    0.19202   0.19418   0.19509   0.19699   0.20142
     Eigenvalues ---    0.23226   0.23308   0.26254   0.27546   0.28823
     Eigenvalues ---    0.29101   0.30976   0.33141   0.33288   0.33358
     Eigenvalues ---    0.33541   0.34294   0.34369   0.34711   0.35278
     Eigenvalues ---    0.35297   0.35535   0.35596   0.35655   0.35840
     Eigenvalues ---    0.35853   0.36175   0.39311   0.40858   0.40913
     Eigenvalues ---    0.44394   0.44960   0.46033   0.46538   0.50143
     Eigenvalues ---    0.50479
 Angle between quadratic step and forces=  59.01 degrees.
 Linear search not attempted -- first point.
 Iteration  1 RMS(Cart)=  0.00010595 RMS(Int)=  0.00000001
 Iteration  2 RMS(Cart)=  0.00000001 RMS(Int)=  0.00000000
 ITry= 1 IFail=0 DXMaxC= 4.95D-04 DCOld= 1.00D+10 DXMaxT= 3.00D-01 DXLimC= 3.00D+00 Rises=F
 Variable       Old X    -DE/DX   Delta X   Delta X   Delta X     New X
                                 (Linear)    (Quad)   (Total)
    R1        2.88189   0.00000   0.00000   0.00007   0.00007   2.88195
    R2        2.88181   0.00002   0.00000   0.00014   0.00014   2.88195
    R3        2.91200  -0.00003   0.00000  -0.00012  -0.00012   2.91188
    R4        2.91204  -0.00003   0.00000  -0.00016  -0.00016   2.91188
    R5        2.65230  -0.00004   0.00000  -0.00016  -0.00016   2.65214
    R6        2.61794  -0.00000   0.00000   0.00003   0.00003   2.61797
    R7        2.76896   0.00001   0.00000   0.00005   0.00005   2.76901
    R8        2.62970   0.00001   0.00000   0.00005   0.00005   2.62975
    R9        2.65229  -0.00004   0.00000  -0.00015  -0.00015   2.65214
   R10        2.62970   0.00001   0.00000   0.00005   0.00005   2.62975
   R11        2.61795  -0.00000   0.00000   0.00002   0.00002   2.61797
   R12        2.63528  -0.00001   0.00000  -0.00005  -0.00005   2.63524
   R13        2.04811   0.00001   0.00000   0.00003   0.00003   2.04814
   R14        2.63271   0.00005   0.00000   0.00015   0.00015   2.63286
   R15        2.04619   0.00000   0.00000   0.00001   0.00001   2.04620
   R16        2.62880  -0.00003   0.00000  -0.00009  -0.00009   2.62870
   R17        2.04626   0.00000   0.00000   0.00001   0.00001   2.04627
   R18        2.04699   0.00001   0.00000   0.00003   0.00003   2.04702
   R19        2.62880  -0.00003   0.00000  -0.00009  -0.00009   2.62870
   R20        2.04699   0.00001   0.00000   0.00004   0.00004   2.04702
   R21        2.63271   0.00005   0.00000   0.00015   0.00015   2.63286
   R22        2.04626   0.00000   0.00000   0.00001   0.00001   2.04627
   R23        2.63528  -0.00001   0.00000  -0.00005  -0.00005   2.63524
   R24        2.04620   0.00000   0.00000   0.00001   0.00001   2.04620
   R25        2.04811   0.00001   0.00000   0.00002   0.00002   2.04814
   R26        2.06098   0.00001   0.00000   0.00003   0.00003   2.06101
   R27        2.06336   0.00001   0.00000   0.00003   0.00003   2.06339
   R28        2.06335   0.00001   0.00000   0.00004   0.00004   2.06339
   R29        2.06335   0.00001   0.00000   0.00004   0.00004   2.06339
   R30        2.06336   0.00001   0.00000   0.00003   0.00003   2.06339
   R31        2.06098   0.00001   0.00000   0.00003   0.00003   2.06101
    A1        1.76523  -0.00002   0.00000  -0.00015  -0.00015   1.76508
    A2        1.94420   0.00001   0.00000   0.00001   0.00001   1.94421
    A3        1.94413   0.00001   0.00000   0.00008   0.00008   1.94421
    A4        1.94425   0.00000   0.00000  -0.00004  -0.00004   1.94421
    A5        1.94419   0.00001   0.00000   0.00002   0.00002   1.94421
    A6        1.91800  -0.00000   0.00000   0.00008   0.00008   1.91808
    A7        1.93612   0.00001   0.00000   0.00011   0.00011   1.93623
    A8        2.24899  -0.00003   0.00000  -0.00016  -0.00016   2.24883
    A9        2.09808   0.00001   0.00000   0.00005   0.00005   2.09813
   A10        1.89365  -0.00000   0.00000  -0.00003  -0.00003   1.89362
   A11        2.10422   0.00001   0.00000   0.00002   0.00002   2.10424
   A12        2.28531  -0.00000   0.00000   0.00001   0.00001   2.28532
   A13        1.89362   0.00000   0.00000   0.00000   0.00000   1.89362
   A14        2.28541  -0.00002   0.00000  -0.00008  -0.00008   2.28532
   A15        2.10416   0.00002   0.00000   0.00008   0.00008   2.10424
   A16        1.93616   0.00001   0.00000   0.00007   0.00007   1.93623
   A17        2.24889  -0.00001   0.00000  -0.00006  -0.00006   2.24883
   A18        2.09814   0.00000   0.00000  -0.00000  -0.00000   2.09813
   A19        2.08088  -0.00001   0.00000  -0.00003  -0.00003   2.08085
   A20        2.11156   0.00002   0.00000   0.00016   0.00016   2.11172
   A21        2.09075  -0.00001   0.00000  -0.00013  -0.00013   2.09062
   A22        2.10341   0.00000   0.00000   0.00002   0.00002   2.10344
   A23        2.09030  -0.00000   0.00000  -0.00000  -0.00000   2.09029
   A24        2.08948   0.00000   0.00000  -0.00002  -0.00002   2.08946
   A25        2.10386  -0.00001   0.00000  -0.00004  -0.00004   2.10383
   A26        2.08879   0.00000   0.00000  -0.00004  -0.00004   2.08875
   A27        2.09053   0.00001   0.00000   0.00007   0.00007   2.09061
   A28        2.07592  -0.00001   0.00000  -0.00003  -0.00003   2.07589
   A29        2.10975   0.00000   0.00000  -0.00000  -0.00000   2.10975
   A30        2.09751   0.00000   0.00000   0.00003   0.00003   2.09754
   A31        2.07591  -0.00000   0.00000  -0.00002  -0.00002   2.07589
   A32        2.10969   0.00001   0.00000   0.00006   0.00006   2.10975
   A33        2.09759  -0.00001   0.00000  -0.00004  -0.00004   2.09754
   A34        2.10383  -0.00000   0.00000  -0.00000  -0.00000   2.10383
   A35        2.09058   0.00000   0.00000   0.00002   0.00002   2.09061
   A36        2.08877   0.00000   0.00000  -0.00002  -0.00002   2.08875
   A37        2.10345  -0.00000   0.00000  -0.00001  -0.00001   2.10344
   A38        2.08947   0.00000   0.00000  -0.00001  -0.00001   2.08946
   A39        2.09026   0.00000   0.00000   0.00003   0.00003   2.09029
   A40        2.08088  -0.00001   0.00000  -0.00004  -0.00004   2.08085
   A41        2.11161   0.00002   0.00000   0.00011   0.00011   2.11172
   A42        2.09069  -0.00001   0.00000  -0.00008  -0.00008   2.09062
   A43        1.93875  -0.00000   0.00000   0.00000   0.00000   1.93875
   A44        1.93119  -0.00000   0.00000  -0.00002  -0.00002   1.93117
   A45        1.93117  -0.00000   0.00000  -0.00000  -0.00000   1.93117
   A46        1.88896   0.00000   0.00000   0.00000   0.00000   1.88896
   A47        1.88898   0.00000   0.00000  -0.00002  -0.00002   1.88896
   A48        1.88306   0.00001   0.00000   0.00004   0.00004   1.88310
   A49        1.93117  -0.00000   0.00000  -0.00000  -0.00000   1.93117
   A50        1.93119  -0.00001   0.00000  -0.00002  -0.00002   1.93117
   A51        1.93874  -0.00000   0.00000   0.00001   0.00001   1.93875
   A52        1.88307   0.00001   0.00000   0.00003   0.00003   1.88310
   A53        1.88897   0.00000   0.00000  -0.00001  -0.00001   1.88896
   A54        1.88896   0.00000   0.00000  -0.00000  -0.00000   1.88896
    D1       -0.00005  -0.00000   0.00000   0.00005   0.00005  -0.00000
    D2        3.14157  -0.00000   0.00000   0.00002   0.00002   3.14159
    D3       -2.06753   0.00000   0.00000   0.00017   0.00017  -2.06735
    D4        1.07409   0.00000   0.00000   0.00015   0.00015   1.07424
    D5        2.06734  -0.00000   0.00000   0.00001   0.00001   2.06735
    D6       -1.07424  -0.00000   0.00000  -0.00001  -0.00001  -1.07424
    D7        0.00005   0.00000   0.00000  -0.00005  -0.00005   0.00000
    D8       -3.14156   0.00000   0.00000  -0.00003  -0.00003  -3.14159
    D9        2.06749  -0.00000   0.00000  -0.00014  -0.00014   2.06735
   D10       -1.07412  -0.00000   0.00000  -0.00013  -0.00013  -1.07424
   D11       -2.06729  -0.00000   0.00000  -0.00006  -0.00006  -2.06735
   D12        1.07429  -0.00000   0.00000  -0.00005  -0.00005   1.07424
   D13        0.97850  -0.00001   0.00000  -0.00025  -0.00025   0.97825
   D14        3.07700  -0.00001   0.00000  -0.00026  -0.00026   3.07674
   D15       -1.12002  -0.00001   0.00000  -0.00023  -0.00023  -1.12025
   D16       -0.97820   0.00001   0.00000  -0.00005  -0.00005  -0.97825
   D17        1.12031   0.00001   0.00000  -0.00005  -0.00005   1.12025
   D18       -3.07672   0.00001   0.00000  -0.00002  -0.00002  -3.07674
   D19       -3.14150   0.00000   0.00000  -0.00009  -0.00009   3.14159
   D20       -1.04299  -0.00000   0.00000  -0.00010  -0.00010  -1.04310
   D21        1.04316   0.00000   0.00000  -0.00007  -0.00007   1.04310
   D22        1.11989   0.00001   0.00000   0.00036   0.00036   1.12025
   D23       -3.07713   0.00001   0.00000   0.00038   0.00038  -3.07674
   D24       -0.97862   0.00001   0.00000   0.00037   0.00037  -0.97825
   D25        3.07651  -0.00001   0.00000   0.00024   0.00024   3.07674
   D26       -1.12051  -0.00000   0.00000   0.00025   0.00025  -1.12025
   D27        0.97800  -0.00001   0.00000   0.00025   0.00025   0.97825
   D28       -1.04334  -0.00000   0.00000   0.00025   0.00025  -1.04310
   D29        1.04283   0.00000   0.00000   0.00027   0.00027   1.04310
   D30        3.14134   0.00000   0.00000   0.00026   0.00026  -3.14159
   D31        0.00003   0.00000   0.00000  -0.00003  -0.00003   0.00000
   D32       -3.14156  -0.00000   0.00000  -0.00003  -0.00003  -3.14159
   D33       -3.14158   0.00000   0.00000  -0.00001  -0.00001  -3.14159
   D34        0.00001   0.00000   0.00000  -0.00001  -0.00001   0.00000
   D35        3.14156   0.00000   0.00000   0.00003   0.00003   3.14159
   D36       -0.00004   0.00000   0.00000   0.00004   0.00004  -0.00000
   D37       -0.00001   0.00000   0.00000   0.00001   0.00001  -0.00000
   D38        3.14158   0.00000   0.00000   0.00001   0.00001   3.14159
   D39        0.00000  -0.00000   0.00000  -0.00000  -0.00000   0.00000
   D40        3.14158  -0.00000   0.00000   0.00001   0.00001  -3.14159
   D41        3.14159   0.00000   0.00000   0.00000   0.00000   3.14159
   D42       -0.00001   0.00000   0.00000   0.00001   0.00001   0.00000
   D43       -0.00001  -0.00000   0.00000   0.00001   0.00001  -0.00000
   D44        3.14159   0.00000   0.00000   0.00000   0.00000   3.14159
   D45        3.14159  -0.00000   0.00000   0.00000   0.00000  -3.14159
   D46        0.00000  -0.00000   0.00000  -0.00000  -0.00000   0.00000
   D47       -0.00003  -0.00000   0.00000   0.00003   0.00003  -0.00000
   D48        3.14157  -0.00000   0.00000   0.00002   0.00002   3.14159
   D49        3.14157  -0.00000   0.00000   0.00002   0.00002   3.14159
   D50       -0.00001  -0.00000   0.00000   0.00001   0.00001  -0.00000
   D51       -3.14157   0.00000   0.00000  -0.00002  -0.00002   3.14159
   D52        0.00002   0.00000   0.00000  -0.00002  -0.00002   0.00000
   D53        0.00001   0.00000   0.00000  -0.00001  -0.00001   0.00000
   D54        3.14159  -0.00000   0.00000   0.00000   0.00000  -3.14159
   D55       -3.14157  -0.00000   0.00000  -0.00002  -0.00002  -3.14159
   D56        0.00002  -0.00000   0.00000  -0.00002  -0.00002   0.00000
   D57        0.00001   0.00000   0.00000  -0.00001  -0.00001   0.00000
   D58       -3.14159   0.00000   0.00000  -0.00001  -0.00001  -3.14159
   D59       -0.00000   0.00000   0.00000   0.00000   0.00000  -0.00000
   D60       -3.14159  -0.00000   0.00000  -0.00000  -0.00000   3.14159
   D61        3.14159   0.00000   0.00000   0.00000   0.00000   3.14159
   D62        0.00000  -0.00000   0.00000  -0.00000  -0.00000   0.00000
   D63       -0.00000  -0.00000   0.00000   0.00000   0.00000   0.00000
   D64       -3.14159  -0.00000   0.00000  -0.00000  -0.00000   3.14159
   D65        3.14159  -0.00000   0.00000   0.00001   0.00001   3.14159
   D66       -0.00000   0.00000   0.00000   0.00000   0.00000  -0.00000
   D67       -0.00000   0.00000   0.00000   0.00000   0.00000   0.00000
   D68       -3.14159   0.00000   0.00000  -0.00000  -0.00000   3.14159
   D69        3.14159   0.00000   0.00000   0.00000   0.00000  -3.14159
   D70        0.00000   0.00000   0.00000  -0.00000  -0.00000   0.00000
   D71       -0.00000   0.00000   0.00000   0.00000   0.00000  -0.00000
   D72        3.14159   0.00000   0.00000   0.00000   0.00000   3.14159
   D73        3.14159  -0.00000   0.00000   0.00000   0.00000   3.14159
   D74       -0.00001  -0.00000   0.00000   0.00001   0.00001  -0.00000
   D75        0.00001   0.00000   0.00000  -0.00001  -0.00001   0.00000
   D76       -3.14159  -0.00000   0.00000  -0.00001  -0.00001  -3.14159
   D77       -3.14159  -0.00000   0.00000  -0.00001  -0.00001  -3.14159
   D78        0.00001  -0.00000   0.00000  -0.00001  -0.00001   0.00000
   D79        0.00000  -0.00000   0.00000  -0.00000  -0.00000   0.00000
   D80       -3.14159  -0.00000   0.00000  -0.00001  -0.00001  -3.14159
   D81        3.14159   0.00000   0.00000   0.00000   0.00000  -3.14159
   D82        0.00001  -0.00000   0.00000  -0.00001  -0.00001   0.00000
         Item               Value     Threshold  Converged?
 Maximum Force            0.000050     0.000450     YES
 RMS     Force            0.000010     0.000300     YES
 Maximum Displacement     0.000495     0.001800     YES
 RMS     Displacement     0.000106     0.001200     YES
 Predicted change in Energy=-4.232622D-08
 Optimization completed.
    -- Stationary point found.
                           ----------------------------
                           !   Optimized Parameters   !
                           ! (Angstroms and Degrees)  !
 --------------------------                            --------------------------
 ! Name  Definition              Value          Derivative Info.                !
 --------------------------------------------------------------------------------
 ! R1    R(1,2)                  1.525          -DE/DX =    0.0                 !
 ! R2    R(1,5)                  1.525          -DE/DX =    0.0                 !
 ! R3    R(1,22)                 1.541          -DE/DX =    0.0                 !
 ! R4    R(1,26)                 1.541          -DE/DX =    0.0                 !
 ! R5    R(2,3)                  1.4035         -DE/DX =    0.0                 !
 ! R6    R(2,17)                 1.3854         -DE/DX =    0.0                 !
 ! R7    R(3,4)                  1.4653         -DE/DX =    0.0                 !
 ! R8    R(3,14)                 1.3916         -DE/DX =    0.0                 !
 ! R9    R(4,5)                  1.4035         -DE/DX =    0.0                 !
 ! R10   R(4,9)                  1.3916         -DE/DX =    0.0                 !
 ! R11   R(5,6)                  1.3854         -DE/DX =    0.0                 !
 ! R12   R(6,7)                  1.3945         -DE/DX =    0.0                 !
 ! R13   R(6,13)                 1.0838         -DE/DX =    0.0                 !
 ! R14   R(7,8)                  1.3932         -DE/DX =    0.0001              !
 ! R15   R(7,12)                 1.0828         -DE/DX =    0.0                 !
 ! R16   R(8,9)                  1.3911         -DE/DX =    0.0                 !
 ! R17   R(8,11)                 1.0828         -DE/DX =    0.0                 !
 ! R18   R(9,10)                 1.0832         -DE/DX =    0.0                 !
 ! R19   R(14,15)                1.3911         -DE/DX =    0.0                 !
 ! R20   R(14,21)                1.0832         -DE/DX =    0.0                 !
 ! R21   R(15,16)                1.3932         -DE/DX =    0.0001              !
 ! R22   R(15,20)                1.0828         -DE/DX =    0.0                 !
 ! R23   R(16,17)                1.3945         -DE/DX =    0.0                 !
 ! R24   R(16,19)                1.0828         -DE/DX =    0.0                 !
 ! R25   R(17,18)                1.0838         -DE/DX =    0.0                 !
 ! R26   R(22,23)                1.0906         -DE/DX =    0.0                 !
 ! R27   R(22,24)                1.0919         -DE/DX =    0.0                 !
 ! R28   R(22,25)                1.0919         -DE/DX =    0.0                 !
 ! R29   R(26,27)                1.0919         -DE/DX =    0.0                 !
 ! R30   R(26,28)                1.0919         -DE/DX =    0.0                 !
 ! R31   R(26,29)                1.0906         -DE/DX =    0.0                 !
 ! A1    A(2,1,5)              101.1402         -DE/DX =    0.0                 !
 ! A2    A(2,1,22)             111.3945         -DE/DX =    0.0                 !
 ! A3    A(2,1,26)             111.3906         -DE/DX =    0.0                 !
 ! A4    A(5,1,22)             111.3974         -DE/DX =    0.0                 !
 ! A5    A(5,1,26)             111.394          -DE/DX =    0.0                 !
 ! A6    A(22,1,26)            109.8933         -DE/DX =    0.0                 !
 ! A7    A(1,2,3)              110.9314         -DE/DX =    0.0                 !
 ! A8    A(1,2,17)             128.8575         -DE/DX =    0.0                 !
 ! A9    A(3,2,17)             120.2111         -DE/DX =    0.0                 !
 ! A10   A(2,3,4)              108.4982         -DE/DX =    0.0                 !
 ! A11   A(2,3,14)             120.5631         -DE/DX =    0.0                 !
 ! A12   A(4,3,14)             130.9387         -DE/DX =    0.0                 !
 ! A13   A(3,4,5)              108.4963         -DE/DX =    0.0                 !
 ! A14   A(3,4,9)              130.9441         -DE/DX =    0.0                 !
 ! A15   A(5,4,9)              120.5596         -DE/DX =    0.0                 !
 ! A16   A(1,5,4)              110.9339         -DE/DX =    0.0                 !
 ! A17   A(1,5,6)              128.8518         -DE/DX =    0.0                 !
 ! A18   A(4,5,6)              120.2143         -DE/DX =    0.0                 !
 ! A19   A(5,6,7)              119.2254         -DE/DX =    0.0                 !
 ! A20   A(5,6,13)             120.9834         -DE/DX =    0.0                 !
 ! A21   A(7,6,13)             119.7912         -DE/DX =    0.0                 !
 ! A22   A(6,7,8)              120.5166         -DE/DX =    0.0                 !
 ! A23   A(6,7,12)             119.7651         -DE/DX =    0.0                 !
 ! A24   A(8,7,12)             119.7182         -DE/DX =    0.0                 !
 ! A25   A(7,8,9)              120.5424         -DE/DX =    0.0                 !
 ! A26   A(7,8,11)             119.6789         -DE/DX =    0.0                 !
 ! A27   A(9,8,11)             119.7788         -DE/DX =    0.0                 !
 ! A28   A(4,9,8)              118.9417         -DE/DX =    0.0                 !
 ! A29   A(4,9,10)             120.8798         -DE/DX =    0.0                 !
 ! A30   A(8,9,10)             120.1785         -DE/DX =    0.0                 !
 ! A31   A(3,14,15)            118.9407         -DE/DX =    0.0                 !
 ! A32   A(3,14,21)            120.8763         -DE/DX =    0.0                 !
 ! A33   A(15,14,21)           120.183          -DE/DX =    0.0                 !
 ! A34   A(14,15,16)           120.5406         -DE/DX =    0.0                 !
 ! A35   A(14,15,20)           119.7816         -DE/DX =    0.0                 !
 ! A36   A(16,15,20)           119.6778         -DE/DX =    0.0                 !
 ! A37   A(15,16,17)           120.5188         -DE/DX =    0.0                 !
 ! A38   A(15,16,19)           119.7179         -DE/DX =    0.0                 !
 ! A39   A(17,16,19)           119.7633         -DE/DX =    0.0                 !
 ! A40   A(2,17,16)            119.2258         -DE/DX =    0.0                 !
 ! A41   A(2,17,18)            120.9862         -DE/DX =    0.0                 !
 ! A42   A(16,17,18)           119.788          -DE/DX =    0.0                 !
 ! A43   A(1,22,23)            111.0822         -DE/DX =    0.0                 !
 ! A44   A(1,22,24)            110.6488         -DE/DX =    0.0                 !
 ! A45   A(1,22,25)            110.6478         -DE/DX =    0.0                 !
 ! A46   A(23,22,24)           108.2293         -DE/DX =    0.0                 !
 ! A47   A(23,22,25)           108.2305         -DE/DX =    0.0                 !
 ! A48   A(24,22,25)           107.8916         -DE/DX =    0.0                 !
 ! A49   A(1,26,27)            110.6478         -DE/DX =    0.0                 !
 ! A50   A(1,26,28)            110.649          -DE/DX =    0.0                 !
 ! A51   A(1,26,29)            111.0818         -DE/DX =    0.0                 !
 ! A52   A(27,26,28)           107.8921         -DE/DX =    0.0                 !
 ! A53   A(27,26,29)           108.2301         -DE/DX =    0.0                 !
 ! A54   A(28,26,29)           108.2294         -DE/DX =    0.0                 !
 ! D1    D(5,1,2,3)             -0.0026         -DE/DX =    0.0                 !
 ! D2    D(5,1,2,17)           179.9987         -DE/DX =    0.0                 !
 ! D3    D(22,1,2,3)          -118.4605         -DE/DX =    0.0                 !
 ! D4    D(22,1,2,17)           61.5408         -DE/DX =    0.0                 !
 ! D5    D(26,1,2,3)           118.4496         -DE/DX =    0.0                 !
 ! D6    D(26,1,2,17)          -61.5491         -DE/DX =    0.0                 !
 ! D7    D(2,1,5,4)              0.0028         -DE/DX =    0.0                 !
 ! D8    D(2,1,5,6)           -179.9981         -DE/DX =    0.0                 !
 ! D9    D(22,1,5,4)           118.4585         -DE/DX =    0.0                 !
 ! D10   D(22,1,5,6)           -61.5423         -DE/DX =    0.0                 !
 ! D11   D(26,1,5,4)          -118.447          -DE/DX =    0.0                 !
 ! D12   D(26,1,5,6)            61.5522         -DE/DX =    0.0                 !
 ! D13   D(2,1,22,23)           56.0637         -DE/DX =    0.0                 !
 ! D14   D(2,1,22,24)          176.2992         -DE/DX =    0.0                 !
 ! D15   D(2,1,22,25)          -64.1727         -DE/DX =    0.0                 !
 ! D16   D(5,1,22,23)          -56.0466         -DE/DX =    0.0                 !
 ! D17   D(5,1,22,24)           64.1888         -DE/DX =    0.0                 !
 ! D18   D(5,1,22,25)         -176.283          -DE/DX =    0.0                 !
 ! D19   D(26,1,22,23)         180.0053         -DE/DX =    0.0                 !
 ! D20   D(26,1,22,24)         -59.7592         -DE/DX =    0.0                 !
 ! D21   D(26,1,22,25)          59.7689         -DE/DX =    0.0                 !
 ! D22   D(2,1,26,27)           64.1648         -DE/DX =    0.0                 !
 ! D23   D(2,1,26,28)         -176.3063         -DE/DX =    0.0                 !
 ! D24   D(2,1,26,29)          -56.0708         -DE/DX =    0.0                 !
 ! D25   D(5,1,26,27)          176.2708         -DE/DX =    0.0                 !
 ! D26   D(5,1,26,28)          -64.2003         -DE/DX =    0.0                 !
 ! D27   D(5,1,26,29)           56.0352         -DE/DX =    0.0                 !
 ! D28   D(22,1,26,27)         -59.7791         -DE/DX =    0.0                 !
 ! D29   D(22,1,26,28)          59.7497         -DE/DX =    0.0                 !
 ! D30   D(22,1,26,29)        -180.0147         -DE/DX =    0.0                 !
 ! D31   D(1,2,3,4)              0.0016         -DE/DX =    0.0                 !
 ! D32   D(1,2,3,14)          -179.9982         -DE/DX =    0.0                 !
 ! D33   D(17,2,3,4)          -179.9995         -DE/DX =    0.0                 !
 ! D34   D(17,2,3,14)            0.0007         -DE/DX =    0.0                 !
 ! D35   D(1,2,17,16)          179.9981         -DE/DX =    0.0                 !
 ! D36   D(1,2,17,18)           -0.0022         -DE/DX =    0.0                 !
 ! D37   D(3,2,17,16)           -0.0005         -DE/DX =    0.0                 !
 ! D38   D(3,2,17,18)          179.9991         -DE/DX =    0.0                 !
 ! D39   D(2,3,4,5)              0.0003         -DE/DX =    0.0                 !
 ! D40   D(2,3,4,9)           -180.0006         -DE/DX =    0.0                 !
 ! D41   D(14,3,4,5)           180.0            -DE/DX =    0.0                 !
 ! D42   D(14,3,4,9)            -0.0008         -DE/DX =    0.0                 !
 ! D43   D(2,3,14,15)           -0.0004         -DE/DX =    0.0                 !
 ! D44   D(2,3,14,21)          179.9998         -DE/DX =    0.0                 !
 ! D45   D(4,3,14,15)         -180.0001         -DE/DX =    0.0                 !
 ! D46   D(4,3,14,21)            0.0001         -DE/DX =    0.0                 !
 ! D47   D(3,4,5,1)             -0.002          -DE/DX =    0.0                 !
 ! D48   D(3,4,5,6)            179.9988         -DE/DX =    0.0                 !
 ! D49   D(9,4,5,1)            179.9987         -DE/DX =    0.0                 !
 ! D50   D(9,4,5,6)             -0.0005         -DE/DX =    0.0                 !
 ! D51   D(3,4,9,8)            180.0012         -DE/DX =    0.0                 !
 ! D52   D(3,4,9,10)             0.0009         -DE/DX =    0.0                 !
 ! D53   D(5,4,9,8)              0.0003         -DE/DX =    0.0                 !
 ! D54   D(5,4,9,10)          -180.0            -DE/DX =    0.0                 !
 ! D55   D(1,5,6,7)           -179.9986         -DE/DX =    0.0                 !
 ! D56   D(1,5,6,13)             0.0013         -DE/DX =    0.0                 !
 ! D57   D(4,5,6,7)              0.0004         -DE/DX =    0.0                 !
 ! D58   D(4,5,6,13)          -179.9997         -DE/DX =    0.0                 !
 ! D59   D(5,6,7,8)             -0.0002         -DE/DX =    0.0                 !
 ! D60   D(5,6,7,12)           180.0001         -DE/DX =    0.0                 !
 ! D61   D(13,6,7,8)           179.9999         -DE/DX =    0.0                 !
 ! D62   D(13,6,7,12)            0.0002         -DE/DX =    0.0                 !
 ! D63   D(6,7,8,9)              0.0            -DE/DX =    0.0                 !
 ! D64   D(6,7,8,11)           180.0002         -DE/DX =    0.0                 !
 ! D65   D(12,7,8,9)           179.9997         -DE/DX =    0.0                 !
 ! D66   D(12,7,8,11)           -0.0001         -DE/DX =    0.0                 !
 ! D67   D(7,8,9,4)              0.0            -DE/DX =    0.0                 !
 ! D68   D(7,8,9,10)           180.0003         -DE/DX =    0.0                 !
 ! D69   D(11,8,9,4)          -180.0003         -DE/DX =    0.0                 !
 ! D70   D(11,8,9,10)            0.0            -DE/DX =    0.0                 !
 ! D71   D(3,14,15,16)          -0.0001         -DE/DX =    0.0                 !
 ! D72   D(3,14,15,20)         179.9999         -DE/DX =    0.0                 !
 ! D73   D(21,14,15,16)        179.9997         -DE/DX =    0.0                 !
 ! D74   D(21,14,15,20)         -0.0003         -DE/DX =    0.0                 !
 ! D75   D(14,15,16,17)          0.0003         -DE/DX =    0.0                 !
 ! D76   D(14,15,16,19)       -179.9996         -DE/DX =    0.0                 !
 ! D77   D(20,15,16,17)       -179.9997         -DE/DX =    0.0                 !
 ! D78   D(20,15,16,19)          0.0004         -DE/DX =    0.0                 !
 ! D79   D(15,16,17,2)           0.0            -DE/DX =    0.0                 !
 ! D80   D(15,16,17,18)       -179.9996         -DE/DX =    0.0                 !
 ! D81   D(19,16,17,2)        -180.0001         -DE/DX =    0.0                 !
 ! D82   D(19,16,17,18)          0.0003         -DE/DX =    0.0                 !
 --------------------------------------------------------------------------------
 GradGradGradGradGradGradGradGradGradGradGradGradGradGradGradGradGradGrad

 Leave Link  103 at Wed Mar 11 15:06:50 2026, MaxMem=   104857600 cpu:               0.0 elap:               0.0
 (Enter /sw/cluster/pub/apps//g16/l9999.exe)

 ----------------------------------------------------------------------

 Electric dipole moment (input orientation):
 (Debye = 10**-18 statcoulomb cm , SI units = C m)
                  (au)            (Debye)         (10**-30 SI)
   Tot        0.195955D+00      0.498068D+00      0.166138D+01
   x         -0.129133D+00     -0.328223D+00     -0.109483D+01
   y         -0.147379D+00     -0.374599D+00     -0.124953D+01
   z          0.165868D-02      0.421595D-02      0.140629D-01

 Dipole polarizability, Alpha (input orientation).
 (esu units = cm**3 , SI units = C**2 m**2 J**-1)
 Alpha(0;0):
               (au)            (10**-24 esu)      (10**-40 SI)
   iso        0.172877D+03      0.256177D+02      0.285035D+02
   aniso      0.117115D+03      0.173546D+02      0.193096D+02
   xx         0.212292D+03      0.314585D+02      0.350023D+02
   yx        -0.260120D+02     -0.385458D+01     -0.428880D+01
   yy         0.205363D+03      0.304317D+02      0.338598D+02
   zx         0.128670D+01      0.190669D+00      0.212148D+00
   zy        -0.205387D+01     -0.304353D+00     -0.338638D+00
   zz         0.100975D+03      0.149629D+02      0.166485D+02

 ----------------------------------------------------------------------

 Dipole orientation:
     6          0.05609613          0.05079510         -0.02375675
     6          1.75555219         -1.38713518         -1.85391214
     6          1.11317545         -0.84392277         -4.36925834
     6         -1.00071905          0.94454409         -4.36952490
     6         -1.64312439          1.48833993         -1.85431942
     6         -3.60005584          3.14413140         -1.32287376
     6         -4.91838535          4.25932214         -3.31362112
     6         -4.27927651          3.71830388         -5.80961892
     6         -2.31627802          2.05738771         -6.35603587
     1         -1.82877059          1.64470905         -8.30082477
     1         -5.32008167          4.59874699         -7.33563760
     1         -6.45084356          5.55596306         -2.91713564
     1         -4.11597659          3.58086244          0.61047777
     6          2.42867866         -1.95713500         -6.35559763
     6          4.39171668         -3.61790328         -5.80888070
     6          5.03083673         -4.15833744         -3.31276018
     6          3.71253827         -3.04276817         -1.32220320
     1          4.22861541         -3.47915269          0.61118948
     1          6.56333462         -5.45484845         -2.91598787
     1          5.43256019         -4.49869183         -7.33467112
     1          1.94101060         -1.54476050         -8.30040646
     6          1.59571969          1.87068447          1.64876372
     1          2.70099042          3.17726983          0.50035643
     1          0.34621995          2.97644800          2.86263236
     1          2.89330557          0.82165598          2.86253000
     6         -1.48370175         -1.76907255          1.64869925
     1         -0.23424302         -2.87525606          2.86222276
     1         -2.78095919         -0.72001128          2.86279522
     1         -2.58937585         -3.07524926          0.50021535

 Electric dipole moment (dipole orientation):
 (Debye = 10**-18 statcoulomb cm , SI units = C m)
                  (au)            (Debye)         (10**-30 SI)
   Tot        0.195955D+00      0.498068D+00      0.166138D+01
   x          0.000000D+00      0.000000D+00      0.000000D+00
   y          0.000000D+00      0.000000D+00      0.000000D+00
   z          0.195955D+00      0.498068D+00      0.166138D+01

 Dipole polarizability, Alpha (dipole orientation).
 (esu units = cm**3 , SI units = C**2 m**2 J**-1)
 Alpha(0;0):
               (au)            (10**-24 esu)      (10**-40 SI)
   iso        0.172877D+03      0.256177D+02      0.285035D+02
   aniso      0.117115D+03      0.173546D+02      0.193096D+02
   xx         0.179131D+03      0.265444D+02      0.295347D+02
   yx        -0.661641D+02     -0.980450D+01     -0.109090D+02
   yy         0.156908D+03      0.232513D+02      0.258706D+02
   zx         0.624381D-02      0.925237D-03      0.102947D-02
   zy         0.243156D-02      0.360320D-03      0.400910D-03
   zz         0.182592D+03      0.270574D+02      0.301054D+02

 ----------------------------------------------------------------------
 1\1\GINC-N07\Freq\RB3LYP\def2TZVP\C15H14\UNKNOWN\11-Mar-2026\0\\#P Geo
 m=AllCheck Guess=TCheck SCRF=Check GenChk RB3LYP/def2TZVP Freq\\OPT FR
 EQ F1 def2TZVP\\0,1\C,0.011975837,0.0066684585,0.0396718383\C,1.536209
 2357,-0.041033181,0.0518230473\C,2.0785440083,1.2533484661,0.032740917
 \C,0.9765845925,2.2187844933,0.0073786702\C,-0.2355098855,1.511170114,
 0.0110519955\C,-1.4410910126,2.193336925,-0.0099962102\C,-1.4341178798
 ,3.5876306899,-0.0348037313\C,-0.2304371717,4.2891032122,-0.0384351183
 \C,0.9835255948,3.6101262796,-0.0173778659\H,1.9159316433,4.1614679678
 ,-0.0203284983\H,-0.2408554623,5.3717149818,-0.0578104738\H,-2.3713353
 336,4.1296658746,-0.0513733437\H,-2.3843249472,1.6595255463,-0.0074324
 398\C,3.4571062008,1.4431137128,0.0395358167\C,4.2898415256,0.32909804
 21,0.0655621631\C,3.7525073909,-0.9561393355,0.0845282249\C,2.37101918
 11,-1.1463085598,0.0777155393\H,1.9657876023,-2.1514057425,0.092664430
 8\H,4.4130758099,-1.8138680144,0.1047165978\H,5.3645971349,0.461003594
 7,0.0711435199\H,3.8811229163,2.4397871425,0.0248867999\C,-0.580686987
 5,-0.6365427325,1.3083741497\H,-0.1870012172,-0.1633412982,2.208679042
 6\H,-1.6680468079,-0.5377643685,1.3181715147\H,-0.3401661467,-1.700833
 1456,1.3487998832\C,-0.5618896322,-0.6813569397,-1.2140995487\H,-0.320
 9203294,-1.7463143899,-1.2132054077\H,-1.6489713597,-0.5834235907,-1.2
 43522639\H,-0.1548245002,-0.2402052027,-2.1246708745\\Version=ES64L-G1
 6RevA.03\State=1-A\HF=-580.2573361\RMSD=4.215e-09\RMSF=2.516e-05\ZeroP
 oint=0.2430017\Thermal=0.2549428\Dipole=-0.1291327,-0.1473786,0.001658
 7\DipoleDeriv=0.0836723,-0.0475915,0.0001317,-0.0475657,0.0711039,0.00
 15348,0.000106,0.0015061,0.1780072,0.1550705,0.0774725,0.000622,0.1675
 357,-0.2468575,0.0036584,-0.0009838,0.0029981,-0.1115064,0.094928,-0.0
 761724,0.002076,-0.2678081,0.073317,-0.0033335,0.0054874,-0.0019132,-0
 .0023843,0.118555,-0.2647147,0.0056117,-0.0730365,0.049733,-0.0014734,
 0.002206,-0.0028938,-0.0023966,-0.2718867,0.1109465,-0.0031623,0.02088
 78,0.1799664,-0.0050093,-0.0015539,-0.0043378,-0.1113766,0.170508,0.02
 28684,0.0017327,-0.0072922,-0.03225,-0.0016167,0.0022707,-0.0013879,-0
 .1193475,0.0368086,-0.0222463,0.0017366,0.0952714,-0.100736,-0.000081,
 -0.0003655,-0.0009487,-0.1449515,-0.1480712,0.0758296,-0.0013606,-0.03
 40559,0.1096861,-0.0048365,0.000604,-0.0040263,-0.1473082,0.0477749,0.
 0735881,-0.0001572,0.055967,-0.0152504,-0.0012523,0.0001514,-0.0011179
 ,-0.1086237,-0.0535062,-0.0896661,0.0002943,-0.0558603,0.031739,0.0012
 199,-0.0003099,0.0009708,0.1232867,0.0605561,0.0069686,-0.000662,0.019
 3038,-0.1249805,0.00475,-0.0008811,0.0046586,0.1333787,-0.0677471,0.08
 68243,-0.0030382,0.0803027,0.0077807,0.0028501,-0.0029189,0.0028974,0.
 1343966,-0.056464,-0.0600351,-0.0001958,-0.097739,0.0273606,0.0008483,
 0.000475,0.001125,0.1153511,-0.031048,0.0455197,-0.0002394,0.0631151,0
 .0635191,-0.0026048,-0.0005469,-0.0027325,-0.1086018,0.0998831,-0.0012
 08,0.0018441,0.1086766,-0.1381648,0.0006354,-0.0001202,-0.0001724,-0.1
 473683,-0.10786,0.0760838,-0.0010786,-0.0414065,0.0438804,-0.003675,0.
 0010176,-0.0028085,-0.144919,-0.0307857,-0.0339602,0.00125,-0.0038315,
 0.1689715,-0.0051724,0.0007131,-0.0054029,-0.1192795,0.0464475,-0.0840
 808,0.0009907,-0.0463947,-0.0755336,0.0030639,0.0003193,0.0027852,0.11
 53177,-0.01534,0.0872472,-0.0026644,0.0937751,-0.0446229,0.0038891,-0.
 0027808,0.0038426,0.1343805,-0.1252714,-0.0053255,-0.0018157,-0.017646
 9,0.060799,0.0011663,-0.0015949,0.0012571,0.1334337,0.0492219,-0.04222
 55,0.0002055,-0.0760512,-0.0709404,0.0029035,0.0008097,0.0031515,0.123
 2562,0.0371642,0.0248754,0.0078374,0.0235751,0.0426826,0.009392,-0.041
 3484,-0.0467372,0.0324496,0.0386089,-0.0283224,-0.0654436,-0.0274594,0
 .0284906,-0.0784264,-0.0328239,-0.0411778,-0.078786,-0.1660749,-0.0199
 128,0.0329227,0.0249699,0.0684105,0.0100678,0.0016732,0.0158672,0.0431
 777,0.0631377,0.0554398,0.0049027,0.0100173,-0.1603385,0.0388878,0.015
 806,0.0098518,0.0427436,0.0366834,0.0239004,-0.0086232,0.0251654,0.043
 9911,-0.0094246,0.0405822,0.0467214,0.0315887,0.0634488,0.0553406,-0.0
 065702,0.0099985,-0.1617881,-0.031484,-0.0158668,-0.0017844,0.0438806,
 -0.165526,-0.0209089,-0.0353027,0.0249617,0.0674567,-0.0105796,-0.0056
 739,-0.0170459,0.0435673,0.0371123,-0.0265346,0.0681557,-0.0273753,0.0
 325746,0.0741022,0.0355471,0.0368545,-0.0813665\Polar=212.292471,-26.0
 120222,205.3633336,1.2866971,-2.0538728,100.9746664\Quadrupole=3.00566
 41,3.1579012,-6.1635653,0.5844058,0.0572846,-0.1619703\PG=C01 [X(C15H1
 4)]\NImag=0\\0.47437172,0.02852741,0.48197821,-0.00016265,-0.00081226,
 0.42553601,-0.16012911,0.01428590,-0.00091196,0.60950189,-0.00582776,-
 0.08782914,0.00025498,-0.06639603,0.69657755,-0.00055481,0.00040398,-0
 .07121318,0.00434633,-0.00966561,0.18252677,-0.02259431,-0.02342991,0.
 00021963,-0.14461121,-0.03413932,0.00010306,0.74271406,-0.01715321,-0.
 00421294,0.00002576,-0.09284029,-0.25117264,0.00243464,0.01966024,0.59
 647894,0.00010564,-0.00001967,0.00442213,0.00115124,0.00286773,-0.0762
 8432,0.00397931,-0.00770072,0.15678208,0.00075424,-0.01405932,0.000222
 13,0.00899233,0.01742161,-0.00030264,-0.16754566,0.06650795,-0.0019639
 9,0.59401280,-0.02033712,-0.02755267,0.00042122,0.01838015,-0.05422531
 ,0.00124438,0.05190042,-0.15182679,0.00198006,-0.00005611,0.74513435,0
 .00033514,0.00046555,0.00441446,-0.00032021,0.00123794,0.00793252,-0.0
 0170319,0.00208771,-0.06236805,0.00323047,-0.01049448,0.15682481,-0.09
 018571,0.00344620,-0.00020093,-0.02512151,0.03524752,-0.00082856,-0.05
 781958,0.00856881,-0.00063846,-0.23285084,-0.04583276,-0.00033885,0.71
 253892,0.02355826,-0.15780329,0.00171833,0.02340439,-0.01734110,0.0005
 1978,0.00952711,0.01256347,-0.00001175,-0.10453459,-0.16296683,0.00077
 525,-0.05273808,0.59362810,-0.00055846,0.00156872,-0.07123359,-0.00061
 985,0.00060973,0.00214028,-0.00065634,-0.00001852,0.00795336,0.0007086
 2,0.00120733,-0.07625729,0.00484979,-0.00771769,0.18249786,0.00537100,
 0.00859054,-0.00011210,0.00084309,-0.00356872,0.00006806,-0.00092564,-
 0.00427012,0.00003524,-0.05720643,-0.01948545,-0.00013464,-0.28956130,
 0.11164816,-0.00366263,0.71911671,0.02352525,-0.01289474,0.00040118,-0
 .00096994,-0.00459212,0.00007837,-0.00653629,-0.00014472,0.00003687,0.
 02409580,0.05916249,-0.00073182,0.05724695,-0.17327297,0.00239272,0.03
 311096,0.66501988,-0.00037852,0.00029153,-0.00009189,0.00002176,0.0000
 5904,0.00019606,0.00007542,0.00005366,0.00462638,-0.00091199,-0.001053
 24,0.00818310,-0.00269221,0.00279437,-0.06277768,0.00374328,-0.0092720
 8,0.13138706,-0.00429773,0.00183227,-0.00011224,-0.00099002,-0.0001775
 0,-0.00000545,-0.00174493,0.00187287,-0.00003841,-0.01581183,-0.032062
 03,0.00049769,0.03163489,0.03238851,-0.00038593,-0.12694715,0.02990088
 ,-0.00104760,0.71120216,0.00330229,0.00537219,0.00004560,0.00077825,-0
 .00276403,0.00005751,0.00038800,-0.00022035,-0.00001229,-0.02970390,-0
 .04933016,0.00055810,0.07881955,-0.03091338,0.00123390,-0.03576325,-0.
 32169033,0.00445174,-0.03635430,0.66662053,-0.00013849,0.00003364,0.00
 651241,-0.00002231,0.00005062,0.00015656,-0.00001187,-0.00000134,-0.00
 106953,0.00045538,0.00054057,-0.00575383,-0.00121406,0.00089150,0.0056
 7573,0.00012329,0.00493627,-0.05726925,0.00496290,-0.00990934,0.126022
 62,-0.00262059,-0.00300347,0.00004035,0.00059249,0.00462893,-0.0000775
 7,0.00442557,-0.00713021,0.00010967,0.03044032,0.07903593,-0.00122210,
 -0.06604701,0.00137116,-0.00047578,0.03339979,-0.07553535,0.00155524,-
 0.27194825,-0.05153558,-0.00066222,0.64951561,-0.00058276,0.00004814,-
 0.00002197,0.00038433,-0.00127084,0.00002485,-0.00368390,-0.00311390,0
 .00014960,0.03264063,-0.03050555,0.00087513,-0.00199470,0.00094611,-0.
 00011724,-0.02808363,-0.02982211,0.00041649,-0.11741738,-0.17784573,0.
 00128023,-0.00242098,0.73442800,-0.00000211,-0.00003952,-0.00092828,-0
 .00000222,0.00005619,-0.00003561,0.00004805,0.00012430,0.00680280,-0.0
 0039469,0.00121717,0.00503753,-0.00041598,-0.00009281,-0.00482126,0.00
 070892,0.00006669,0.00516027,0.00051220,0.00176590,-0.05750357,0.00390
 663,-0.01087274,0.12575848,-0.00349106,-0.00076149,-0.00005883,-0.0054
 0819,0.00006884,-0.00005953,0.00721739,0.02818811,-0.00045683,-0.12818
 388,-0.03536696,0.00014580,0.03192885,-0.02933833,0.00071518,-0.016430
 14,0.02950038,-0.00061475,-0.06022127,-0.02389373,-0.00005563,-0.28169
 833,0.11754931,-0.00376427,0.71438095,-0.00283691,-0.00167678,0.000122
 82,0.00201937,0.00654113,-0.00005754,0.01052963,-0.02367736,0.00051818
 ,0.01461505,-0.32142690,0.00472424,-0.06816503,-0.02488303,0.00004511,
 0.02645117,-0.04702005,0.00095521,0.02444209,0.06178470,-0.00083027,0.
 05373796,-0.17531628,0.00253330,0.03680389,0.67257057,-0.00002264,0.00
 013841,0.00640783,-0.00009406,-0.00007219,0.00245787,-0.00014208,0.000
 64860,0.00101043,-0.00074504,0.00435576,-0.06258836,0.00140766,0.00033
 095,0.00582948,-0.00056023,0.00097739,-0.00442189,-0.00091753,-0.00118
 670,0.00511260,-0.00262696,0.00300411,-0.05550021,0.00367189,-0.009443
 70,0.12786376,-0.00003342,0.00029433,-0.00000577,0.00009725,-0.0003001
 1,0.00000639,-0.00051324,0.00030105,0.00001398,0.00364047,-0.00040476,
 0.00001717,0.00173254,0.00073991,-0.00005440,0.00018402,0.00061336,-0.
 00000360,-0.00288279,0.00418625,-0.00015403,-0.01925735,-0.01658004,0.
 00014156,-0.26126152,-0.11898441,0.00044655,0.27790468,-0.00147437,-0.
 00017426,-0.00000700,-0.00026296,-0.00011669,-0.00000067,-0.00012903,0
 .00173390,-0.00008782,-0.02959540,-0.01035403,0.00000707,0.00173538,-0
 .00517386,0.00023554,0.00078302,-0.00084763,0.00000643,0.00313660,-0.0
 0073751,0.00017679,0.01442148,0.01191574,-0.00007717,-0.12052801,-0.13
 166392,0.00084742,0.13063437,0.13507615,0.00002582,0.00000597,0.000039
 38,0.00000570,-0.00000092,-0.00004475,0.00002168,-0.00008467,-0.003136
 47,0.00053755,0.00022225,0.00229207,-0.00007205,0.00022836,0.00731587,
 -0.00000668,0.00000522,-0.00081190,-0.00013534,0.00018449,0.00787784,-
 0.00041097,-0.00030592,0.00162095,0.00047392,0.00085899,-0.03426908,-0
 .00045421,-0.00102038,0.02379946,0.00002464,-0.00001595,0.00000618,-0.
 00037035,0.00025018,-0.00000515,0.00075778,0.00090409,-0.00001423,-0.0
 0476475,0.00248113,-0.00013766,-0.00135861,0.00011501,-0.00000362,-0.0
 0437390,-0.00231463,-0.00004506,0.00462808,-0.02863128,0.00053606,-0.0
 5957164,0.00253236,-0.00023739,0.00397965,0.02872672,-0.00049187,0.001
 10742,-0.00056492,0.00004559,0.05880065,0.00005036,0.00001431,-0.00001
 370,0.00026370,-0.00018845,0.00000036,-0.00062341,-0.00027539,0.000009
 26,0.00315717,0.00067819,0.00015202,-0.00009862,0.00071307,-0.00003387
 ,-0.00312930,0.00052852,0.00009827,0.00257701,-0.01218710,0.00025672,0
 .00255034,-0.33461512,0.00538659,-0.00204409,-0.01169164,0.00021540,0.
 00026837,0.00088123,-0.00007983,-0.00286505,0.35612212,0.00000502,-0.0
 0001420,-0.00077534,-0.00000538,0.00000022,-0.00027810,0.00001297,0.00
 002055,0.00050241,-0.00014970,0.00014704,0.00789556,0.00000021,-0.0000
 3226,-0.00114497,-0.00003052,0.00010426,0.00733365,-0.00002024,0.00002
 667,0.00114766,-0.00023770,0.00538638,-0.03359358,0.00005661,0.0004423
 6,0.00123006,0.00003074,-0.00008598,-0.00370627,0.00030270,-0.00592961
 ,0.02477984,0.00012123,-0.00029831,0.00000244,0.00000013,0.00005211,-0
 .00000120,0.00009713,0.00001418,0.00000537,0.00019828,-0.00098056,0.00
 002748,0.00172419,-0.00045265,-0.00003270,0.00353335,-0.00191290,0.000
 04778,-0.26589426,0.11923399,-0.00384126,-0.01923860,0.01609617,-0.000
 43810,-0.00301103,-0.00394154,-0.00000569,-0.00101679,0.00076239,-0.00
 002228,0.00101712,-0.00029461,0.00003891,0.28170968,0.00129731,0.00045
 233,0.00001070,-0.00009455,-0.00057527,0.00001020,0.00006124,0.0001075
 4,-0.00001334,-0.00081797,-0.00090704,-0.00001051,-0.00116285,-0.00597
 289,0.00022722,0.02880665,-0.01121346,0.00044211,0.11930134,-0.1284260
 0,0.00257885,-0.01508251,0.01169124,-0.00029690,-0.00311968,-0.0008405
 6,0.00012204,-0.00080565,0.00035478,-0.00000943,0.00056080,0.00087265,
 -0.00007471,-0.12889412,0.13327775,-0.00002610,-0.00000113,0.00051172,
 0.00000147,0.00001131,0.00003747,0.00000458,-0.00001372,-0.00066591,0.
 00002456,-0.00001166,-0.00115787,-0.00002010,0.00023252,0.00725231,-0.
 00049988,0.00021572,0.00167049,-0.00384231,0.00257826,-0.03316307,0.00
 011766,-0.00006710,0.00127398,-0.00002039,0.00011599,0.00729294,0.0000
 0570,0.00000214,0.00015973,0.00002367,-0.00008101,-0.00354870,0.004195
 38,-0.00289408,0.02430426,0.00081476,-0.00127625,0.00005519,-0.0002366
 6,0.00009900,-0.00000205,-0.00088030,-0.00119932,0.00001412,-0.0023208
 0,0.00392800,-0.00014433,-0.02043211,-0.01597485,0.00011007,-0.2655408
 3,-0.11608531,0.00037650,0.00309495,0.00149111,-0.00001854,0.00191096,
 0.00035402,-0.00004774,0.00001702,0.00089825,-0.00001141,-0.00003750,-
 0.00014261,0.00001274,-0.00001010,0.00017092,-0.00000443,0.00081715,-0
 .00038086,0.00003986,0.28245021,-0.00048084,-0.00002021,-0.00006691,0.
 00008325,0.00031327,-0.00000852,0.00062407,0.00047894,-0.00000208,0.00
 316837,-0.00094508,0.00017866,0.01250603,0.01311329,-0.00008325,-0.114
 35390,-0.12500943,0.00074629,-0.02963656,-0.01086729,0.00001094,0.0014
 4270,-0.00552921,0.00024351,0.00075348,-0.00069258,0.00000705,-0.00008
 128,0.00008851,-0.00002752,-0.00138771,-0.00067225,0.00000494,0.000450
 80,0.00118948,-0.00008332,0.12665656,0.12938075,0.00004090,-0.00007262
 ,-0.00357240,-0.00000172,-0.00000839,-0.00020190,-0.00001837,-0.000015
 53,0.00010445,-0.00013086,0.00018423,0.00776048,-0.00039768,-0.0002931
 3,0.00327185,0.00034577,0.00073339,-0.03587424,0.00053644,0.00024055,0
 .00200311,-0.00006724,0.00023549,0.00752925,-0.00000881,0.00000807,-0.
 00060929,0.00001166,-0.00002797,-0.00142094,0.00002336,0.00001642,0.00
 017779,0.00002503,-0.00008944,-0.00366875,-0.00035821,-0.00093228,0.02
 473610,-0.00124134,-0.00253849,-0.00001169,-0.01120344,-0.07387992,0.0
 0119263,-0.31545924,-0.01021281,-0.00168628,-0.02819962,0.00583617,-0.
 00031979,0.00606363,0.00354025,-0.00003610,-0.00217240,0.00183039,-0.0
 0005038,0.00046177,-0.00144627,0.00002934,-0.00086504,-0.00018437,-0.0
 0000091,0.00174380,-0.00435672,0.00008335,0.00037713,-0.00030469,0.000
 01153,0.00005476,-0.00001228,0.00000051,-0.00005829,-0.00000372,-0.000
 00075,-0.00011354,0.00011295,-0.00000139,0.66384831,-0.00046316,-0.003
 92526,0.00018151,-0.03505294,0.01823973,-0.00048075,-0.06020051,-0.134
 20779,0.00083472,0.02349743,0.01172455,-0.00001737,0.00159015,-0.00492
 764,0.00014333,0.00163472,0.00050687,0.00000730,0.00041379,0.00080364,
 -0.00001163,-0.00098069,-0.00010877,-0.00001062,0.00113871,0.00131690,
 0.00000242,-0.00010957,-0.00067613,0.00000329,0.00006701,-0.00008718,0
 .00000232,0.00000003,-0.00001276,0.00000110,0.00050044,-0.00026380,0.0
 0000486,0.03009425,0.72309988,-0.00004841,0.00016551,0.00640737,0.0004
 9942,-0.00076746,0.00584276,-0.00079379,0.00120409,-0.06253647,-0.0006
 3518,-0.00014781,0.00102248,-0.00000164,0.00015797,0.00245461,-0.00004
 702,0.00000875,0.00024042,-0.00000383,-0.00002541,-0.00001988,0.000013
 33,-0.00000475,-0.00029883,-0.00001466,-0.00003818,0.00098040,0.000008
 03,0.00000187,-0.00044509,-0.00000090,0.00000174,0.00001525,-0.0000007
 9,0.00000107,0.00004857,-0.00000832,0.00000202,-0.00019785,0.00342289,
 -0.01040065,0.12788092,0.00046937,-0.00017312,0.00001332,-0.00012597,0
 .00674198,-0.00008534,-0.04401473,0.02277293,-0.00076877,-0.00157861,-
 0.00447934,0.00001797,-0.00189227,0.00005506,-0.00001479,-0.00012627,-
 0.00058836,0.00001213,0.00021151,-0.00000134,0.00000033,0.00015970,0.0
 0049619,-0.00000728,0.00003003,-0.00006577,0.00000361,0.00008221,0.000
 42665,-0.00000688,-0.00003605,0.00001711,-0.00000025,0.00002126,0.0000
 4262,0.00000010,-0.00008507,0.00006098,-0.00000188,-0.19951277,0.12844
 310,-0.00335572,0.73378306,-0.00259366,-0.00304083,0.00001786,0.010108
 26,-0.06495207,0.00114763,0.06916837,0.04392681,-0.00018271,-0.0079256
 7,0.00288782,0.00001144,0.00429971,0.00121320,0.00000985,-0.00172132,0
 .00163044,-0.00004795,-0.00000211,-0.00179224,0.00003497,0.00102815,0.
 00036165,0.00000018,-0.00086211,-0.00100356,0.00000622,-0.00001113,0.0
 0012635,-0.00000260,-0.00001057,-0.00000684,-0.00000073,-0.00001572,-0
 .00000464,-0.00000175,-0.00002173,0.00006948,-0.00000099,0.06463610,-0
 .25748331,0.00408216,0.00873766,0.65018698,0.00005669,0.00003639,-0.00
 092917,-0.00014581,0.00112283,-0.00484107,-0.00159664,-0.00052538,0.00
 506094,0.00007956,0.00003676,0.00680435,-0.00009047,-0.00002186,-0.000
 03486,0.00003238,-0.00003970,-0.00034963,0.00000035,0.00003502,0.00016
 915,-0.00001680,-0.00000372,-0.00005261,0.00001781,0.00001208,-0.00029
 909,0.00000093,0.00000061,-0.00001643,0.00000024,-0.00000052,-0.000043
 19,0.00000114,-0.00000129,-0.00009492,-0.00000041,-0.00000038,0.000022
 81,-0.00221723,0.00455363,-0.05552514,0.00433524,-0.00929708,0.1257347
 2,0.00453597,0.00447242,-0.00009364,-0.04433369,0.06875020,-0.00159640
 ,-0.04071844,-0.03300422,0.00033070,-0.00054099,0.00054750,-0.00000592
 ,-0.00281273,0.00053667,-0.00003184,0.00115956,-0.00085360,0.00002301,
 0.00019475,0.00156694,-0.00002574,-0.00175782,-0.00026233,-0.00000953,
 0.00093260,-0.00138386,0.00003168,0.00007914,0.00003873,0.00000037,-0.
 00002864,0.00004777,-0.00000089,-0.00000130,0.00002805,-0.00000068,-0.
 00011450,-0.00003324,-0.00000002,0.05962364,-0.00800704,0.00054569,-0.
 15749637,-0.03636910,-0.00008978,0.67701997,0.00300223,-0.00345851,0.0
 0020038,0.02231899,0.04503176,-0.00053641,-0.03536216,-0.02443491,0.00
 007239,0.00203188,-0.00142381,0.00002125,-0.00041908,-0.00094205,0.000
 01636,0.00033666,-0.00123750,0.00002617,0.00044545,0.00046130,-0.00000
 677,-0.00026308,0.00017647,-0.00000205,0.00047621,0.00033305,-0.000002
 78,0.00001768,0.00008387,-0.00000257,-0.00000204,-0.00002316,-0.000000
 02,0.00002712,-0.00003624,0.00000132,0.00005116,0.00000712,-0.00000032
 ,0.04032776,-0.05802522,0.00142419,-0.10225165,-0.29226373,0.00343462,
 -0.04087209,0.70079186,-0.00006840,0.00021101,0.00650993,-0.00076787,-
 0.00019385,0.00569820,0.00037258,0.00008952,-0.00574678,-0.00003236,0.
 00001040,-0.00107001,-0.00001459,0.00002360,0.00015704,0.00000189,0.00
 001746,0.00009345,-0.00000575,0.00000152,-0.00010256,-0.00000955,-0.00
 000206,0.00016977,-0.00000145,-0.00001653,-0.00002002,0.00000076,-0.00
 000239,-0.00006632,0.,0.00000035,-0.00002347,-0.00000069,0.00000132,0.
 00002596,-0.00000152,-0.00000094,-0.00003194,-0.00031663,0.00106718,0.
 00507764,0.00108589,0.00392161,-0.05753864,0.00480151,-0.01056353,0.12
 603351,-0.01676156,0.02058617,-0.00049148,-0.19732802,0.06948351,-0.00
 223561,0.05656774,0.03917744,-0.00034182,0.00124883,-0.00624860,0.0000
 8658,-0.00390767,-0.00159977,-0.00000169,-0.00008012,0.00235101,-0.000
 05371,-0.00112918,-0.00115693,0.00001164,0.00190165,-0.00031960,0.0000
 2231,0.00000910,0.00211965,-0.00003954,-0.00010862,0.00002452,-0.00000
 209,0.00014492,-0.00006855,0.00000278,-0.00000514,0.00015074,0.0000000
 9,0.00011722,-0.00006998,0.00000171,-0.05379561,0.02454674,-0.00080278
 ,-0.01523778,-0.08198145,0.00131225,-0.31763619,0.00462227,-0.00200657
 ,0.65746550,0.00565653,0.00923722,-0.00012383,0.12387785,-0.26548503,0
 .00453401,-0.00440402,-0.05458005,0.00108737,-0.00398170,-0.00231828,0
 .00009445,-0.00419857,0.00015742,-0.00003067,0.00103464,0.00036921,0.0
 0002830,0.00003336,0.00105050,-0.00001679,-0.00145256,-0.00039682,-0.0
 0000989,0.00192394,-0.00167399,0.00004832,0.00002344,0.00014743,-0.000
 00038,0.00008484,-0.00003300,0.00000003,0.00000387,0.00011519,-0.00000
 887,-0.00001955,-0.00006606,0.00000196,0.02149753,-0.00966540,0.000252
 76,-0.03452855,0.01880184,-0.00049861,-0.06104546,-0.13105256,0.000867
 18,0.02492395,0.72664436,-0.00022462,-0.00001367,-0.00008656,-0.003205
 40,0.00413275,-0.06280133,0.00043558,0.00140888,0.00814915,0.00004621,
 0.00007756,0.00462520,0.00004460,-0.00001149,0.00019763,-0.00003040,0.
 00003820,0.00152764,-0.00000969,-0.00002576,0.00009412,0.00004270,-0.0
 0000153,-0.00035021,-0.00003610,0.00004996,0.00023986,-0.00000208,-0.0
 0000036,0.00011674,0.00000005,-0.00000110,-0.00006640,0.00000272,-0.00
 000779,-0.00038394,0.00000083,0.00000160,0.00005257,-0.00074817,0.0002
 7512,-0.00441105,0.00046548,-0.00084878,0.00517483,-0.00083531,0.00135
 214,-0.05721238,0.00344445,-0.01044391,0.13140394,0.00022392,-0.000559
 45,0.00003795,0.01298916,0.01693539,-0.00023041,-0.00189606,0.00322483
 ,-0.00012894,0.00053047,0.00081113,-0.00001131,0.00028018,0.00015191,0
 .00000092,-0.00005124,-0.00009233,0.00000088,0.00000269,-0.00001768,0.
 00000057,0.00006169,0.00008043,-0.00000115,-0.00034115,0.00008274,-0.0
 0000252,0.00000531,-0.00000583,0.00000008,-0.00002782,0.00001467,-0.00
 000068,0.00000082,-0.00001192,0.00000022,-0.00002220,0.00001288,-0.000
 00042,-0.00089565,0.00063259,-0.00001342,-0.00563844,0.00044180,-0.000
 10518,-0.00696376,-0.03097150,0.00048651,-0.09742279,-0.09205414,0.001
 18847,0.09903578,-0.00135464,0.00057020,-0.00008400,-0.01154330,-0.020
 29623,0.00033527,0.00398433,-0.00136970,0.00019255,-0.00101236,-0.0009
 3142,0.00001099,0.00016766,-0.00020342,0.00000125,-0.00004192,0.000102
 33,-0.00000119,0.00006670,-0.00011008,0.00000188,-0.00000224,-0.000077
 25,0.00000177,0.00047024,-0.00003620,0.00000058,-0.00001987,0.00002173
 ,-0.00000038,0.00004822,-0.00003182,0.00000144,0.00001050,-0.00000210,
 0.00000011,0.00006945,-0.00001127,0.00000077,0.00077710,0.00021975,-0.
 00000906,-0.00064699,0.00201815,0.00009371,0.00015754,-0.00081513,0.00
 005150,-0.09378909,-0.29307082,0.00389840,0.10233175,0.31273549,0.0000
 5226,-0.00007812,-0.00357227,0.00027805,0.00054524,0.00326080,-0.00014
 238,0.00018691,0.00776066,0.00002120,0.00002445,0.00010423,0.00000063,
 0.00000117,-0.00020204,-0.00000004,-0.00000158,0.00005261,-0.00000094,
 0.00000126,-0.00003198,0.00000034,0.00000237,0.00002276,-0.00000945,-0
 .00000226,-0.00019779,0.00000033,-0.00000028,0.00000865,-0.00000128,0.
 00000119,0.00002896,-0.00000018,-0.00000006,-0.00000032,-0.00000142,0.
 00000035,0.00000299,-0.00001611,-0.00001007,-0.00060913,-0.00008583,0.
 00010157,0.00753156,-0.00006894,-0.00017855,0.00200665,0.00121917,0.00
 391184,-0.03592502,-0.00127769,-0.00438516,0.02479148,0.00031657,0.001
 32305,-0.00002499,-0.00563356,-0.00213778,-0.00005716,-0.00065355,-0.0
 0093097,0.00002034,0.00009777,0.00006133,0.00000455,-0.00055996,-0.000
 16881,-0.00000144,0.00009310,0.00016378,0.00000060,-0.00004285,0.00002
 254,-0.00000091,-0.00000767,0.00003879,-0.00000005,-0.00001308,0.00000
 227,-0.00000050,0.00000564,0.00002990,-0.00000093,-0.00000234,0.000009
 82,-0.00000029,-0.00000554,0.00002716,-0.00000124,-0.00000186,-0.00001
 228,0.00000021,0.00003958,-0.00271539,-0.00000515,0.01102791,-0.011071
 23,0.00026966,-0.16190275,0.13308075,-0.00332669,-0.01446824,0.0264208
 4,-0.00059082,0.00117529,-0.00033314,0.00004176,0.16945806,-0.00027245
 ,0.00025723,0.00000254,-0.00142778,0.00138240,0.00009427,-0.00109353,-
 0.00005541,-0.00002776,0.00001424,0.00010692,-0.00001369,-0.00002211,-
 0.00001533,0.00000078,0.00001689,0.00001697,-0.00000703,0.00002162,0.0
 0000528,0.00000053,-0.00001955,0.00002428,-0.00000227,0.00000603,-0.00
 005796,0.00000194,-0.00000345,0.00004953,0.00000015,0.00000323,-0.0000
 0902,0.00000042,0.00000912,-0.00000071,0.00000180,0.00001015,0.0000005
 8,0.00000006,-0.00353722,-0.00389062,0.00017350,0.02010741,-0.01856658
 ,0.00050260,0.13301424,-0.23238210,0.00453957,-0.00429926,0.00678062,-
 0.00012283,0.00049808,0.00083171,-0.00007667,-0.14376834,0.24549380,0.
 00000346,0.00001424,0.00051182,-0.00006976,0.00008894,0.00725413,0.000
 02338,-0.00002653,-0.00115770,0.00000535,-0.00001329,-0.00066568,-0.00
 000403,-0.00000023,0.00003760,0.00000324,-0.00000597,-0.00038399,-0.00
 000088,0.00000057,0.00002598,0.00000096,-0.00000184,-0.00009494,-0.000
 00055,0.00000189,0.00004856,-0.00000033,0.00000039,0.00005924,-0.00000
 017,0.00000047,0.00001297,-0.00000091,0.00000193,0.00009643,-0.0000001
 9,-0.00000011,-0.00000032,0.00000944,0.00017959,0.00729182,-0.00028678
 ,0.00027204,0.00126500,-0.00332541,0.00454022,-0.03319457,-0.00004268,
 0.00010421,0.00167586,0.00002690,-0.00008284,-0.00366892,0.00363883,-0
 .00501124,0.02433851,0.00001020,0.00004846,0.00000495,0.00067562,0.000
 17091,0.00001038,-0.00015223,0.00376845,-0.00012668,-0.00029442,-0.000
 76286,0.00000772,-0.00025854,0.00027852,-0.00000482,-0.00003204,-0.000
 09201,0.00000189,-0.00002921,0.00004770,-0.00000089,-0.00000819,0.0000
 2080,-0.00000011,-0.00009189,-0.00003172,-0.00000023,0.00002193,0.0000
 0794,-0.00000023,-0.00001869,0.00002499,-0.00000061,-0.00001061,0.0000
 0872,-0.00000033,-0.00003996,0.00001306,-0.00000074,-0.01489977,-0.004
 54665,-0.00003804,-0.33062078,-0.03336680,-0.00159838,-0.00850706,0.00
 083624,-0.00008624,0.00115119,-0.00239694,-0.00000286,-0.00050259,0.00
 010559,-0.00000691,0.00084187,-0.00031779,0.00003810,0.35183584,-0.000
 01787,0.00002871,-0.00001449,0.00038467,-0.00132063,0.00000597,0.00309
 223,-0.00393267,0.00023395,0.00076473,0.00077638,0.00000077,0.00026505
 ,-0.00030027,0.00000235,0.00006138,0.00014391,-0.00000330,-0.00000211,
 -0.00002260,-0.00000003,-0.00000687,-0.00003469,-0.00000020,0.00004759
 ,0.00005944,-0.00000044,-0.00001710,-0.00002868,0.00000098,0.00001582,
 -0.00001328,0.00000043,0.00000213,-0.00000076,0.00000026,0.00004661,-0
 .00001968,0.00000121,0.02622316,0.00718520,0.00008751,-0.03338258,-0.0
 6364967,0.00029158,-0.03037269,0.00094304,-0.00022063,-0.00158228,-0.0
 0499461,0.00020838,-0.00145293,-0.00018009,-0.00000437,0.00053750,0.00
 104792,-0.00007809,0.03596627,0.06317535,0.00000612,-0.00001399,-0.000
 77552,0.00000657,0.00000442,-0.00114541,-0.00011469,0.00023890,0.00789
 439,-0.00001951,-0.00001052,0.00050272,-0.00000460,0.00000243,-0.00027
 817,-0.00000084,-0.00000443,-0.00006635,0.,0.00000034,-0.00002347,0.00
 000038,0.,-0.00004320,-0.00000164,-0.00000102,0.00001527,0.00000022,0.
 00000117,0.00003347,-0.00000045,0.00000050,0.00000427,-0.00000021,0.00
 000031,0.00001298,-0.00000134,0.00000096,0.00002897,-0.00058706,-0.000
 13974,0.00123550,-0.00159800,0.00029173,-0.03351300,0.00047066,0.00000
 984,0.00115196,-0.00001749,0.00020235,0.00733210,0.00002091,0.00000717
 ,0.00017779,0.00002285,-0.00008441,-0.00354866,0.00177380,-0.00042149,
 0.02469220,-0.00001819,-0.00147230,0.00002591,-0.00538056,0.00079251,-
 0.00010798,-0.00620785,-0.03090294,0.00048855,0.00167399,0.00016073,0.
 00003267,-0.00003951,-0.00028112,0.00000504,0.00013679,0.00005704,-0.0
 0000087,0.00007650,0.00003840,0.00000037,0.00007144,0.00042519,-0.0000
 0693,-0.00060394,-0.00043470,0.00000659,-0.00014851,0.00076892,-0.0000
 1878,-0.00002662,0.00000150,-0.00000047,0.00004532,0.00003516,-0.00000
 073,0.00002481,-0.00000325,0.00000018,-0.10270610,-0.09949742,0.001269
 56,0.01166251,0.01851929,-0.00025620,-0.00173163,0.00328935,-0.0001296
 9,-0.00101182,0.00062458,-0.00001262,0.00011594,-0.00012228,0.00001353
 ,0.00033686,0.00094188,-0.00001551,0.00092492,-0.00058967,0.00004474,0
 .10351623,0.00029628,-0.00018960,0.00000629,-0.00020308,0.00193718,0.0
 0009453,-0.00171032,-0.00051167,0.00003739,0.00059121,-0.00045253,-0.0
 0004355,-0.00031826,0.00002007,-0.00000352,0.00005598,-0.00009788,0.00
 000424,0.00001733,0.00008654,-0.00000260,-0.00001257,0.00013703,-0.000
 00283,-0.00023957,0.00030486,-0.00001514,0.00033894,-0.00000151,0.0000
 1211,-0.00002353,0.00001987,0.00000007,0.00000180,0.00000986,0.0000008
 9,-0.00001728,0.00000224,-0.00000001,-0.09795811,-0.29017756,0.0038421
 7,-0.01248025,-0.01899017,0.00027549,0.00433888,-0.00188833,0.00020635
 ,0.00045459,0.00034787,-0.00001733,-0.00006094,-0.00006489,-0.00002465
 ,-0.00062624,-0.00099828,0.00001605,0.00024424,0.00106330,-0.00008332,
 0.10750836,0.30941620,-0.00000578,-0.00000673,0.00003914,-0.00009007,0
 .00010197,0.00731765,-0.00003240,-0.00017820,0.00229619,0.00002500,-0.
 00004675,-0.00313731,0.00000573,-0.00000326,-0.00004473,-0.00000086,0.
 00000426,0.00011673,0.00000074,-0.00000246,-0.00006630,0.00000090,0.00
 000040,-0.00001645,0.00000308,-0.00001657,-0.00044480,-0.00001110,0.00
 001528,0.00053672,-0.00000002,0.00000025,0.00003347,-0.00000013,0.0000
 0114,0.00005921,0.00000043,0.00000009,0.00000863,0.00124217,0.00383066
 ,-0.03431599,0.00029680,0.00050455,0.00161094,-0.00014841,0.00019861,0
 .00787740,-0.00000956,-0.00001610,-0.00081136,0.00001245,-0.00002512,-
 0.00142099,0.00001247,0.00002760,0.00015943,0.00002985,-0.00008949,-0.
 00370605,-0.00132912,-0.00430171,0.02385104,-0.08541164,-0.01074493,0.
 03092919,-0.01922238,-0.01529063,0.02802703,-0.00303806,0.00121788,-0.
 00015916,-0.00076557,0.00194829,0.00101494,0.00327584,-0.00263201,-0.0
 0605324,0.00035522,0.00155319,0.00017660,-0.00014799,-0.00033507,0.000
 27445,0.00000564,0.00045643,-0.00007421,0.00027933,-0.00038301,0.00024
 744,0.00001965,0.00015899,0.00001674,-0.00001316,-0.00003472,0.0000096
 2,-0.00001712,0.00008573,-0.00001913,-0.00043495,0.00017785,-0.0004074
 6,-0.00038604,-0.00048094,-0.00141975,-0.00051055,-0.00040882,0.000152
 27,0.00064414,-0.00046360,-0.00085424,0.00003780,-0.00053266,-0.000094
 69,-0.00006673,0.00014847,0.00028712,-0.00001389,0.00005860,0.00013405
 ,0.00000535,-0.00000629,0.00008070,-0.00029765,-0.00009406,-0.00008788
 ,0.54886018,-0.01092185,-0.08686828,0.03389421,-0.00518547,0.00077544,
 -0.00256992,0.00159195,-0.00036586,0.00105520,0.00148181,-0.00265379,0
 .00006991,-0.01305883,-0.02068125,0.02755810,-0.00046727,0.00012716,-0
 .00007532,-0.00053368,0.00052807,-0.00085246,-0.00035254,-0.00050939,0
 .00014755,-0.00035695,-0.00053900,-0.00140594,-0.00005077,-0.00029429,
 -0.00007945,-0.00001069,0.00000114,0.00008297,0.00005540,0.00000598,0.
 00013375,0.00009429,-0.00001748,0.00024371,-0.00048314,0.00016781,0.00
 003821,0.00038222,0.00000072,-0.00004435,-0.00022843,-0.00023391,0.000
 15934,0.00145940,0.00050950,0.00020020,0.00023609,-0.00039848,-0.00035
 419,0.00008417,0.00000207,0.00000029,-0.00003316,-0.00001827,0.0000205
 6,0.00011324,0.00002724,0.00000957,-0.01904234,0.54611111,0.02419314,0
 .02620893,-0.12889138,0.01019289,0.00055184,-0.00115891,-0.00109482,-0
 .00170634,-0.00047243,-0.00158992,-0.00121010,-0.00045808,-0.00037802,
 0.01055668,-0.00219869,0.00079510,-0.00165699,0.00037535,0.00047751,0.
 00037155,0.00000306,-0.00031296,-0.00031700,-0.00000671,-0.00004827,-0
 .00021864,-0.00023430,-0.00003962,-0.00011924,0.00005059,0.00000687,-0
 .00002359,0.00002494,0.00002873,-0.00008977,-0.00002364,0.00008560,-0.
 00002475,0.00011741,-0.00020335,-0.00009842,-0.00027596,-0.00029511,-0
 .00036292,-0.00000081,0.00032766,0.00051588,-0.00002686,-0.00178963,0.
 00055254,0.00030980,-0.00004606,0.00009740,0.00013027,-0.00009448,0.00
 001759,-0.00002297,-0.00002405,0.00000453,0.00002588,-0.00012469,-0.00
 005695,0.00004642,0.04441977,0.04859354,0.48585499,0.00347134,0.006311
 77,0.01083191,0.00084329,0.00066989,0.00051441,0.00014437,-0.00005049,
 -0.00010274,0.00026992,0.00004267,-0.00001926,0.00026765,0.00030781,-0
 .00024771,-0.00028678,-0.00007276,0.00000050,0.00009138,0.00017374,0.0
 0009969,-0.00008512,0.00003277,-0.00000056,-0.00000646,-0.00005421,0.0
 0003246,0.00000205,-0.00000820,0.00000080,-0.00000041,0.00000840,-0.00
 001633,-0.00000799,-0.00000218,-0.00001299,0.00005860,-0.00006028,-0.0
 0009622,-0.00002124,0.00000356,-0.00000652,0.00003599,0.00004852,0.000
 01294,-0.00012276,-0.00000046,-0.00005384,0.00004514,0.00009627,-0.000
 07652,0.00003084,-0.00001723,0.00006764,0.00000306,-0.00000494,0.00000
 330,0.00000284,0.00000055,0.00000692,0.00001920,0.00000937,0.00001140,
 -0.08366308,-0.04338756,-0.08063444,0.08698398,0.00578743,0.00511279,0
 .01185373,0.00034890,0.00038309,-0.00016468,0.00003793,0.00027259,-0.0
 0003389,-0.00002854,0.00015303,-0.00010598,0.00057703,0.00094249,0.000
 49707,0.00004803,0.00005607,-0.00007008,0.00002738,-0.00010071,-0.0000
 3966,0.00003242,0.00004744,0.00001301,0.00000825,-0.00002701,-0.000004
 31,0.00000678,0.00002021,0.00001075,0.00000007,0.00000415,0.00000508,-
 0.00000641,0.00000266,0.00000109,-0.00001389,0.00002126,0.00005408,-0.
 00005615,-0.00000985,0.00002809,0.00004913,-0.00007394,0.00000402,0.00
 014323,0.00011475,0.00009320,-0.00001873,-0.00028832,0.00000243,-0.000
 06239,0.00004740,-0.00009110,0.00000009,-0.00000910,-0.00001281,0.0000
 0920,0.00000054,-0.00001502,-0.00000535,0.00000227,0.00000152,-0.04335
 210,-0.09956409,-0.09666940,0.04862329,0.10460553,-0.00906331,-0.01086
 028,-0.02128887,-0.00158897,-0.00031116,0.00064563,0.00043463,0.000156
 81,0.00019858,0.00010113,0.00045382,0.00019280,-0.00012315,-0.00161572
 ,0.00066242,-0.00023583,0.00035774,0.00022580,-0.00007350,0.00001503,-
 0.00006605,0.00000954,0.00001309,-0.00000520,0.00009658,0.00004032,-0.
 00010111,-0.00000076,0.00002174,-0.00002136,0.00000497,-0.00000148,0.0
 0001211,0.00000299,0.00001773,-0.00001263,0.00005266,-0.00003225,-0.00
 000768,0.00003073,0.00009909,-0.00010349,0.00001172,0.00001413,-0.0000
 0490,0.00001962,-0.00007508,-0.00006737,0.00038154,-0.00017231,0.00023
 798,-0.00003647,0.00004627,-0.00000587,0.00001760,0.00000509,-0.000011
 93,-0.00000257,0.00000502,0.00001248,0.00002285,0.00000183,-0.00002058
 ,-0.07927733,-0.09511922,-0.22235763,0.08575217,0.10311925,0.24431053,
 -0.01314084,0.00040719,0.00013435,0.00078110,-0.00152332,0.00257277,-0
 .00032739,0.00049187,0.00028088,-0.00054429,-0.00000938,-0.00002200,0.
 00043664,0.00113094,-0.00014798,-0.00017787,-0.00008236,-0.00023342,0.
 00026115,-0.00035403,-0.00014138,0.00019950,0.00007803,0.00000490,0.00
 005704,0.00013880,-0.00003152,-0.00000126,0.00001525,0.00001354,0.0000
 3683,0.00000350,0.00002981,0.00000094,-0.00002961,-0.00000540,0.000433
 42,0.00007287,0.00018516,-0.00022646,-0.00009538,-0.00019582,-0.000102
 96,-0.00024342,0.00002506,0.00021447,0.00000989,-0.00007065,-0.0000209
 2,-0.00029784,0.00007161,0.00004854,0.00002812,-0.00004092,-0.00004922
 ,0.00001722,-0.00000370,-0.00001583,-0.00001155,0.00000896,-0.00009045
 ,-0.00002803,-0.00003980,-0.30397120,0.02564012,-0.00125919,-0.0106719
 9,0.00138694,-0.00007662,0.33175844,-0.01470775,-0.00009393,0.00119278
 ,0.00006108,-0.00057403,0.00259522,-0.00052815,-0.00011245,-0.00009007
 ,-0.00039573,0.00015195,0.00008098,-0.00050050,0.00095324,-0.00073331,
 -0.00031330,0.00004112,-0.00007476,0.00013434,-0.00026612,-0.00008465,
 0.00013516,0.00006001,0.00002449,0.00004212,0.00012618,0.00003361,0.00
 001014,0.00001739,-0.00000970,0.00003054,0.00001357,0.00001666,-0.0000
 1015,0.00000373,0.00000854,0.00028083,-0.00029737,0.00040004,0.0001736
 8,-0.00006116,-0.00023344,-0.00014048,0.00011028,0.00001879,-0.0001425
 9,-0.00001929,-0.00030976,-0.00008004,-0.00014252,-0.00006333,-0.00014
 002,0.00023278,0.00034470,-0.00003294,0.00000042,-0.00000471,0.0000103
 0,0.00001515,0.00004902,-0.00005443,-0.00001813,0.00002030,0.02637057,
 -0.04957685,-0.00091246,-0.01474369,0.00107466,0.00069656,-0.02780683,
 0.05010603,0.02765146,-0.00262084,-0.00207418,0.00041807,0.00262460,-0
 .00396581,0.00103204,-0.00005747,0.00015485,0.00040159,-0.00018910,-0.
 00006016,-0.00047885,-0.00101763,0.00076059,0.00028185,0.00001171,-0.0
 0007238,-0.00021100,0.00014348,-0.00000937,-0.00008752,-0.00009658,0.0
 0000031,-0.00004782,-0.00005045,-0.00002191,0.00000022,-0.00001948,-0.
 00001089,-0.00002498,-0.00000334,-0.00000868,0.00000891,0.00000569,0.0
 0002218,-0.00022495,0.00030821,-0.00007498,0.00010662,0.00019335,0.000
 31863,0.00017257,0.00014475,-0.00005772,-0.00010557,-0.00006393,0.0001
 9119,0.00034309,0.00013837,0.00023558,-0.00005739,-0.00014521,-0.00011
 941,0.00004871,-0.00001465,-0.00001784,0.00000370,-0.00000139,-0.00002
 137,0.00011008,0.00003042,0.00001349,-0.00238393,-0.00054816,-0.046810
 82,-0.02620580,0.00384552,0.00082723,-0.00020570,-0.00217068,0.0501240
 7,0.00167293,-0.01343139,0.00157027,0.00090475,-0.00044495,-0.00069350
 ,0.00019660,-0.00030532,0.00009698,-0.00010272,-0.00052888,-0.00012082
 ,-0.00048749,-0.00005724,0.00232805,-0.00009170,-0.00010047,-0.0000784
 0,0.00001120,-0.00017451,-0.00029855,0.00015287,-0.00011057,0.00002334
 ,-0.00007322,0.00018543,-0.00022023,-0.00000970,-0.00004596,0.00002580
 ,0.00001357,0.00001536,0.00004798,0.00000225,-0.00002749,-0.00000304,0
 .00023848,-0.00010393,0.00035885,0.00010150,0.00005029,0.00003959,0.00
 003624,0.00011641,0.00002193,-0.00023102,0.00007276,-0.00007276,0.0000
 9058,-0.00028616,-0.00003266,-0.00034898,0.00019262,0.00036070,0.00000
 852,-0.00000914,0.00000904,0.00000921,0.00002786,0.00001241,0.00001455
 ,0.00001194,-0.00001103,-0.06071436,0.05862922,-0.00244418,0.00240320,
 -0.01229240,0.00102342,-0.00638001,0.03179576,-0.00061192,0.06232366,0
 .00220379,-0.01415308,0.00062453,0.00117180,0.00050887,-0.00020760,0.0
 0008306,-0.00057673,0.00000274,0.00050869,-0.00029878,0.00029022,-0.00
 168815,0.00064735,0.00274442,-0.00030662,-0.00006276,0.00006150,-0.000
 01658,0.00018804,-0.00011127,-0.00020681,-0.00014445,0.00002392,-0.000
 06545,-0.00021523,-0.00021448,-0.00001588,-0.00009817,-0.00003466,-0.0
 0000791,-0.00001502,0.00001499,0.00002358,-0.00004943,-0.00000295,0.00
 005097,0.00003538,0.00000269,0.00014447,0.00007994,-0.00002536,0.00005
 409,0.00022286,0.00000441,-0.00041107,0.00021526,-0.00016728,-0.000041
 21,-0.00022443,-0.00023892,-0.00002700,0.00046784,0.00022334,-0.000028
 33,-0.00000407,-0.00000437,-0.00000093,0.00004099,0.00003062,0.0000165
 0,0.00000261,0.00001229,0.05788112,-0.29269255,0.00576633,0.00331326,-
 0.01278970,0.00041457,0.00084423,-0.00205255,-0.00023815,-0.06354041,0
 .31941049,-0.00618616,0.02699958,-0.00282818,-0.00096905,-0.00061473,0
 .00073689,-0.00023550,0.00037694,-0.00007255,-0.00021095,0.00101237,0.
 00011686,0.00267681,0.00065354,-0.00391864,0.00009065,0.00036260,0.000
 22639,-0.00005383,-0.00011757,0.00018717,0.00013107,0.00018932,-0.0000
 5886,0.00016906,0.00014822,0.00031937,0.00001546,0.00011453,0.00001279
 ,-0.00000077,0.00000374,-0.00002057,-0.00002094,0.00004638,-0.00001945
 ,-0.00012827,-0.00008236,-0.00011189,-0.00004388,-0.00005509,-0.000020
 26,-0.00008461,-0.00010162,0.00000086,0.00017366,-0.00019358,0.0000012
 9,-0.00002027,0.00027730,-0.00007481,0.00032865,-0.00018991,-0.0000577
 7,0.00000476,0.00000995,0.00002242,0.00000045,-0.00002562,-0.00000847,
 -0.00001906,-0.00000236,-0.00001191,-0.00191795,0.00471938,-0.04695730
 ,0.00722477,-0.02548652,0.00161738,-0.00031685,0.00021790,-0.00094697,
 -0.00035427,-0.00831054,0.05025927,-0.08459992,-0.01141995,-0.02988364
 ,-0.01865761,-0.01627083,-0.02772603,-0.00305444,0.00119616,0.00007807
 ,-0.00077382,0.00189206,-0.00108768,0.00317529,-0.00225991,0.00621062,
 0.00037004,0.00152127,-0.00023091,-0.00013696,-0.00033915,-0.00026438,
 -0.00000001,0.00045404,0.00005814,0.00028187,-0.00039473,-0.00022546,0
 .00001935,0.00015640,-0.00002280,-0.00001291,-0.00003540,-0.00000897,-
 0.00001695,0.00008503,0.00001620,-0.00043946,0.00019150,0.00039249,-0.
 00041039,-0.00043087,0.00143427,-0.00051273,-0.00041973,-0.00014493,0.
 00063638,-0.00042486,0.00087986,0.00000933,-0.00052080,0.00010850,-0.0
 0006311,0.00013944,-0.00029517,-0.00001327,0.00005404,-0.00013593,0.00
 000620,-0.00000912,-0.00008075,-0.00030065,-0.00009179,0.00008606,0.00
 541142,0.00506537,0.00999659,-0.00079074,-0.00113337,0.00307555,0.0004
 0755,0.00026982,0.00090693,0.00010855,0.00017683,-0.00047403,0.5501615
 1,-0.01124355,-0.08905308,-0.03548000,-0.00558708,0.00083764,0.0024069
 2,0.00164451,-0.00034206,-0.00103561,0.00153727,-0.00260872,0.00002926
 ,-0.01262812,-0.02201804,-0.02704298,-0.00049625,0.00018896,0.00007435
 ,-0.00056281,0.00054438,0.00082510,-0.00033911,-0.00050295,-0.00013482
 ,-0.00037517,-0.00048087,0.00140945,-0.00005059,-0.00028666,0.00009069
 ,-0.00000972,-0.00000095,-0.00008224,0.00005632,0.00000441,-0.00013393
 ,0.00009459,-0.00002497,-0.00023725,-0.00047508,0.00016911,-0.00006062
 ,0.00039163,0.00001500,0.00004956,-0.00023720,-0.00025769,-0.00015448,
 0.00152502,0.00048238,-0.00018387,0.00023202,-0.00038851,0.00037632,0.
 00008748,0.00000144,0.00000008,-0.00003199,-0.00001912,-0.00001943,0.0
 0011760,0.00002894,-0.00000720,0.00455280,0.00667701,0.01041326,-0.001
 15953,-0.00096071,0.00339800,0.00019987,0.00013252,-0.00030663,0.00018
 460,0.00045687,0.00089499,-0.01985282,0.54256940,-0.02314501,-0.027792
 11,-0.12748642,-0.01026397,-0.00086919,-0.00178936,0.00099864,0.001720
 43,-0.00047909,0.00153251,0.00131502,-0.00049492,0.00090422,-0.0098897
 5,-0.00076485,-0.00077798,0.00168649,0.00029826,-0.00046001,-0.0003961
 7,-0.00002390,0.00032551,0.00034161,-0.00000773,0.00006923,0.00022158,
 -0.00029479,0.00004101,0.00013356,0.00004335,-0.00000708,0.00002399,0.
 00002678,-0.00003063,0.00009003,-0.00002226,-0.00009726,0.00003261,0.0
 0012951,0.00021842,0.00007603,-0.00025304,0.00027396,0.00035638,-0.000
 01332,-0.00030992,-0.00051428,0.00000531,0.00173238,-0.00056608,0.0003
 6413,0.00003498,-0.00007695,0.00011670,0.00009157,-0.00001763,-0.00002
 299,0.00002490,-0.00000305,0.00002590,0.00011542,0.00005625,0.00004776
 ,-0.00953863,-0.01188808,-0.03685861,0.00209261,0.00227583,-0.00405644
 ,-0.00109745,-0.00092450,0.00190237,-0.00082315,-0.00117179,0.00187663
 ,-0.04280276,-0.05093282,0.48806977,0.00160097,-0.01307640,-0.00104199
 ,0.00088018,-0.00042972,0.00071111,0.00019442,-0.00030292,-0.00008237,
 -0.00010766,-0.00050944,0.00013567,-0.00041400,-0.00012853,-0.00227358
 ,-0.00009152,-0.00009235,0.00007697,0.00000587,-0.00016561,0.00030200,
 0.00015516,-0.00010856,-0.00001631,-0.00007383,0.00019527,0.00020762,-
 0.00000910,-0.00004517,-0.00002454,0.00001426,0.00001371,-0.00004799,0
 .00000189,-0.00002667,0.00000431,0.00024171,-0.00011769,-0.00034965,0.
 00010148,0.00004805,-0.00003956,0.00003532,0.00011412,-0.00002551,-0.0
 0022960,0.00007233,0.00006686,0.00008979,-0.00028059,0.00004521,-0.000
 33840,0.00017677,-0.00037144,0.00000873,-0.00000932,-0.00000893,0.0000
 0940,0.00002703,-0.00001312,0.00001410,0.00001230,0.00001100,0.0000893
 6,0.00022632,0.00078926,-0.00013355,-0.00011680,0.00008139,0.00001425,
 0.00017383,-0.00005426,0.00027099,0.00011252,0.00012713,-0.06076244,0.
 05870865,0.00015793,0.06229623,0.00242987,-0.01512111,-0.00015262,0.00
 120267,0.00053878,0.00023300,0.00009133,-0.00058988,0.00001706,0.00051
 989,-0.00034424,-0.00026610,-0.00173874,0.00051992,-0.00292937,-0.0003
 0891,-0.00007760,-0.00005529,-0.00001638,0.00019616,0.00011084,-0.0002
 1095,-0.00015205,-0.00002371,-0.00007471,-0.00021213,0.00023239,-0.000
 01697,-0.00010086,0.00003845,-0.00000765,-0.00001569,-0.00001530,0.000
 02426,-0.00005093,0.00000444,0.00005569,0.00003797,-0.00000736,0.00014
 570,0.00008270,0.00002382,0.00005718,0.00022620,-0.00001162,-0.0004195
 7,0.00022761,0.00015309,-0.00004396,-0.00022533,0.00024384,-0.00003525
 ,0.00046591,-0.00024275,-0.00002855,-0.00000425,0.00000489,-0.00000048
 ,0.00004075,-0.00003240,0.00001737,0.00000225,-0.00001255,0.00017502,0
 .00046823,0.00122438,-0.00017996,0.00034003,0.00002274,-0.00005126,0.0
 0003033,-0.00007217,0.00011553,0.00074036,-0.00051186,0.05795713,-0.29
 270554,0.00381160,-0.06356686,0.31960694,0.00616470,-0.02675718,-0.001
 78833,0.00092970,0.00061563,0.00073182,0.00023626,-0.00036307,-0.00005
 749,0.00018894,-0.00100325,0.00016761,-0.00256427,-0.00081391,-0.00386
 490,-0.00008442,-0.00035342,0.00024113,0.00005179,0.00011493,0.0001843
 7,-0.00012063,-0.00018774,-0.00005344,-0.00017221,-0.00012653,0.000317
 02,-0.00001522,-0.00011115,0.00001492,0.00000156,-0.00000371,-0.000020
 60,0.00002039,-0.00004566,-0.00001759,0.00013162,0.00007529,-0.0001178
 9,0.00004063,0.00005214,-0.00002304,0.00008321,0.00009541,-0.00000151,
 -0.00016233,0.00018664,-0.00001263,0.00002432,-0.00027639,-0.00007246,
 -0.00033171,0.00017394,-0.00006649,-0.00000396,-0.00000915,0.00002240,
 -0.00000016,0.00002429,-0.00000843,0.00001884,0.00000205,-0.00001110,0
 .00044123,-0.00084151,0.00188368,-0.00015318,0.00026948,0.00030624,0.0
 0006307,0.00005886,-0.00016059,-0.00012061,0.00047229,-0.00042659,-0.0
 0034158,0.00486866,-0.04689437,0.00278914,-0.00218666,0.05008804,-0.01
 272719,0.00035990,-0.00030541,0.00082367,-0.00157245,-0.00244785,-0.00
 030749,0.00048041,-0.00030506,-0.00053870,-0.00001139,0.00001529,0.000
 42762,0.00111994,0.00010331,-0.00017720,-0.00007394,0.00023461,0.00025
 575,-0.00034651,0.00015770,0.00019821,0.00007639,-0.00000471,0.0000559
 3,0.00013907,0.00002774,-0.00000105,0.00001448,-0.00001392,0.00003689,
 0.00000239,-0.00002924,0.00000100,-0.00002932,0.00000613,0.00043265,0.
 00007084,-0.00018038,-0.00022770,-0.00008560,0.00019095,-0.00010011,-0
 .00024199,-0.00001706,0.00021185,0.00001140,0.00007065,-0.00001481,-0.
 00029835,-0.00006479,0.00004700,0.00002753,0.00004236,-0.00004854,0.00
 001712,0.00000264,-0.00001564,-0.00001187,-0.00000847,-0.00008938,-0.0
 0002618,0.00003924,0.00040540,0.00023351,0.00106805,0.00036301,-0.0001
 0971,0.00001617,0.00070331,0.00016291,-0.00049901,0.00001423,-0.000054
 37,-0.00005877,-0.30396349,0.02555467,-0.00346484,-0.00638839,0.000848
 81,0.00020613,0.33168423,-0.01566224,-0.00005195,-0.00149750,0.0000872
 0,-0.00076364,-0.00270830,-0.00056579,-0.00010717,0.00009092,-0.000408
 80,0.00015535,-0.00009469,-0.00049402,0.00101577,0.00071700,-0.0003239
 5,0.00004323,0.00006606,0.00014046,-0.00026797,0.00009605,0.00013863,0
 .00006254,-0.00002466,0.00004432,0.00012667,-0.00003822,0.00000999,0.0
 0001839,0.00000880,0.00003166,0.00001307,-0.00001699,-0.00001034,0.000
 00323,-0.00000802,0.00029453,-0.00032200,-0.00038695,0.00016619,-0.000
 05916,0.00024942,-0.00014623,0.00010428,-0.00002672,-0.00014351,-0.000
 00587,0.00031476,-0.00009316,-0.00014460,0.00007552,-0.00013257,0.0002
 2511,-0.00035905,-0.00003472,0.00000108,0.00000353,0.00001089,0.000013
 40,-0.00005012,-0.00005802,-0.00001991,-0.00001997,0.00022263,0.000178
 90,0.00098971,-0.00004544,-0.00016477,0.00009332,0.00018011,0.00030864
 ,0.00004620,0.00017672,0.00003050,-0.00006308,0.02631808,-0.04950169,0
 .00139920,0.03179449,-0.00203701,0.00029297,-0.02769870,0.05023704,-0.
 02727016,0.00254309,-0.00252974,-0.00035099,-0.00276229,-0.00381905,-0
 .00101921,0.00007353,0.00012979,-0.00039452,0.00018115,-0.00006927,0.0
 0049194,0.00102589,0.00070717,-0.00027192,-0.00001698,-0.00007491,0.00
 021000,-0.00013940,-0.00000217,0.00008562,0.00009552,-0.00000104,0.000
 04744,0.00004724,-0.00002119,-0.00000042,0.00001865,-0.00001211,0.0000
 2454,0.00000261,-0.00000827,-0.00000886,-0.00000546,0.00002262,0.00022
 198,-0.00029824,-0.00004967,-0.00012087,-0.00018106,0.00031800,-0.0001
 6822,-0.00015428,-0.00005441,0.00011118,0.00007118,0.00018038,-0.00034
 395,-0.00012928,0.00023173,0.00006460,0.00013337,-0.00011038,-0.000047
 96,0.00001422,-0.00001918,-0.00000400,-0.00000003,-0.00001983,-0.00010
 961,-0.00002965,0.00001425,-0.00093750,0.00037116,0.00185896,0.0002896
 3,-0.00010825,0.00031493,0.00050968,-0.00006994,-0.00042667,0.00005063
 ,0.00006480,-0.00016096,-0.00236708,0.00102427,-0.04689505,-0.00059629
 ,0.00028972,-0.00095362,0.00536975,0.00175521,0.05006707,0.00349374,0.
 00577512,-0.01067644,0.00082734,0.00064647,-0.00053493,0.00014928,-0.0
 0004445,0.00010368,0.00027120,0.00005011,0.00001861,0.00026261,0.00029
 227,0.00023131,-0.00029015,-0.00006766,-0.00000572,0.00009176,0.000170
 37,-0.00010350,-0.00008499,0.00003295,-0.00000180,-0.00000456,-0.00005
 474,-0.00002908,0.00000205,-0.00000789,-0.00000018,-0.00000058,0.00000
 894,0.00001583,-0.00000814,-0.00000144,0.00001312,0.00005788,-0.000057
 25,0.00009928,-0.00002099,0.00000530,0.00000756,0.00003636,0.00004818,
 -0.00001405,-0.00012319,0.00000038,0.00005298,0.00004970,0.00009625,0.
 00007034,0.00003129,-0.00001898,-0.00006640,0.00000336,-0.00000497,-0.
 00000290,0.00000290,0.00000037,-0.00000708,0.00001969,0.00000899,-0.00
 001114,-0.00071496,-0.00118042,-0.00200239,0.00075426,0.00010972,-0.00
 065675,0.00036749,-0.00005448,-0.00028715,-0.00013468,-0.00017418,0.00
 015272,-0.08607857,-0.04183798,0.08420538,0.00252439,0.00305976,-0.007
 32127,-0.01106106,-0.01379839,0.02653458,0.08957658,0.00629311,0.00504
 835,-0.01270013,0.00040268,0.00040038,0.00017913,0.00002193,0.00026823
 ,0.00003169,-0.00003363,0.00014092,0.00010723,0.00058841,0.00098185,-0
 .00050035,0.00005508,0.00004614,0.00007717,0.00002943,-0.00009973,0.00
 004129,0.00003221,0.00004648,-0.00001438,0.00000483,-0.00002846,0.0000
 0182,0.00000698,0.00001901,-0.00001208,-0.00000003,0.00000404,-0.00000
 479,-0.00000649,0.00000198,-0.00000169,-0.00001492,0.00002040,-0.00005
 528,-0.00005674,-0.00001449,-0.00003209,0.00004874,-0.00007447,-0.0000
 0083,0.00014383,0.00011392,-0.00009752,-0.00003240,-0.00028174,0.00001
 570,-0.00006237,0.00004901,0.00008813,-0.00000072,-0.00000883,0.000012
 69,0.00000906,0.00000092,0.00001556,-0.00000613,0.00000213,-0.00000241
 ,-0.00120639,-0.00116689,-0.00239760,0.00014507,0.00078722,-0.00080464
 ,-0.00011195,-0.00016360,0.00012357,-0.00011565,0.00032958,-0.00027189
 ,-0.04187384,-0.09295650,0.09150181,-0.01269875,-0.01188750,0.02577677
 ,0.00144099,0.00090855,-0.00381676,0.04699765,0.09751311,0.00921530,0.
 01001576,-0.02124691,0.00157840,0.00032980,0.00064339,-0.00043654,-0.0
 0015976,0.00019820,-0.00009884,-0.00045134,0.00020405,0.00009691,0.001
 60916,0.00062787,0.00022631,-0.00035233,0.00023929,0.00007488,-0.00001
 133,-0.00006744,-0.00001189,-0.00001438,-0.00000441,-0.00009542,-0.000
 04386,-0.00010161,0.00000086,-0.00002329,-0.00002014,-0.00000516,0.000
 00190,0.00001239,-0.00000270,-0.00001828,-0.00001178,-0.00005119,0.000
 03039,-0.00000617,-0.00002770,-0.00010222,-0.00009913,-0.00001285,-0.0
 0001108,-0.00000475,-0.00002540,0.00006867,-0.00006612,-0.00038345,0.0
 0019211,0.00022665,0.00003926,-0.00004853,-0.00000773,-0.00001736,-0.0
 0000528,-0.00001250,0.00000211,-0.00000461,0.00001205,-0.00002206,-0.0
 0000251,-0.00002092,-0.00298609,-0.00351906,-0.00392628,0.00068495,0.0
 0072754,-0.00143299,-0.00001139,-0.00007711,0.00030924,-0.00008389,-0.
 00002629,0.00031785,0.08284881,0.08995096,-0.22654933,-0.00056004,0.00
 010947,0.00059383,-0.00015121,-0.00090439,0.00138263,-0.08978461,-0.09
 726013,0.24881077\\0.00004890,0.00008837,0.00000729,-0.00003545,-0.000
 08929,0.00000017,0.00000664,0.00004961,0.00000002,0.00006364,0.0000195
 8,-0.00000088,-0.00006164,-0.00004848,-0.00000116,-0.00001156,0.000013
 78,0.00000014,0.00003812,0.00004134,-0.00000086,-0.00007028,-0.0000126
 0,-0.00000016,0.00001985,-0.00001454,0.00000031,-0.00000969,-0.0000066
 7,0.,0.00000248,-0.00000376,0.00000020,0.00000430,-0.00000057,0.000000
 10,0.00001664,-0.00001033,0.00000038,-0.00001219,0.00002391,-0.0000007
 6,-0.00000072,-0.00007028,0.00000135,0.00003266,0.00004689,-0.00000086
 ,0.00001717,-0.00000249,-0.00000015,-0.00000829,0.00001240,0.00000018,
 -0.00000150,0.00000299,-0.00000005,-0.00000410,-0.00000123,-0.00000015
 ,-0.00001212,-0.00000865,0.00000013,-0.00000967,-0.00001471,0.00002565
 ,-0.00000636,-0.00000462,-0.00000893,0.00001059,-0.00000570,0.00000235
 ,-0.00000618,0.00001104,0.00000062,-0.00001046,-0.00001549,-0.00002917
 ,-0.00000518,0.00001025,-0.00000229,0.00001107,-0.00000662,-0.00000211
 ,-0.00000667,-0.00000413,0.00000861\\\@


 PICNIC:  A SNACK IN THE GRASS.
 Job cpu time:       0 days  2 hours 17 minutes 13.5 seconds.
 Elapsed time:       0 days  2 hours 17 minutes 23.9 seconds.
 File lengths (MBytes):  RWF=    746 Int=      0 D2E=      0 Chk=     25 Scr=      1
 Normal termination of Gaussian 16 at Wed Mar 11 15:06:51 2026.
