101

 C       -1.365632    0.329266    0.818631
 C        3.971889   -0.227575    1.794816
 C        1.365635   -0.329169    0.818618
 H       -0.179699   -0.852996    2.203913
 H        0.179735    0.853138    2.203882
 C       -3.971864    0.227503    1.794835
 H        2.193110    0.636866    2.583868
 H       -2.189277    1.105292    2.650764
 H        2.189222   -1.105199    2.650766
 H       -2.193023   -0.636780    2.583912
 C       -1.709660   -0.524139   -0.404590
 C        4.599692   -1.142719    0.740030
 C       -4.506710   -1.140099    1.359391
 C        1.338745   -1.733005    0.203337
 C       -5.347941   -1.016775    0.237236
 C        1.624723   -1.685727   -1.172722
 C        5.407851   -0.398970   -0.145176
 C       -1.856161    0.287503   -1.549466
 C       -1.624770    1.685832   -1.172698
 C        5.348034    1.016670    0.237246
 C        1.856134   -0.287402   -1.549488
 C       -5.407841    0.398872   -0.145148
 C        1.709642    0.524239   -0.404610
 C       -4.599726    1.142644    0.740080
 C        4.506822    1.140010    1.359413
 C       -1.338792    1.733110    0.203361
 C       -1.089995    2.952982    0.825306
 C        4.323040    2.380856    1.962922
 C       -4.557726    2.530845    0.640835
 C        1.897815    1.899830   -0.504438
 C       -1.124949    4.130228    0.066302
 C        4.963587    3.505955    1.426829
 C        2.225000    2.460969   -1.743711
 C       -5.293566    3.169941   -0.364606
 C        2.365646    1.652383   -2.878335
 C       -6.075833    2.426745   -1.257600
 C       -1.407421    4.080127   -1.304672
 C        5.786256    3.384070    0.299652
 C       -1.659303    2.857011   -1.932772
 C        5.987430    2.137254   -0.299823
 C       -6.142203    1.035171   -1.149923
 C        2.182339    0.270617   -2.788069
 H        2.294778   -0.357954   -3.668333
 H       -6.764018    0.461175   -1.833042
 H       -1.879895    2.823696   -2.996928
 H        6.634367    2.046435   -1.169198
 H       -1.430885    4.999767   -1.884425
 H        6.277228    4.264603   -0.107496
 H       -6.640831    2.936543   -2.034239
 H        2.620441    2.103028   -3.834680
 H       -0.930409    5.087549    0.544198
 H        4.823605    4.479315    1.890800
 H        2.370849    3.534906   -1.822825
 H       -5.252578    4.252456   -0.453906
 H       -0.868603    3.006944    1.890254
 H        3.691036    2.488964    2.842641
 H        1.793774    2.543228    0.362622
 H       -3.952836    3.122253    1.321997
 C        6.142181   -1.035282   -1.149966
 C       -2.182376   -0.270512   -2.788046
 C       -5.987286   -2.137381   -0.299847
 C        1.659227   -2.856903   -1.932803
 C        6.075737   -2.426849   -1.257682
 C       -2.365681   -1.652278   -2.878316
 C       -5.786041   -3.384201    0.299598
 C        1.407316   -4.080016   -1.304709
 C        5.293431   -3.170026   -0.364706
 C       -2.225028   -2.460865   -1.743694
 C       -4.963350   -3.506069    1.426760
 C        1.124838   -4.130117    0.066265
 C       -4.322852   -2.380949    1.962867
 C        1.089911   -2.952874    0.825275
 C        4.557623   -2.530917    0.640750
 C       -1.897838   -1.899729   -0.504421
 H       -3.690823   -2.489042    2.842571
 H        0.868518   -3.006835    1.890222
 H       -1.793782   -2.543133    0.362632
 H        3.952704   -3.122312    1.321897
 H        5.252386   -4.252537   -0.454030
 H       -2.370875   -3.534802   -1.822810
 H       -4.823311   -4.479433    1.890706
 H        0.930277   -5.087436    0.544155
 H        6.640710   -2.936658   -2.034333
 H       -2.620483   -2.102922   -3.834660
 H       -6.276977   -4.264748   -0.107562
 H        1.430757   -4.999656   -1.884464
 H        6.764028   -0.461299   -1.833067
 H       -2.294824    0.358066   -3.668305
 H       -6.634243   -2.046577   -1.169210
 H        1.879811   -2.823585   -2.996961
 C        4.586520   -0.574138    3.182238
 H        5.677254   -0.484617    3.154191
 H        4.207102    0.104170    3.956315
 H        4.333119   -1.600575    3.472157
 C       -2.418693    0.258289    1.991336
 C        2.418707   -0.258233    1.991313
 C        0.000009    0.000062    1.538395
 C       -4.586529    0.573977    3.182270
 H       -4.207105   -0.104363    3.956316
 H       -4.333164    1.600406    3.472253
 H       -5.677259    0.484426    3.154199