29
Generated from .fchk
C -0.000044 1.412900 -0.000001
C 1.180692 0.446243 -0.000039
C 0.734036 -0.890027 -0.000009
C -0.733989 -0.890073 -0.000002
C -1.180684 0.446183 -0.000035
C -2.539410 0.732295 -0.000058
C -3.457391 -0.324515 -0.000041
C -3.013590 -1.650801 -0.000006
C -1.648082 -1.943841 0.000016
H -1.307174 -2.975736 0.000040
H -3.737939 -2.460531 0.000004
H -4.522965 -0.112922 -0.000060
H -2.891369 1.760993 -0.000085
C 1.648096 -1.943824 0.000012
C 3.013606 -1.650804 -0.000005
C 3.457383 -0.324511 -0.000044
C 2.539422 0.732315 -0.000060
H 2.891459 1.760991 -0.000092
H 4.522956 -0.112903 -0.000062
H 3.737984 -2.460507 0.000012
H 1.307099 -2.975688 0.000037
C -0.000027 2.295859 -1.263869
H 0.000190 1.680836 -2.168882
H -0.886880 2.939197 -1.284771
H 0.886616 2.939493 -1.284531
C -0.000013 2.295626 1.264058
H 0.886634 2.939248 1.284837
H -0.886866 2.938960 1.285104
H 0.000219 1.680418 2.168946