%chk=f1_SP.chk
#p b3lyp/6-31g(d) nosymm density=current sp EmpiricalDispersion=GD3BJ

Generated by extraQ₂ - dispersion correction

0 1
C         0.00004400       1.41290000      -0.00002494
C        -1.18069200       0.44624300       0.00003081
C        -0.73403600      -0.89002700       0.00002534
C         0.73398900      -0.89007300       0.00001834
C         1.18068400       0.44618300       0.00002681
C         2.53941000       0.73229500       0.00004455
C         3.45739100      -0.32451500       0.00004696
C         3.01359000      -1.65080100       0.00003631
C         1.64808200      -1.94384100       0.00001969
H         1.30717400      -2.97573600       0.00001464
H         3.73793900      -2.46053100       0.00004118
H         4.52296500      -0.11292200       0.00006207
H         2.89136900       1.76099300       0.00005267
C        -1.64809600      -1.94382400       0.00002369
C        -3.01360600      -1.65080400       0.00003531
C        -3.45738300      -0.32451100       0.00004996
C        -2.53942200       0.73231500       0.00004655
H        -2.89145900       1.76099100       0.00005967
H        -4.52295600      -0.11290300       0.00006407
H        -3.73798400      -2.46050700       0.00003318
H        -1.30709900      -2.97568800       0.00001764
C         0.00002700       2.29588221       1.26382684
H        -0.00019000       1.68087582       2.16885114
H         0.88688000       2.93922059       1.28471703
H        -0.88661600       2.93951659       1.28447703
C         0.00001300       2.29560279      -1.26410015
H        -0.88663400       2.93922441      -1.28489097
H         0.88686600       2.93893640      -1.28515796
H        -0.00021900       1.68037817      -2.16897685



