 Entering Gaussian System, Link 0=g16
 Initial command:
 /sw/cluster/pub/apps//g16/l1.exe "/data/mmaximo/52019/Gau-2891243.inp" -scrdir="/data/mmaximo/52019/"
 Entering Link 1 = /sw/cluster/pub/apps//g16/l1.exe PID=   2891244.
  
 Copyright (c) 1988,1990,1992,1993,1995,1998,2003,2009,2016,
            Gaussian, Inc.  All Rights Reserved.
  
 This is part of the Gaussian(R) 16 program.  It is based on
 the Gaussian(R) 09 system (copyright 2009, Gaussian, Inc.),
 the Gaussian(R) 03 system (copyright 2003, Gaussian, Inc.),
 the Gaussian(R) 98 system (copyright 1998, Gaussian, Inc.),
 the Gaussian(R) 94 system (copyright 1995, Gaussian, Inc.),
 the Gaussian 92(TM) system (copyright 1992, Gaussian, Inc.),
 the Gaussian 90(TM) system (copyright 1990, Gaussian, Inc.),
 the Gaussian 88(TM) system (copyright 1988, Gaussian, Inc.),
 the Gaussian 86(TM) system (copyright 1986, Carnegie Mellon
 University), and the Gaussian 82(TM) system (copyright 1983,
 Carnegie Mellon University). Gaussian is a federally registered
 trademark of Gaussian, Inc.
  
 This software contains proprietary and confidential information,
 including trade secrets, belonging to Gaussian, Inc.
  
 This software is provided under written license and may be
 used, copied, transmitted, or stored only in accord with that
 written license.
  
 The following legend is applicable only to US Government
 contracts under FAR:
  
                    RESTRICTED RIGHTS LEGEND
  
 Use, reproduction and disclosure by the US Government is
 subject to restrictions as set forth in subparagraphs (a)
 and (c) of the Commercial Computer Software - Restricted
 Rights clause in FAR 52.227-19.
  
 Gaussian, Inc.
 340 Quinnipiac St., Bldg. 40, Wallingford CT 06492
  
  
 ---------------------------------------------------------------
 Warning -- This program may not be used in any manner that
 competes with the business of Gaussian, Inc. or will provide
 assistance to any competitor of Gaussian, Inc.  The licensee
 of this program is prohibited from giving any competitor of
 Gaussian, Inc. access to this program.  By using this program,
 the user acknowledges that Gaussian, Inc. is engaged in the
 business of creating and licensing software in the field of
 computational chemistry and represents and warrants to the
 licensee that it is not a competitor of Gaussian, Inc. and that
 it will not use this program in any manner prohibited above.
 ---------------------------------------------------------------
  

 Cite this work as:
 Gaussian 16, Revision A.03,
 M. J. Frisch, G. W. Trucks, H. B. Schlegel, G. E. Scuseria, 
 M. A. Robb, J. R. Cheeseman, G. Scalmani, V. Barone, 
 G. A. Petersson, H. Nakatsuji, X. Li, M. Caricato, A. V. Marenich, 
 J. Bloino, B. G. Janesko, R. Gomperts, B. Mennucci, H. P. Hratchian, 
 J. V. Ortiz, A. F. Izmaylov, J. L. Sonnenberg, D. Williams-Young, 
 F. Ding, F. Lipparini, F. Egidi, J. Goings, B. Peng, A. Petrone, 
 T. Henderson, D. Ranasinghe, V. G. Zakrzewski, J. Gao, N. Rega, 
 G. Zheng, W. Liang, M. Hada, M. Ehara, K. Toyota, R. Fukuda, 
 J. Hasegawa, M. Ishida, T. Nakajima, Y. Honda, O. Kitao, H. Nakai, 
 T. Vreven, K. Throssell, J. A. Montgomery, Jr., J. E. Peralta, 
 F. Ogliaro, M. J. Bearpark, J. J. Heyd, E. N. Brothers, K. N. Kudin, 
 V. N. Staroverov, T. A. Keith, R. Kobayashi, J. Normand, 
 K. Raghavachari, A. P. Rendell, J. C. Burant, S. S. Iyengar, 
 J. Tomasi, M. Cossi, J. M. Millam, M. Klene, C. Adamo, R. Cammi, 
 J. W. Ochterski, R. L. Martin, K. Morokuma, O. Farkas, 
 J. B. Foresman, and D. J. Fox, Gaussian, Inc., Wallingford CT, 2016.
 
 ******************************************
 Gaussian 16:  ES64L-G16RevA.03 25-Dec-2016
                21-Aug-2026 
 ******************************************
 %chk=f1_SP.chk
 ---------------------------------------------------------------------
 #p b3lyp/6-31g(d) nosymm density=current sp EmpiricalDispersion=GD3BJ
 ---------------------------------------------------------------------
 1/30=1,38=1,172=1/1;
 2/12=2,15=1,17=6,18=5,40=1/2;
 3/5=1,6=6,7=1,11=2,25=1,30=1,74=-5,124=41/1,2,3;
 4//1;
 5/5=2,38=5/2;
 6/7=2,8=2,9=2,10=2,22=-1,28=1/1;
 99/5=1,9=1/99;
 Leave Link    1 at Fri Aug 21 09:57:45 2026, MaxMem=           0 cpu:               0.0 elap:               0.0
 (Enter /sw/cluster/pub/apps//g16/l101.exe)
 ----------------------------------------------
 Generated by extraQ₂ - dispersion correction
 ----------------------------------------------
 Symbolic Z-matrix:
 Charge =  0 Multiplicity = 1
 C                     0.00004   1.4129   -0.00002 
 C                    -1.18069   0.44624   0.00003 
 C                    -0.73404  -0.89003   0.00003 
 C                     0.73399  -0.89007   0.00002 
 C                     1.18068   0.44618   0.00003 
 C                     2.53941   0.7323    0.00004 
 C                     3.45739  -0.32452   0.00005 
 C                     3.01359  -1.6508    0.00004 
 C                     1.64808  -1.94384   0.00002 
 H                     1.30717  -2.97574   0.00001 
 H                     3.73794  -2.46053   0.00004 
 H                     4.52297  -0.11292   0.00006 
 H                     2.89137   1.76099   0.00005 
 C                    -1.6481   -1.94382   0.00002 
 C                    -3.01361  -1.6508    0.00004 
 C                    -3.45738  -0.32451   0.00005 
 C                    -2.53942   0.73232   0.00005 
 H                    -2.89146   1.76099   0.00006 
 H                    -4.52296  -0.1129    0.00006 
 H                    -3.73798  -2.46051   0.00003 
 H                    -1.3071   -2.97569   0.00002 
 C                     0.00003   2.29588   1.26383 
 H                    -0.00019   1.68088   2.16885 
 H                     0.88688   2.93922   1.28472 
 H                    -0.88662   2.93952   1.28448 
 C                     0.00001   2.2956   -1.2641 
 H                    -0.88663   2.93922  -1.28489 
 H                     0.88687   2.93894  -1.28516 
 H                    -0.00022   1.68038  -2.16898 
 
 ITRead=  0  0  0  0  0  0  0  0  0  0  0  0  0  0  0  0  0  0  0  0
 ITRead=  0  0  0  0  0  0  0  0  0
 MicOpt= -1 -1 -1 -1 -1 -1 -1 -1 -1 -1 -1 -1 -1 -1 -1 -1 -1 -1 -1 -1
 MicOpt= -1 -1 -1 -1 -1 -1 -1 -1 -1
 NAtoms=     29 NQM=       29 NQMF=       0 NMMI=      0 NMMIF=      0
                NMic=       0 NMicF=      0.
                    Isotopes and Nuclear Properties:
 (Nuclear quadrupole moments (NQMom) in fm**2, nuclear magnetic moments (NMagM)
  in nuclear magnetons)

  Atom         1           2           3           4           5           6           7           8           9          10
 IAtWgt=          12          12          12          12          12          12          12          12          12           1
 AtmWgt=  12.0000000  12.0000000  12.0000000  12.0000000  12.0000000  12.0000000  12.0000000  12.0000000  12.0000000   1.0078250
 NucSpn=           0           0           0           0           0           0           0           0           0           1
 AtZEff=  -0.0000000  -0.0000000  -0.0000000  -0.0000000  -0.0000000  -0.0000000  -0.0000000  -0.0000000  -0.0000000  -0.0000000
 NQMom=    0.0000000   0.0000000   0.0000000   0.0000000   0.0000000   0.0000000   0.0000000   0.0000000   0.0000000   0.0000000
 NMagM=    0.0000000   0.0000000   0.0000000   0.0000000   0.0000000   0.0000000   0.0000000   0.0000000   0.0000000   2.7928460
 AtZNuc=   6.0000000   6.0000000   6.0000000   6.0000000   6.0000000   6.0000000   6.0000000   6.0000000   6.0000000   1.0000000

  Atom        11          12          13          14          15          16          17          18          19          20
 IAtWgt=           1           1           1          12          12          12          12           1           1           1
 AtmWgt=   1.0078250   1.0078250   1.0078250  12.0000000  12.0000000  12.0000000  12.0000000   1.0078250   1.0078250   1.0078250
 NucSpn=           1           1           1           0           0           0           0           1           1           1
 AtZEff=  -0.0000000  -0.0000000  -0.0000000  -0.0000000  -0.0000000  -0.0000000  -0.0000000  -0.0000000  -0.0000000  -0.0000000
 NQMom=    0.0000000   0.0000000   0.0000000   0.0000000   0.0000000   0.0000000   0.0000000   0.0000000   0.0000000   0.0000000
 NMagM=    2.7928460   2.7928460   2.7928460   0.0000000   0.0000000   0.0000000   0.0000000   2.7928460   2.7928460   2.7928460
 AtZNuc=   1.0000000   1.0000000   1.0000000   6.0000000   6.0000000   6.0000000   6.0000000   1.0000000   1.0000000   1.0000000

  Atom        21          22          23          24          25          26          27          28          29
 IAtWgt=           1          12           1           1           1          12           1           1           1
 AtmWgt=   1.0078250  12.0000000   1.0078250   1.0078250   1.0078250  12.0000000   1.0078250   1.0078250   1.0078250
 NucSpn=           1           0           1           1           1           0           1           1           1
 AtZEff=  -0.0000000  -0.0000000  -0.0000000  -0.0000000  -0.0000000  -0.0000000  -0.0000000  -0.0000000  -0.0000000
 NQMom=    0.0000000   0.0000000   0.0000000   0.0000000   0.0000000   0.0000000   0.0000000   0.0000000   0.0000000
 NMagM=    2.7928460   0.0000000   2.7928460   2.7928460   2.7928460   0.0000000   2.7928460   2.7928460   2.7928460
 AtZNuc=   1.0000000   6.0000000   1.0000000   1.0000000   1.0000000   6.0000000   1.0000000   1.0000000   1.0000000
 Leave Link  101 at Fri Aug 21 09:57:45 2026, MaxMem=   104857600 cpu:               0.0 elap:               0.0
 (Enter /sw/cluster/pub/apps//g16/l202.exe)
                          Input orientation:                          
 ---------------------------------------------------------------------
 Center     Atomic      Atomic             Coordinates (Angstroms)
 Number     Number       Type             X           Y           Z
 ---------------------------------------------------------------------
      1          6           0        0.000044    1.412900   -0.000025
      2          6           0       -1.180692    0.446243    0.000031
      3          6           0       -0.734036   -0.890027    0.000025
      4          6           0        0.733989   -0.890073    0.000018
      5          6           0        1.180684    0.446183    0.000027
      6          6           0        2.539410    0.732295    0.000045
      7          6           0        3.457391   -0.324515    0.000047
      8          6           0        3.013590   -1.650801    0.000036
      9          6           0        1.648082   -1.943841    0.000020
     10          1           0        1.307174   -2.975736    0.000015
     11          1           0        3.737939   -2.460531    0.000041
     12          1           0        4.522965   -0.112922    0.000062
     13          1           0        2.891369    1.760993    0.000053
     14          6           0       -1.648096   -1.943824    0.000024
     15          6           0       -3.013606   -1.650804    0.000035
     16          6           0       -3.457383   -0.324511    0.000050
     17          6           0       -2.539422    0.732315    0.000047
     18          1           0       -2.891459    1.760991    0.000060
     19          1           0       -4.522956   -0.112903    0.000064
     20          1           0       -3.737984   -2.460507    0.000033
     21          1           0       -1.307099   -2.975688    0.000018
     22          6           0        0.000027    2.295882    1.263827
     23          1           0       -0.000190    1.680876    2.168851
     24          1           0        0.886880    2.939221    1.284717
     25          1           0       -0.886616    2.939517    1.284477
     26          6           0        0.000013    2.295603   -1.264100
     27          1           0       -0.886634    2.939224   -1.284891
     28          1           0        0.886866    2.938936   -1.285158
     29          1           0       -0.000219    1.680378   -2.168977
 ---------------------------------------------------------------------
                    Distance matrix (angstroms):
                    1          2          3          4          5
     1  C    0.000000
     2  C    1.525963   0.000000
     3  C    2.417095   1.408943   0.000000
     4  C    2.417097   2.334897   1.468025   0.000000
     5  C    1.525927   2.361376   2.334868   1.408942   0.000000
     6  C    2.628993   3.731084   3.653406   2.427267   1.388523
     7  C    3.869349   4.701689   4.229405   2.781506   2.403616
     8  C    4.297409   4.689306   3.824066   2.403183   2.785119
     9  C    3.739484   3.703304   2.604805   1.394989   2.435298
    10  H    4.579161   4.230770   2.918342   2.162991   3.424256
    11  H    5.382873   5.713341   4.739730   3.389698   3.871504
    12  H    4.773358   5.731001   5.314128   3.867855   3.388723
    13  H    2.912203   4.279048   4.491266   3.417958   2.157584
    14  C    3.739514   2.435341   1.394989   2.604750   3.703259
    15  C    4.297484   2.785171   2.403169   3.824027   4.689288
    16  C    3.869418   2.403619   2.781443   4.229357   4.701663
    17  C    2.629084   1.388519   2.427223   3.653404   3.731094
    18  H    2.912380   2.157611   3.417948   4.491326   4.279143
    19  H    4.773427   3.388713   3.867795   5.314082   5.730976
    20  H    5.382949   3.871555   3.389707   4.739705   5.713330
    21  H    4.579119   3.424265   2.162957   2.918190   4.230634
    22  C    1.541745   2.532280   3.505148   3.505171   2.532297
    23  H    2.185368   2.760740   3.442655   3.442765   2.760929
    24  H    2.183276   3.484280   4.352119   4.041945   2.819927
    25  H    2.183270   2.820052   4.042091   4.352235   3.484287
    26  C    1.541769   2.532237   3.505008   3.505032   2.532263
    27  H    2.183288   2.820009   4.041963   4.352118   3.484261
    28  H    2.183302   3.484254   4.352009   4.041827   2.819902
    29  H    2.185383   2.760652   3.442389   3.442502   2.760860
                    6          7          8          9         10
     6  C    0.000000
     7  C    1.399834   0.000000
     8  C    2.429813   1.398569   0.000000
     9  C    2.820668   2.428130   1.396597   0.000000
    10  H    3.907416   3.413562   2.160395   1.086750   0.000000
    11  H    3.410368   2.154361   1.086436   2.152782   2.484765
    12  H    2.156127   1.086379   2.154828   3.408404   4.305463
    13  H    1.087242   2.160955   3.413982   3.907884   4.994625
    14  C    4.969589   5.356133   4.670886   3.296178   3.130250
    15  C    6.042776   6.605516   6.027196   4.670889   4.519357
    16  C    6.089201   6.914774   6.605493   5.356118   5.452522
    17  C    5.078832   6.089225   6.042780   4.969608   5.342840
    18  H    5.527436   6.682607   6.819819   5.859455   6.329700
    19  H    7.112761   7.983152   7.691856   6.436928   6.495093
    20  H    7.042703   7.505723   6.799954   5.410790   5.071398
    21  H    5.342731   5.452438   4.519256   3.130144   2.614273
    22  C    3.238891   4.518516   5.123967   4.721075   5.576362
    23  H    3.471757   4.547546   4.988657   4.534226   5.300668
    24  H    3.041670   4.348548   5.219348   5.106287   6.067439
    25  H    4.273084   5.583374   6.158929   5.649930   6.438383
    26  C    3.238909   4.518467   5.123845   4.720912   5.576170
    27  H    4.273099   5.583334   6.158824   5.649788   6.438209
    28  H    3.041696   4.348502   5.219231   5.106138   6.067263
    29  H    3.471776   4.547453   4.988428   4.533917   5.300302
                   11         12         13         14         15
    11  H    0.000000
    12  H    2.475386   0.000000
    13  H    4.305571   2.484686   0.000000
    14  C    5.410763   6.436940   5.859387   0.000000
    15  C    6.799928   7.691878   6.819757   1.396595   0.000000
    16  C    7.505681   7.983153   6.682513   2.428105   1.398568
    17  C    7.042693   7.112787   5.527356   2.820670   2.429837
    18  H    7.859400   7.647564   5.782828   3.907890   3.413981
    19  H    8.588000   9.045921   7.647464   3.408386   2.154826
    20  H    7.475923   8.588040   7.859350   2.152811   1.086436
    21  H    5.071272   6.495004   6.329556   1.086748   2.160436
    22  C    6.180017   5.277917   3.200483   4.721082   5.124011
    23  H    5.985699   5.327315   3.615414   4.534077   4.988439
    24  H    6.239892   4.918031   2.656418   5.649838   6.158939
    25  H    7.224735   6.342765   4.160749   5.106534   5.219667
    26  C    6.179883   5.277897   3.200598   4.720912   5.123872
    27  H    7.224617   6.342749   4.160843   5.106368   5.219522
    28  H    6.239760   4.918012   2.656567   5.649697   6.158825
    29  H    5.985448   5.327274   3.615587   4.533752   4.988175
                   16         17         18         19         20
    16  C    0.000000
    17  C    1.399833   0.000000
    18  H    2.160923   1.087246   0.000000
    19  H    1.086381   2.156108   2.484605   0.000000
    20  H    2.154348   3.410376   4.305537   2.475364   0.000000
    21  H    3.413570   3.907417   4.994630   4.305493   2.484877
    22  C    4.518548   3.238933   3.200610   5.277946   6.180060
    23  H    4.547247   3.471481   3.615178   5.326978   5.985476
    24  H    5.583452   4.273214   4.161059   6.342879   7.224738
    25  H    4.348847   3.041919   2.656698   4.918328   6.240220
    26  C    4.518480   3.238930   3.200706   5.277903   6.179906
    27  H    4.348769   3.041911   2.656813   4.918275   6.240058
    28  H    5.583399   4.273216   4.161139   6.342846   7.224607
    29  H    4.547113   3.471461   3.615313   5.326889   5.985184
                   21         22         23         24         25
    21  H    0.000000
    22  C    5.576311   0.000000
    23  H    5.300513   1.094213   0.000000
    24  H    6.438178   1.095823   1.775392   0.000000
    25  H    6.067643   1.095823   1.775400   1.773496   0.000000
    26  C    5.576114   2.527927   3.487556   2.774391   2.774163
    27  H    6.067452   2.774170   3.781211   3.122217   2.569368
    28  H    6.438007   2.774405   3.781503   2.569875   3.122221
    29  H    5.300134   3.487547   4.337828   3.781485   3.781200
                   26         27         28         29
    26  C    0.000000
    27  H    1.095821   0.000000
    28  H    1.095824   1.773500   0.000000
    29  H    1.094214   1.775397   1.775394   0.000000
 Symmetry turned off by external request.
 Stoichiometry    C15H14
 Framework group  C1[X(C15H14)]
 Deg. of freedom    81
 Full point group                 C1      NOp   1
 Rotational constants (GHZ):           1.0600276           0.5502026           0.3928830
 Leave Link  202 at Fri Aug 21 09:57:45 2026, MaxMem=   104857600 cpu:               0.0 elap:               0.0
 (Enter /sw/cluster/pub/apps//g16/l301.exe)
 Standard basis: 6-31G(d) (6D, 7F)
 Ernie: Thresh=  0.10000D-02 Tol=  0.10000D-05 Strict=F.
   253 basis functions,   476 primitive gaussians,   253 cartesian basis functions
    52 alpha electrons       52 beta electrons
       nuclear repulsion energy       927.0745613896 Hartrees.
 IExCor=  402 DFT=T Ex+Corr=B3LYP ExCW=0 ScaHFX=  0.200000
 ScaDFX=  0.800000  0.720000  1.000000  0.810000 ScalE2=  1.000000  1.000000
 IRadAn=      5 IRanWt=     -1 IRanGd=            0 ICorTp=0 IEmpDi=141
 NAtoms=   29 NActive=   29 NUniq=   29 SFac= 1.00D+00 NAtFMM=   60 NAOKFM=F Big=F
 Integral buffers will be    131072 words long.
 Raffenetti 2 integral format.
 Two-electron integral symmetry is turned off.
 R6Disp:  Grimme-D3(BJ) Dispersion energy=       -0.0648370092 Hartrees.
 Nuclear repulsion after empirical dispersion term =      927.0097243804 Hartrees.
 Leave Link  301 at Fri Aug 21 09:57:45 2026, MaxMem=   104857600 cpu:               0.0 elap:               0.0
 (Enter /sw/cluster/pub/apps//g16/l302.exe)
 NPDir=0 NMtPBC=     1 NCelOv=     1 NCel=       1 NClECP=     1 NCelD=      1
         NCelK=      1 NCelE2=     1 NClLst=     1 CellRange=     0.0.
 One-electron integrals computed using PRISM.
 NBasis=   253 RedAO= T EigKep=  3.60D-04  NBF=   253
 NBsUse=   253 1.00D-06 EigRej= -1.00D+00 NBFU=   253
 Precomputing XC quadrature grid using
 IXCGrd= 4 IRadAn=           5 IRanWt=          -1 IRanGd=           0 AccXCQ= 0.00D+00.
 Generated NRdTot=       0 NPtTot=           0 NUsed=           0 NTot=          32
 NSgBfM=   252   252   252   252   252 MxSgAt=    29 MxSgA2=    29.
 Leave Link  302 at Fri Aug 21 09:57:46 2026, MaxMem=   104857600 cpu:               0.4 elap:               0.4
 (Enter /sw/cluster/pub/apps//g16/l303.exe)
 DipDrv:  MaxL=1.
 Leave Link  303 at Fri Aug 21 09:57:46 2026, MaxMem=   104857600 cpu:               0.0 elap:               0.0
 (Enter /sw/cluster/pub/apps//g16/l401.exe)
 ExpMin= 1.61D-01 ExpMax= 3.05D+03 ExpMxC= 4.57D+02 IAcc=3 IRadAn=         5 AccDes= 0.00D+00
 Harris functional with IExCor=  402 and IRadAn=       5 diagonalized for initial guess.
 HarFok:  IExCor=  402 AccDes= 0.00D+00 IRadAn=         5 IDoV= 1 UseB2=F ITyADJ=14
 ICtDFT=  3500011 ScaDFX=  1.000000  1.000000  1.000000  1.000000
 FoFCou: FMM=F IPFlag=           0 FMFlag=      100000 FMFlg1=           0
         NFxFlg=           0 DoJE=T BraDBF=F KetDBF=T FulRan=T
         wScrn=  0.000000 ICntrl=       500 IOpCl=  0 I1Cent=   200000004 NGrid=           0
         NMat0=    1 NMatS0=      1 NMatT0=    0 NMatD0=    1 NMtDS0=    0 NMtDT0=    0
 Symmetry not used in FoFCou.
 Harris En= -580.155114457919    
 JPrj=0 DoOrth=F DoCkMO=F.
 Leave Link  401 at Fri Aug 21 09:57:49 2026, MaxMem=   104857600 cpu:               3.6 elap:               3.6
 (Enter /sw/cluster/pub/apps//g16/l502.exe)
 Two-electron integral symmetry not used.
 Closed shell SCF:
 Using DIIS extrapolation, IDIIS=  1040.
 NGot=   104857600 LenX=   104725728 LenY=   104661278
 Requested convergence on RMS density matrix=1.00D-08 within 128 cycles.
 Requested convergence on MAX density matrix=1.00D-06.
 Requested convergence on             energy=1.00D-06.
 No special actions if energy rises.
 Fock matrices will be formed incrementally for  20 cycles.
 Integral accuracy reduced to 1.0D-05 until final iterations.

 Cycle   1  Pass 0  IDiag  1:
 FoFJK:  IHMeth= 1 ICntrl=       0 DoSepK=F KAlg= 0 I1Cent=           0 FoldK=F
 IRaf= 900000000 NMat=       1 IRICut=       1 DoRegI=T DoRafI=F ISym2E= 0 IDoP0=0 IntGTp=1.
 FoFCou: FMM=F IPFlag=           0 FMFlag=      100000 FMFlg1=           0
         NFxFlg=           0 DoJE=F BraDBF=F KetDBF=F FulRan=T
         wScrn=  0.000000 ICntrl=         0 IOpCl=  0 I1Cent=           0 NGrid=           0
         NMat0=    1 NMatS0=      1 NMatT0=    0 NMatD0=    1 NMtDS0=    0 NMtDT0=    0
 Symmetry not used in FoFCou.
 E= -579.754764756990    
 DIIS: error= 4.85D-02 at cycle   1 NSaved=   1.
 NSaved= 1 IEnMin= 1 EnMin= -579.754764756990     IErMin= 1 ErrMin= 4.85D-02
 ErrMax= 4.85D-02  0.00D+00 EMaxC= 1.00D-01 BMatC= 3.24D-01 BMatP= 3.24D-01
 IDIUse=3 WtCom= 5.15D-01 WtEn= 4.85D-01
 Coeff-Com:  0.100D+01
 Coeff-En:   0.100D+01
 Coeff:      0.100D+01
 Gap=     0.183 Goal=   None    Shift=    0.000
 GapD=    0.183 DampG=1.000 DampE=0.500 DampFc=0.5000 IDamp=-1.
 Damping current iteration by 5.00D-01
 RMSDP=5.58D-03 MaxDP=1.33D-01              OVMax= 1.62D-01

 Cycle   2  Pass 0  IDiag  1:
 RMSU=  2.67D-03    CP:  9.62D-01
 E= -579.930330786966     Delta-E=       -0.175566029977 Rises=F Damp=T
 DIIS: error= 8.80D-03 at cycle   2 NSaved=   2.
 NSaved= 2 IEnMin= 2 EnMin= -579.930330786966     IErMin= 2 ErrMin= 8.80D-03
 ErrMax= 8.80D-03  0.00D+00 EMaxC= 1.00D-01 BMatC= 1.56D-02 BMatP= 3.24D-01
 IDIUse=3 WtCom= 9.12D-01 WtEn= 8.80D-02
 Coeff-Com: -0.129D-01 0.101D+01
 Coeff-En:   0.000D+00 0.100D+01
 Coeff:     -0.118D-01 0.101D+01
 Gap=     0.186 Goal=   None    Shift=    0.000
 RMSDP=1.68D-03 MaxDP=3.46D-02 DE=-1.76D-01 OVMax= 9.20D-02

 Cycle   3  Pass 0  IDiag  1:
 RMSU=  1.59D-03    CP:  9.38D-01  1.04D+00
 E= -580.112788620988     Delta-E=       -0.182457834021 Rises=F Damp=F
 DIIS: error= 3.64D-03 at cycle   3 NSaved=   3.
 NSaved= 3 IEnMin= 3 EnMin= -580.112788620988     IErMin= 3 ErrMin= 3.64D-03
 ErrMax= 3.64D-03  0.00D+00 EMaxC= 1.00D-01 BMatC= 3.10D-03 BMatP= 1.56D-02
 IDIUse=3 WtCom= 9.64D-01 WtEn= 3.64D-02
 Coeff-Com: -0.416D-01 0.270D+00 0.772D+00
 Coeff-En:   0.000D+00 0.000D+00 0.100D+01
 Coeff:     -0.401D-01 0.260D+00 0.780D+00
 Gap=     0.183 Goal=   None    Shift=    0.000
 RMSDP=4.91D-04 MaxDP=1.25D-02 DE=-1.82D-01 OVMax= 2.88D-02

 Cycle   4  Pass 0  IDiag  1:
 RMSU=  4.10D-04    CP:  9.39D-01  1.09D+00  8.47D-01
 E= -580.113752496675     Delta-E=       -0.000963875687 Rises=F Damp=F
 DIIS: error= 3.94D-03 at cycle   4 NSaved=   4.
 NSaved= 4 IEnMin= 4 EnMin= -580.113752496675     IErMin= 3 ErrMin= 3.64D-03
 ErrMax= 3.94D-03  0.00D+00 EMaxC= 1.00D-01 BMatC= 1.99D-03 BMatP= 3.10D-03
 IDIUse=3 WtCom= 9.61D-01 WtEn= 3.94D-02
 Coeff-Com: -0.237D-01 0.103D+00 0.483D+00 0.438D+00
 Coeff-En:   0.000D+00 0.000D+00 0.415D+00 0.585D+00
 Coeff:     -0.228D-01 0.992D-01 0.480D+00 0.443D+00
 Gap=     0.184 Goal=   None    Shift=    0.000
 RMSDP=2.73D-04 MaxDP=6.90D-03 DE=-9.64D-04 OVMax= 2.05D-02

 Cycle   5  Pass 0  IDiag  1:
 RMSU=  1.32D-04    CP:  9.39D-01  1.09D+00  8.71D-01  4.25D-01
 E= -580.115836228874     Delta-E=       -0.002083732199 Rises=F Damp=F
 DIIS: error= 1.11D-03 at cycle   5 NSaved=   5.
 NSaved= 5 IEnMin= 5 EnMin= -580.115836228874     IErMin= 5 ErrMin= 1.11D-03
 ErrMax= 1.11D-03  0.00D+00 EMaxC= 1.00D-01 BMatC= 1.55D-04 BMatP= 1.99D-03
 IDIUse=3 WtCom= 9.89D-01 WtEn= 1.11D-02
 Coeff-Com: -0.644D-02 0.164D-01 0.153D+00 0.254D+00 0.583D+00
 Coeff-En:   0.000D+00 0.000D+00 0.000D+00 0.504D-01 0.950D+00
 Coeff:     -0.637D-02 0.162D-01 0.152D+00 0.251D+00 0.587D+00
 Gap=     0.183 Goal=   None    Shift=    0.000
 RMSDP=6.60D-05 MaxDP=1.74D-03 DE=-2.08D-03 OVMax= 5.30D-03

 Cycle   6  Pass 0  IDiag  1:
 RMSU=  3.25D-05    CP:  9.39D-01  1.09D+00  8.73D-01  5.17D-01  6.77D-01
 E= -580.115998896809     Delta-E=       -0.000162667935 Rises=F Damp=F
 DIIS: error= 1.92D-04 at cycle   6 NSaved=   6.
 NSaved= 6 IEnMin= 6 EnMin= -580.115998896809     IErMin= 6 ErrMin= 1.92D-04
 ErrMax= 1.92D-04  0.00D+00 EMaxC= 1.00D-01 BMatC= 1.21D-05 BMatP= 1.55D-04
 IDIUse=3 WtCom= 9.98D-01 WtEn= 1.92D-03
 Coeff-Com: -0.253D-02 0.459D-02 0.641D-01 0.123D+00 0.341D+00 0.470D+00
 Coeff-En:   0.000D+00 0.000D+00 0.000D+00 0.000D+00 0.000D+00 0.100D+01
 Coeff:     -0.253D-02 0.458D-02 0.640D-01 0.123D+00 0.340D+00 0.471D+00
 Gap=     0.183 Goal=   None    Shift=    0.000
 RMSDP=1.77D-05 MaxDP=5.37D-04 DE=-1.63D-04 OVMax= 1.03D-03

 Cycle   7  Pass 0  IDiag  1:
 RMSU=  6.56D-06    CP:  9.39D-01  1.09D+00  8.76D-01  5.17D-01  6.92D-01
                    CP:  5.26D-01
 E= -580.116011925343     Delta-E=       -0.000013028534 Rises=F Damp=F
 DIIS: error= 2.58D-05 at cycle   7 NSaved=   7.
 NSaved= 7 IEnMin= 7 EnMin= -580.116011925343     IErMin= 7 ErrMin= 2.58D-05
 ErrMax= 2.58D-05  0.00D+00 EMaxC= 1.00D-01 BMatC= 2.48D-07 BMatP= 1.21D-05
 IDIUse=1 WtCom= 1.00D+00 WtEn= 0.00D+00
 Coeff-Com: -0.694D-03 0.935D-03 0.186D-01 0.386D-01 0.111D+00 0.198D+00
 Coeff-Com:  0.633D+00
 Coeff:     -0.694D-03 0.935D-03 0.186D-01 0.386D-01 0.111D+00 0.198D+00
 Coeff:      0.633D+00
 Gap=     0.183 Goal=   None    Shift=    0.000
 RMSDP=3.12D-06 MaxDP=6.86D-05 DE=-1.30D-05 OVMax= 1.35D-04

 Initial convergence to 1.0D-05 achieved.  Increase integral accuracy.
 Cycle   8  Pass 1  IDiag  1:
 E= -580.116023798512     Delta-E=       -0.000011873169 Rises=F Damp=F
 DIIS: error= 6.93D-05 at cycle   1 NSaved=   1.
 NSaved= 1 IEnMin= 1 EnMin= -580.116023798512     IErMin= 1 ErrMin= 6.93D-05
 ErrMax= 6.93D-05  0.00D+00 EMaxC= 1.00D-01 BMatC= 2.96D-07 BMatP= 2.96D-07
 IDIUse=1 WtCom= 1.00D+00 WtEn= 0.00D+00
 Coeff-Com:  0.100D+01
 Coeff:      0.100D+01
 Gap=     0.183 Goal=   None    Shift=    0.000
 RMSDP=3.12D-06 MaxDP=6.86D-05 DE=-1.19D-05 OVMax= 1.02D-04

 Cycle   9  Pass 1  IDiag  1:
 RMSU=  3.06D-05    CP:  1.00D+00
 E= -580.116023920969     Delta-E=       -0.000000122457 Rises=F Damp=F
 DIIS: error= 1.96D-05 at cycle   2 NSaved=   2.
 NSaved= 2 IEnMin= 2 EnMin= -580.116023920969     IErMin= 2 ErrMin= 1.96D-05
 ErrMax= 1.96D-05  0.00D+00 EMaxC= 1.00D-01 BMatC= 8.37D-08 BMatP= 2.96D-07
 IDIUse=1 WtCom= 1.00D+00 WtEn= 0.00D+00
 Coeff-Com:  0.282D+00 0.718D+00
 Coeff:      0.282D+00 0.718D+00
 Gap=     0.183 Goal=   None    Shift=    0.000
 RMSDP=2.25D-06 MaxDP=6.19D-05 DE=-1.22D-07 OVMax= 1.43D-04

 Cycle  10  Pass 1  IDiag  1:
 RMSU=  2.25D-06    CP:  1.00D+00  1.00D+00
 E= -580.116023934023     Delta-E=       -0.000000013054 Rises=F Damp=F
 DIIS: error= 1.83D-05 at cycle   3 NSaved=   3.
 NSaved= 3 IEnMin= 3 EnMin= -580.116023934023     IErMin= 3 ErrMin= 1.83D-05
 ErrMax= 1.83D-05  0.00D+00 EMaxC= 1.00D-01 BMatC= 6.75D-08 BMatP= 8.37D-08
 IDIUse=1 WtCom= 1.00D+00 WtEn= 0.00D+00
 Coeff-Com:  0.128D-01 0.471D+00 0.517D+00
 Coeff:      0.128D-01 0.471D+00 0.517D+00
 Gap=     0.183 Goal=   None    Shift=    0.000
 RMSDP=1.33D-06 MaxDP=3.57D-05 DE=-1.31D-08 OVMax= 9.65D-05

 Cycle  11  Pass 1  IDiag  1:
 RMSU=  5.63D-07    CP:  1.00D+00  1.01D+00  4.76D-01
 E= -580.116023999941     Delta-E=       -0.000000065918 Rises=F Damp=F
 DIIS: error= 5.50D-06 at cycle   4 NSaved=   4.
 NSaved= 4 IEnMin= 4 EnMin= -580.116023999941     IErMin= 4 ErrMin= 5.50D-06
 ErrMax= 5.50D-06  0.00D+00 EMaxC= 1.00D-01 BMatC= 5.53D-09 BMatP= 6.75D-08
 IDIUse=1 WtCom= 1.00D+00 WtEn= 0.00D+00
 Coeff-Com: -0.249D-02 0.288D+00 0.346D+00 0.369D+00
 Coeff:     -0.249D-02 0.288D+00 0.346D+00 0.369D+00
 Gap=     0.183 Goal=   None    Shift=    0.000
 RMSDP=3.84D-07 MaxDP=1.03D-05 DE=-6.59D-08 OVMax= 2.44D-05

 Cycle  12  Pass 1  IDiag  1:
 RMSU=  8.77D-08    CP:  1.00D+00  1.01D+00  5.23D-01  3.65D-01
 E= -580.116024005897     Delta-E=       -0.000000005956 Rises=F Damp=F
 DIIS: error= 5.69D-07 at cycle   5 NSaved=   5.
 NSaved= 5 IEnMin= 5 EnMin= -580.116024005897     IErMin= 5 ErrMin= 5.69D-07
 ErrMax= 5.69D-07  0.00D+00 EMaxC= 1.00D-01 BMatC= 8.01D-11 BMatP= 5.53D-09
 IDIUse=1 WtCom= 1.00D+00 WtEn= 0.00D+00
 Coeff-Com: -0.176D-02 0.157D+00 0.190D+00 0.219D+00 0.435D+00
 Coeff:     -0.176D-02 0.157D+00 0.190D+00 0.219D+00 0.435D+00
 Gap=     0.183 Goal=   None    Shift=    0.000
 RMSDP=4.08D-08 MaxDP=1.17D-06 DE=-5.96D-09 OVMax= 2.68D-06

 Cycle  13  Pass 1  IDiag  1:
 RMSU=  2.59D-08    CP:  1.00D+00  1.01D+00  5.23D-01  3.87D-01  6.73D-01
 E= -580.116024005981     Delta-E=       -0.000000000084 Rises=F Damp=F
 DIIS: error= 7.11D-08 at cycle   6 NSaved=   6.
 NSaved= 6 IEnMin= 6 EnMin= -580.116024005981     IErMin= 6 ErrMin= 7.11D-08
 ErrMax= 7.11D-08  0.00D+00 EMaxC= 1.00D-01 BMatC= 9.64D-13 BMatP= 8.01D-11
 IDIUse=1 WtCom= 1.00D+00 WtEn= 0.00D+00
 Coeff-Com: -0.429D-03 0.333D-01 0.403D-01 0.516D-01 0.138D+00 0.737D+00
 Coeff:     -0.429D-03 0.333D-01 0.403D-01 0.516D-01 0.138D+00 0.737D+00
 Gap=     0.183 Goal=   None    Shift=    0.000
 RMSDP=6.65D-09 MaxDP=1.71D-07 DE=-8.39D-11 OVMax= 4.84D-07

 SCF Done:  E(RB3LYP) =  -580.116024006     A.U. after   13 cycles
            NFock= 13  Conv=0.66D-08     -V/T= 2.0099
 KE= 5.744294474830D+02 PE=-3.196501023472D+03 EE= 1.114945827603D+03
 Leave Link  502 at Fri Aug 21 09:58:44 2026, MaxMem=   104857600 cpu:              54.9 elap:              55.0
 (Enter /sw/cluster/pub/apps//g16/l601.exe)
 Copying SCF densities to generalized density rwf, IOpCl= 0 IROHF=0.

 **********************************************************************

            Population analysis using the SCF density.

 **********************************************************************

 Alpha  occ. eigenvalues --  -10.20366 -10.18819 -10.18788 -10.18689 -10.18688
 Alpha  occ. eigenvalues --  -10.18668 -10.18668 -10.18628 -10.18628 -10.18599
 Alpha  occ. eigenvalues --  -10.18599 -10.18497 -10.18496 -10.17808 -10.17808
 Alpha  occ. eigenvalues --   -0.88470  -0.83857  -0.80831  -0.76976  -0.73806
 Alpha  occ. eigenvalues --   -0.72802  -0.70885  -0.68580  -0.63986  -0.61711
 Alpha  occ. eigenvalues --   -0.57979  -0.57118  -0.55314  -0.50599  -0.49177
 Alpha  occ. eigenvalues --   -0.46828  -0.44802  -0.44402  -0.43350  -0.42834
 Alpha  occ. eigenvalues --   -0.42579  -0.41387  -0.41246  -0.39040  -0.37930
 Alpha  occ. eigenvalues --   -0.37864  -0.37070  -0.34663  -0.34349  -0.34072
 Alpha  occ. eigenvalues --   -0.33674  -0.31556  -0.31498  -0.27720  -0.24446
 Alpha  occ. eigenvalues --   -0.24048  -0.21062
 Alpha virt. eigenvalues --   -0.02727  -0.00494   0.01260   0.04579   0.08510
 Alpha virt. eigenvalues --    0.10405   0.10519   0.13063   0.13398   0.14046
 Alpha virt. eigenvalues --    0.14935   0.16491   0.16566   0.16802   0.17895
 Alpha virt. eigenvalues --    0.18668   0.19349   0.20542   0.21606   0.21620
 Alpha virt. eigenvalues --    0.22980   0.24396   0.26062   0.26722   0.27649
 Alpha virt. eigenvalues --    0.27826   0.30250   0.31780   0.32492   0.37153
 Alpha virt. eigenvalues --    0.38533   0.39911   0.40695   0.47645   0.49896
 Alpha virt. eigenvalues --    0.49921   0.51411   0.51602   0.52465   0.55234
 Alpha virt. eigenvalues --    0.55613   0.55936   0.56146   0.56353   0.56736
 Alpha virt. eigenvalues --    0.58469   0.58507   0.58774   0.60543   0.60552
 Alpha virt. eigenvalues --    0.61856   0.62030   0.62891   0.63359   0.63718
 Alpha virt. eigenvalues --    0.64785   0.66074   0.66501   0.68506   0.68988
 Alpha virt. eigenvalues --    0.69662   0.75192   0.76003   0.77157   0.78458
 Alpha virt. eigenvalues --    0.79412   0.80477   0.81798   0.82783   0.83686
 Alpha virt. eigenvalues --    0.84306   0.84568   0.85067   0.86419   0.88308
 Alpha virt. eigenvalues --    0.90759   0.90929   0.91034   0.91721   0.92542
 Alpha virt. eigenvalues --    0.92680   0.96056   0.96225   0.96655   0.97257
 Alpha virt. eigenvalues --    0.98654   0.99265   0.99526   1.01018   1.04008
 Alpha virt. eigenvalues --    1.07250   1.07624   1.11044   1.11092   1.15117
 Alpha virt. eigenvalues --    1.15195   1.19122   1.22219   1.24263   1.24544
 Alpha virt. eigenvalues --    1.28021   1.28608   1.33809   1.34039   1.39394
 Alpha virt. eigenvalues --    1.41592   1.41855   1.45365   1.45451   1.46225
 Alpha virt. eigenvalues --    1.46698   1.49736   1.50271   1.50355   1.53292
 Alpha virt. eigenvalues --    1.56277   1.57260   1.60983   1.65327   1.67947
 Alpha virt. eigenvalues --    1.68910   1.73943   1.79497   1.79854   1.80721
 Alpha virt. eigenvalues --    1.81026   1.84934   1.86848   1.90364   1.90615
 Alpha virt. eigenvalues --    1.91288   1.92414   1.93064   1.95364   1.96466
 Alpha virt. eigenvalues --    2.00294   2.02314   2.04332   2.04418   2.05259
 Alpha virt. eigenvalues --    2.07617   2.08769   2.11283   2.13328   2.14999
 Alpha virt. eigenvalues --    2.19632   2.19721   2.19972   2.21994   2.23872
 Alpha virt. eigenvalues --    2.25034   2.25055   2.27032   2.27078   2.28936
 Alpha virt. eigenvalues --    2.30539   2.32163   2.32683   2.33476   2.37367
 Alpha virt. eigenvalues --    2.43753   2.43783   2.45950   2.49981   2.55769
 Alpha virt. eigenvalues --    2.60971   2.61979   2.64782   2.65337   2.68403
 Alpha virt. eigenvalues --    2.69114   2.70603   2.70642   2.73873   2.75989
 Alpha virt. eigenvalues --    2.76954   2.82709   2.83755   2.85785   2.94416
 Alpha virt. eigenvalues --    2.96038   3.00932   3.10141   3.29255   3.35493
 Alpha virt. eigenvalues --    3.51173   4.08584   4.09943   4.10231   4.15092
 Alpha virt. eigenvalues --    4.15803   4.19002   4.23864   4.29415   4.31326
 Alpha virt. eigenvalues --    4.35942   4.42712   4.44285   4.60683   4.81116
 Alpha virt. eigenvalues --    4.83147
          Condensed to atoms (all electrons):
               1          2          3          4          5          6
     1  C    5.183023   0.315968  -0.072068  -0.072071   0.315973  -0.084800
     2  C    0.315968   4.924034   0.494357   0.007513  -0.079182   0.006915
     3  C   -0.072068   0.494357   4.920345   0.268310   0.007519   0.014055
     4  C   -0.072071   0.007513   0.268310   4.920322   0.494350  -0.031045
     5  C    0.315973  -0.079182   0.007519   0.494350   4.924025   0.480047
     6  C   -0.084800   0.006915   0.014055  -0.031045   0.480047   5.080926
     7  C    0.006538  -0.000319   0.000253  -0.041275  -0.006799   0.497453
     8  C   -0.000458  -0.000285   0.007809   0.004035  -0.039806  -0.021072
     9  C    0.015427   0.010192  -0.093855   0.474750  -0.081933  -0.061703
    10  H   -0.000227  -0.000033  -0.008898  -0.032451   0.005386   0.000499
    11  H    0.000012   0.000002  -0.000189   0.002055   0.001174   0.004261
    12  H   -0.000154   0.000003   0.000005   0.001002   0.002744  -0.039491
    13  H   -0.007516   0.000231  -0.000272   0.004787  -0.040812   0.353309
    14  C    0.015426  -0.081944   0.474760  -0.093842   0.010193  -0.000318
    15  C   -0.000458  -0.039805   0.004034   0.007810  -0.000285   0.000003
    16  C    0.006537  -0.006801  -0.041273   0.000254  -0.000319   0.000001
    17  C   -0.084799   0.480040  -0.031046   0.014055   0.006915  -0.000226
    18  H   -0.007515  -0.040813   0.004787  -0.000272   0.000231   0.000003
    19  H   -0.000154   0.002744   0.001002   0.000005   0.000003  -0.000000
    20  H    0.000012   0.001174   0.002054  -0.000189   0.000002  -0.000000
    21  H   -0.000227   0.005386  -0.032449  -0.008901  -0.000033   0.000004
    22  C    0.351820  -0.044754   0.000053   0.000056  -0.044750  -0.002260
    23  H   -0.030036  -0.002217   0.001035   0.001035  -0.002215   0.000272
    24  H   -0.026926   0.004907   0.000094  -0.000342  -0.008903   0.003274
    25  H   -0.026922  -0.008899  -0.000342   0.000094   0.004907  -0.000049
    26  C    0.351820  -0.044757   0.000049   0.000053  -0.044753  -0.002261
    27  H   -0.026923  -0.008899  -0.000342   0.000094   0.004908  -0.000049
    28  H   -0.026926   0.004907   0.000094  -0.000342  -0.008903   0.003274
    29  H   -0.030036  -0.002217   0.001036   0.001036  -0.002215   0.000271
               7          8          9         10         11         12
     1  C    0.006538  -0.000458   0.015427  -0.000227   0.000012  -0.000154
     2  C   -0.000319  -0.000285   0.010192  -0.000033   0.000002   0.000003
     3  C    0.000253   0.007809  -0.093855  -0.008898  -0.000189   0.000005
     4  C   -0.041275   0.004035   0.474750  -0.032451   0.002055   0.001002
     5  C   -0.006799  -0.039806  -0.081933   0.005386   0.001174   0.002744
     6  C    0.497453  -0.021072  -0.061703   0.000499   0.004261  -0.039491
     7  C    4.888929   0.539976  -0.026876   0.004272  -0.040342   0.357338
     8  C    0.539976   4.880853   0.492667  -0.047833   0.357066  -0.041076
     9  C   -0.026876   0.492667   5.161035   0.347363  -0.038451   0.004450
    10  H    0.004272  -0.047833   0.347363   0.603265  -0.004732  -0.000178
    11  H   -0.040342   0.357066  -0.038451  -0.004732   0.597681  -0.005245
    12  H    0.357338  -0.041076   0.004450  -0.000178  -0.005245   0.599286
    13  H   -0.046530   0.004429   0.000616   0.000021  -0.000180  -0.004856
    14  C    0.000027   0.000101  -0.013731   0.002860  -0.000000  -0.000000
    15  C   -0.000000   0.000000   0.000101  -0.000016  -0.000000   0.000000
    16  C    0.000000  -0.000000   0.000027   0.000000  -0.000000   0.000000
    17  C    0.000001   0.000003  -0.000318   0.000004  -0.000000  -0.000000
    18  H   -0.000000  -0.000000   0.000001   0.000000   0.000000  -0.000000
    19  H    0.000000   0.000000  -0.000000  -0.000000  -0.000000  -0.000000
    20  H   -0.000000  -0.000000  -0.000000   0.000001   0.000000  -0.000000
    21  H    0.000000  -0.000016   0.002861   0.002722   0.000001  -0.000000
    22  C   -0.000012   0.000024  -0.000229   0.000003   0.000000   0.000001
    23  H   -0.000024  -0.000011  -0.000043   0.000001  -0.000000   0.000000
    24  H    0.000010   0.000000  -0.000002   0.000000  -0.000000   0.000002
    25  H    0.000002  -0.000000   0.000006  -0.000000  -0.000000  -0.000000
    26  C   -0.000012   0.000024  -0.000229   0.000003   0.000000   0.000001
    27  H    0.000002  -0.000000   0.000006  -0.000000  -0.000000  -0.000000
    28  H    0.000010   0.000000  -0.000002   0.000000  -0.000000   0.000002
    29  H   -0.000024  -0.000011  -0.000043   0.000001  -0.000000   0.000000
              13         14         15         16         17         18
     1  C   -0.007516   0.015426  -0.000458   0.006537  -0.084799  -0.007515
     2  C    0.000231  -0.081944  -0.039805  -0.006801   0.480040  -0.040813
     3  C   -0.000272   0.474760   0.004034  -0.041273  -0.031046   0.004787
     4  C    0.004787  -0.093842   0.007810   0.000254   0.014055  -0.000272
     5  C   -0.040812   0.010193  -0.000285  -0.000319   0.006915   0.000231
     6  C    0.353309  -0.000318   0.000003   0.000001  -0.000226   0.000003
     7  C   -0.046530   0.000027  -0.000000   0.000000   0.000001  -0.000000
     8  C    0.004429   0.000101   0.000000  -0.000000   0.000003  -0.000000
     9  C    0.000616  -0.013731   0.000101   0.000027  -0.000318   0.000001
    10  H    0.000021   0.002860  -0.000016   0.000000   0.000004   0.000000
    11  H   -0.000180  -0.000000  -0.000000  -0.000000  -0.000000   0.000000
    12  H   -0.004856  -0.000000   0.000000   0.000000  -0.000000  -0.000000
    13  H    0.607931   0.000001  -0.000000  -0.000000   0.000003   0.000000
    14  C    0.000001   5.161012   0.492660  -0.026882  -0.061700   0.000616
    15  C   -0.000000   0.492660   4.880867   0.539978  -0.021069   0.004429
    16  C   -0.000000  -0.026882   0.539978   4.888916   0.497460  -0.046531
    17  C    0.000003  -0.061700  -0.021069   0.497460   5.080939   0.353312
    18  H    0.000000   0.000616   0.004429  -0.046531   0.353312   0.607935
    19  H   -0.000000   0.004451  -0.041077   0.357339  -0.039493  -0.004857
    20  H    0.000000  -0.038450   0.357065  -0.040341   0.004261  -0.000181
    21  H    0.000000   0.347363  -0.047832   0.004272   0.000499   0.000021
    22  C    0.000857  -0.000229   0.000024  -0.000012  -0.002257   0.000857
    23  H    0.000047  -0.000043  -0.000011  -0.000024   0.000272   0.000047
    24  H    0.001807   0.000006  -0.000000   0.000002  -0.000049  -0.000081
    25  H   -0.000081  -0.000002   0.000000   0.000010   0.003272   0.001805
    26  C    0.000856  -0.000229   0.000024  -0.000012  -0.002258   0.000856
    27  H   -0.000081  -0.000002   0.000000   0.000010   0.003272   0.001804
    28  H    0.001806   0.000006  -0.000000   0.000002  -0.000049  -0.000081
    29  H    0.000047  -0.000043  -0.000011  -0.000024   0.000272   0.000047
              19         20         21         22         23         24
     1  C   -0.000154   0.000012  -0.000227   0.351820  -0.030036  -0.026926
     2  C    0.002744   0.001174   0.005386  -0.044754  -0.002217   0.004907
     3  C    0.001002   0.002054  -0.032449   0.000053   0.001035   0.000094
     4  C    0.000005  -0.000189  -0.008901   0.000056   0.001035  -0.000342
     5  C    0.000003   0.000002  -0.000033  -0.044750  -0.002215  -0.008903
     6  C   -0.000000  -0.000000   0.000004  -0.002260   0.000272   0.003274
     7  C    0.000000  -0.000000   0.000000  -0.000012  -0.000024   0.000010
     8  C    0.000000  -0.000000  -0.000016   0.000024  -0.000011   0.000000
     9  C   -0.000000  -0.000000   0.002861  -0.000229  -0.000043  -0.000002
    10  H   -0.000000   0.000001   0.002722   0.000003   0.000001   0.000000
    11  H   -0.000000   0.000000   0.000001   0.000000  -0.000000  -0.000000
    12  H   -0.000000  -0.000000  -0.000000   0.000001   0.000000   0.000002
    13  H   -0.000000   0.000000   0.000000   0.000857   0.000047   0.001807
    14  C    0.004451  -0.038450   0.347363  -0.000229  -0.000043   0.000006
    15  C   -0.041077   0.357065  -0.047832   0.000024  -0.000011  -0.000000
    16  C    0.357339  -0.040341   0.004272  -0.000012  -0.000024   0.000002
    17  C   -0.039493   0.004261   0.000499  -0.002257   0.000272  -0.000049
    18  H   -0.004857  -0.000181   0.000021   0.000857   0.000047  -0.000081
    19  H    0.599291  -0.005246  -0.000178   0.000001   0.000000  -0.000000
    20  H   -0.005246   0.597678  -0.004731   0.000000  -0.000000  -0.000000
    21  H   -0.000178  -0.004731   0.603263   0.000003   0.000001  -0.000000
    22  C    0.000001   0.000000   0.000003   5.145012   0.369373   0.362472
    23  H    0.000000  -0.000000   0.000001   0.369373   0.556538  -0.028457
    24  H   -0.000000  -0.000000  -0.000000   0.362472  -0.028457   0.580788
    25  H    0.000002  -0.000000   0.000000   0.362471  -0.028457  -0.031009
    26  C    0.000001   0.000000   0.000003  -0.060627   0.005590  -0.003787
    27  H    0.000002  -0.000000   0.000000  -0.003793  -0.000063  -0.000204
    28  H   -0.000000  -0.000000  -0.000000  -0.003787  -0.000063   0.003159
    29  H    0.000000  -0.000000   0.000001   0.005590  -0.000184  -0.000063
              25         26         27         28         29
     1  C   -0.026922   0.351820  -0.026923  -0.026926  -0.030036
     2  C   -0.008899  -0.044757  -0.008899   0.004907  -0.002217
     3  C   -0.000342   0.000049  -0.000342   0.000094   0.001036
     4  C    0.000094   0.000053   0.000094  -0.000342   0.001036
     5  C    0.004907  -0.044753   0.004908  -0.008903  -0.002215
     6  C   -0.000049  -0.002261  -0.000049   0.003274   0.000271
     7  C    0.000002  -0.000012   0.000002   0.000010  -0.000024
     8  C   -0.000000   0.000024  -0.000000   0.000000  -0.000011
     9  C    0.000006  -0.000229   0.000006  -0.000002  -0.000043
    10  H   -0.000000   0.000003  -0.000000   0.000000   0.000001
    11  H   -0.000000   0.000000  -0.000000  -0.000000  -0.000000
    12  H   -0.000000   0.000001  -0.000000   0.000002   0.000000
    13  H   -0.000081   0.000856  -0.000081   0.001806   0.000047
    14  C   -0.000002  -0.000229  -0.000002   0.000006  -0.000043
    15  C    0.000000   0.000024   0.000000  -0.000000  -0.000011
    16  C    0.000010  -0.000012   0.000010   0.000002  -0.000024
    17  C    0.003272  -0.002258   0.003272  -0.000049   0.000272
    18  H    0.001805   0.000856   0.001804  -0.000081   0.000047
    19  H    0.000002   0.000001   0.000002  -0.000000   0.000000
    20  H   -0.000000   0.000000  -0.000000  -0.000000  -0.000000
    21  H    0.000000   0.000003   0.000000  -0.000000   0.000001
    22  C    0.362471  -0.060627  -0.003793  -0.003787   0.005590
    23  H   -0.028457   0.005590  -0.000063  -0.000063  -0.000184
    24  H   -0.031009  -0.003787  -0.000204   0.003159  -0.000063
    25  H    0.580790  -0.003793   0.003163  -0.000204  -0.000063
    26  C   -0.003793   5.145023   0.362469   0.362470   0.369372
    27  H    0.003163   0.362469   0.580791  -0.031009  -0.028457
    28  H   -0.000204   0.362470  -0.031009   0.580789  -0.028456
    29  H   -0.000063   0.369372  -0.028457  -0.028456   0.556536
 Mulliken charges:
               1
     1  C   -0.064342
     2  C    0.102550
     3  C    0.079082
     4  C    0.079114
     5  C    0.102530
     6  C   -0.201295
     7  C   -0.132598
     8  C   -0.136422
     9  C   -0.192087
    10  H    0.127966
    11  H    0.126886
    12  H    0.126167
    13  H    0.123581
    14  C   -0.192066
    15  C   -0.136432
    16  C   -0.132588
    17  C   -0.201318
    18  H    0.123579
    19  H    0.126164
    20  H    0.126888
    21  H    0.127967
    22  C   -0.435904
    23  H    0.157636
    24  H    0.143301
    25  H    0.143299
    26  C   -0.435896
    27  H    0.143299
    28  H    0.143301
    29  H    0.157636
 Sum of Mulliken charges =  -0.00000
 Mulliken charges with hydrogens summed into heavy atoms:
               1
     1  C   -0.064342
     2  C    0.102550
     3  C    0.079082
     4  C    0.079114
     5  C    0.102530
     6  C   -0.077714
     7  C   -0.006431
     8  C   -0.009535
     9  C   -0.064121
    14  C   -0.064099
    15  C   -0.009544
    16  C   -0.006424
    17  C   -0.077739
    22  C    0.008333
    26  C    0.008340
 Electronic spatial extent (au):  <R**2>=           2909.2256
 Charge=             -0.0000 electrons
 Dipole moment (field-independent basis, Debye):
    X=              0.0000    Y=              0.4204    Z=             -0.0001  Tot=              0.4204
 Quadrupole moment (field-independent basis, Debye-Ang):
   XX=            -80.7230   YY=            -79.7991   ZZ=            -92.2919
   XY=             -0.0001   XZ=              0.0000   YZ=              0.0000
 Traceless Quadrupole moment (field-independent basis, Debye-Ang):
   XX=              3.5484   YY=              4.4722   ZZ=             -8.0206
   XY=             -0.0001   XZ=              0.0000   YZ=              0.0000
 Octapole moment (field-independent basis, Debye-Ang**2):
  XXX=              0.0001  YYY=            -10.6697  ZZZ=             -0.0004  XYY=             -0.0000
  XXY=             -1.7174  XXZ=              0.0007  XZZ=             -0.0002  YZZ=              4.2947
  YYZ=             -0.0001  XYZ=             -0.0001
 Hexadecapole moment (field-independent basis, Debye-Ang**3):
 XXXX=          -2238.8529 YYYY=          -1250.0996 ZZZZ=           -266.3009 XXXY=              0.0013
 XXXZ=              0.0002 YYYX=             -0.0051 YYYZ=              0.0085 ZZZX=              0.0001
 ZZZY=              0.0115 XXYY=           -575.7791 XXZZ=           -497.0139 YYZZ=           -278.9790
 XXYZ=              0.0028 YYXZ=              0.0000 ZZXY=              0.0006
 N-N= 9.270097243804D+02 E-N=-3.196501014969D+03  KE= 5.744294474830D+02
 No NMR shielding tensors so no spin-rotation constants.
 Leave Link  601 at Fri Aug 21 09:58:45 2026, MaxMem=   104857600 cpu:               0.1 elap:               0.1
 (Enter /sw/cluster/pub/apps//g16/l9999.exe)
 1\1\GINC-N07\SP\RB3LYP\6-31G(d)\C15H14\UNKNOWN\21-Aug-2026\0\\#p b3lyp
 /6-31g(d) nosymm density=current sp EmpiricalDispersion=GD3BJ\\Generat
 ed by extraQ₂ - dispersion correction\\0,1\C,0,0.000044,1.4129,-0.00
 002494\C,0,-1.180692,0.446243,0.00003081\C,0,-0.734036,-0.890027,0.000
 02534\C,0,0.733989,-0.890073,0.00001834\C,0,1.180684,0.446183,0.000026
 81\C,0,2.53941,0.732295,0.00004455\C,0,3.457391,-0.324515,0.00004696\C
 ,0,3.01359,-1.650801,0.00003631\C,0,1.648082,-1.943841,0.00001969\H,0,
 1.307174,-2.975736,0.00001464\H,0,3.737939,-2.460531,0.00004118\H,0,4.
 522965,-0.112922,0.00006207\H,0,2.891369,1.760993,0.00005267\C,0,-1.64
 8096,-1.943824,0.00002369\C,0,-3.013606,-1.650804,0.00003531\C,0,-3.45
 7383,-0.324511,0.00004996\C,0,-2.539422,0.732315,0.00004655\H,0,-2.891
 459,1.760991,0.00005967\H,0,-4.522956,-0.112903,0.00006407\H,0,-3.7379
 84,-2.460507,0.00003318\H,0,-1.307099,-2.975688,0.00001764\C,0,0.00002
 7,2.29588221,1.26382684\H,0,-0.00019,1.68087582,2.16885114\H,0,0.88688
 ,2.93922059,1.28471703\H,0,-0.886616,2.93951659,1.28447703\C,0,0.00001
 3,2.29560279,-1.26410015\H,0,-0.886634,2.93922441,-1.28489097\H,0,0.88
 6866,2.9389364,-1.28515796\H,0,-0.000219,1.68037817,-2.16897685\\Versi
 on=ES64L-G16RevA.03\HF=-580.116024\RMSD=6.645e-09\Dipole=0.0000055,0.1
 653799,-0.0000197\Quadrupole=2.6381116,3.3249953,-5.9631069,-0.0000734
 ,0.0000143,0.0000097\PG=C01 [X(C15H14)]\\@


 Cherishing children is the mark of a civilized society.
 -- Joan Ganz Cooney
 Job cpu time:       0 days  0 hours  0 minutes 59.1 seconds.
 Elapsed time:       0 days  0 hours  0 minutes 59.1 seconds.
 File lengths (MBytes):  RWF=     40 Int=      0 D2E=      0 Chk=      5 Scr=      1
 Normal termination of Gaussian 16 at Fri Aug 21 09:58:45 2026.
