77
Generated from .fchk
C        -0.63779599       0.47642935      -0.34290524
C        -0.64918953      -0.37935181      -2.98282591
H        -0.67227098       1.61166525      -2.15587878
H        -2.12676137       0.69901800      -1.89813202
C        -1.48360700       1.97256021       1.83591572
H        -1.90771822       0.73962077      -4.38386551
H        -2.61442198       0.84370482       0.38832025
H        -0.20376162       1.21385108      -4.41514376
H        -0.71442066      -0.30306670      -5.16795406
H        -1.84627749       2.26916024      -0.23847908
C         0.82820274       0.83821211      -0.11442760
C        -0.52333754       3.15835015       1.89925228
C         0.76332269      -0.95902820      -2.98282591
C         0.44893432       2.96246683       2.88968590
C         0.72247054      -2.36231994      -3.01408484
C         1.51994184      -0.23251084       0.47023257
C         0.58728046      -1.34218032       0.66280067
C        -0.67611935      -2.79253365      -3.01181174
C         0.21555194       1.66196613       3.51846515
C        -1.49177584      -1.65301415      -2.98282591
C        -0.89774245       1.05967347       2.91043780
C        -0.67633615      -0.95189474       0.19621113
C        -1.75008596      -1.82205614       0.29613764
C        -1.37191403      -0.15338138       3.38391501
C        -2.87052737      -1.78209440      -3.02570980
C        -1.55598024      -3.08634999       0.84826126
C        -3.43530330      -3.05583360      -3.07391778
C        -0.71364147      -0.77771440       4.44121106
C        -2.62349315      -4.18833936      -3.08629052
C         0.40403451      -0.18855234       5.02849155
C        -0.29719644      -3.47448827       1.30227815
C         0.78267447      -2.60363580       1.21477806
C         0.87315010       1.03860862       4.57441765
C        -1.23856485      -4.06416776      -3.05951340
H        -0.61230536      -4.94769896      -3.07739032
H         1.73246476       1.50215147       5.04345691
H         1.75740610      -2.90459706       1.57833058
H        -0.16082706      -4.46088787       1.72809725
H         0.90518462      -0.68695077       5.84900348
H        -3.07524785      -5.17180008      -3.12399567
H        -2.38875137      -3.77477032       0.91682884
H        -4.51212187      -3.16608230      -3.10662000
H        -1.07272264      -1.73165440       4.80592609
H        -2.73385996      -1.54050895      -0.05720835
H        -3.51472103      -0.91002310      -3.02195282
H        -2.23606425      -0.62781892       2.93799646
C         2.87779091      -0.13159835       0.75338493
C         1.40301860       3.94158111       3.14800169
C         1.89595221      -3.10657039      -3.08536645
C         3.54391132       1.04843007       0.44355578
C         1.37315379       5.12246793       2.41398455
C         3.11395925      -2.43874640      -3.13678538
C         2.86162785       2.11062498      -0.14595961
C         0.39719506       5.32524759       1.44026045
C         3.15590391      -1.04613101      -3.12806288
C        -0.55810893       4.34319150       1.18204208
C         1.98079813      -0.30113832      -3.05666777
C         1.50149895       2.00760363      -0.42952553
H        -1.31457452       4.51729854       0.42510424
H         2.03325543       0.77953363      -3.04729748
H         0.98676978       2.84571783      -0.88179360
H         3.38957047       3.02682652      -0.37830523
H         0.37813269       6.25400524       0.88365689
H         4.11003302      -0.53663280      -3.17285169
H         4.60094991       1.14314471       0.65942744
H         2.10917005       5.89361176       2.60454734
H         4.03632697      -3.00355241      -3.19179971
H         3.41343219      -0.95914948       1.20182267
H         2.15903567       3.79268457       3.90919543
H         1.86536439      -4.18907330      -3.10869929
C        -1.67220518       1.39745542       0.39824782
C        -0.88361548       0.36497641      -4.32316861
C        -1.03660839       0.62615111      -1.85499785
C        -2.88545266       2.45029984       2.29646396
H        -3.30871382       3.15656979       1.57892288
H        -3.56917601       1.60431836       2.38639504
H        -2.82301869       2.94539316       3.26576968

