 Entering Gaussian System, Link 0=g16
 Initial command:
 /sw/cluster/pub/apps//g16/l1.exe "/data/mmaximo/44385/Gau-785369.inp" -scrdir="/data/mmaximo/44385/"
 Entering Link 1 = /sw/cluster/pub/apps//g16/l1.exe PID=    785370.
  
 Copyright (c) 1988,1990,1992,1993,1995,1998,2003,2009,2016,
            Gaussian, Inc.  All Rights Reserved.
  
 This is part of the Gaussian(R) 16 program.  It is based on
 the Gaussian(R) 09 system (copyright 2009, Gaussian, Inc.),
 the Gaussian(R) 03 system (copyright 2003, Gaussian, Inc.),
 the Gaussian(R) 98 system (copyright 1998, Gaussian, Inc.),
 the Gaussian(R) 94 system (copyright 1995, Gaussian, Inc.),
 the Gaussian 92(TM) system (copyright 1992, Gaussian, Inc.),
 the Gaussian 90(TM) system (copyright 1990, Gaussian, Inc.),
 the Gaussian 88(TM) system (copyright 1988, Gaussian, Inc.),
 the Gaussian 86(TM) system (copyright 1986, Carnegie Mellon
 University), and the Gaussian 82(TM) system (copyright 1983,
 Carnegie Mellon University). Gaussian is a federally registered
 trademark of Gaussian, Inc.
  
 This software contains proprietary and confidential information,
 including trade secrets, belonging to Gaussian, Inc.
  
 This software is provided under written license and may be
 used, copied, transmitted, or stored only in accord with that
 written license.
  
 The following legend is applicable only to US Government
 contracts under FAR:
  
                    RESTRICTED RIGHTS LEGEND
  
 Use, reproduction and disclosure by the US Government is
 subject to restrictions as set forth in subparagraphs (a)
 and (c) of the Commercial Computer Software - Restricted
 Rights clause in FAR 52.227-19.
  
 Gaussian, Inc.
 340 Quinnipiac St., Bldg. 40, Wallingford CT 06492
  
  
 ---------------------------------------------------------------
 Warning -- This program may not be used in any manner that
 competes with the business of Gaussian, Inc. or will provide
 assistance to any competitor of Gaussian, Inc.  The licensee
 of this program is prohibited from giving any competitor of
 Gaussian, Inc. access to this program.  By using this program,
 the user acknowledges that Gaussian, Inc. is engaged in the
 business of creating and licensing software in the field of
 computational chemistry and represents and warrants to the
 licensee that it is not a competitor of Gaussian, Inc. and that
 it will not use this program in any manner prohibited above.
 ---------------------------------------------------------------
  

 Cite this work as:
 Gaussian 16, Revision A.03,
 M. J. Frisch, G. W. Trucks, H. B. Schlegel, G. E. Scuseria, 
 M. A. Robb, J. R. Cheeseman, G. Scalmani, V. Barone, 
 G. A. Petersson, H. Nakatsuji, X. Li, M. Caricato, A. V. Marenich, 
 J. Bloino, B. G. Janesko, R. Gomperts, B. Mennucci, H. P. Hratchian, 
 J. V. Ortiz, A. F. Izmaylov, J. L. Sonnenberg, D. Williams-Young, 
 F. Ding, F. Lipparini, F. Egidi, J. Goings, B. Peng, A. Petrone, 
 T. Henderson, D. Ranasinghe, V. G. Zakrzewski, J. Gao, N. Rega, 
 G. Zheng, W. Liang, M. Hada, M. Ehara, K. Toyota, R. Fukuda, 
 J. Hasegawa, M. Ishida, T. Nakajima, Y. Honda, O. Kitao, H. Nakai, 
 T. Vreven, K. Throssell, J. A. Montgomery, Jr., J. E. Peralta, 
 F. Ogliaro, M. J. Bearpark, J. J. Heyd, E. N. Brothers, K. N. Kudin, 
 V. N. Staroverov, T. A. Keith, R. Kobayashi, J. Normand, 
 K. Raghavachari, A. P. Rendell, J. C. Burant, S. S. Iyengar, 
 J. Tomasi, M. Cossi, J. M. Millam, M. Klene, C. Adamo, R. Cammi, 
 J. W. Ochterski, R. L. Martin, K. Morokuma, O. Farkas, 
 J. B. Foresman, and D. J. Fox, Gaussian, Inc., Wallingford CT, 2016.
 
 ******************************************
 Gaussian 16:  ES64L-G16RevA.03 25-Dec-2016
                24-Mar-2026 
 ******************************************
 %chk=f3-def2TZVP_SP.chk
 -------------------------------------------
 #p B3LYP/def2TZVP nosymm density=current sp
 -------------------------------------------
 1/30=1,38=1,172=1/1;
 2/12=2,15=1,17=6,18=5,40=1/2;
 3/5=44,7=101,11=2,25=1,30=1,74=-5/1,2,3;
 4//1;
 5/5=2,38=5/2;
 6/7=2,8=2,9=2,10=2,22=-1,28=1/1;
 99/5=1,9=1/99;
 Leave Link    1 at Tue Mar 24 11:05:58 2026, MaxMem=           0 cpu:               0.0 elap:               0.0
 (Enter /sw/cluster/pub/apps//g16/l101.exe)
 ----------------------
 Generated by extraQ₂
 ----------------------
 Symbolic Z-matrix:
 Charge =  0 Multiplicity = 1
 C                    -0.6378    0.47643  -0.34291 
 C                    -0.64919  -0.37935  -2.98283 
 H                    -0.67227   1.61167  -2.15588 
 H                    -2.12676   0.69902  -1.89813 
 C                    -1.48361   1.97256   1.83592 
 H                    -1.90772   0.73962  -4.38387 
 H                    -2.61442   0.8437    0.38832 
 H                    -0.20376   1.21385  -4.41514 
 H                    -0.71442  -0.30307  -5.16795 
 H                    -1.84628   2.26916  -0.23848 
 C                     0.8282    0.83821  -0.11443 
 C                    -0.52334   3.15835   1.89925 
 C                     0.76332  -0.95903  -2.98283 
 C                     0.44893   2.96247   2.88969 
 C                     0.72247  -2.36232  -3.01408 
 C                     1.51994  -0.23251   0.47023 
 C                     0.58728  -1.34218   0.6628 
 C                    -0.67612  -2.79253  -3.01181 
 C                     0.21555   1.66197   3.51847 
 C                    -1.49178  -1.65301  -2.98283 
 C                    -0.89774   1.05967   2.91044 
 C                    -0.67634  -0.95189   0.19621 
 C                    -1.75009  -1.82206   0.29614 
 C                    -1.37191  -0.15338   3.38392 
 C                    -2.87053  -1.78209  -3.02571 
 C                    -1.55598  -3.08635   0.84826 
 C                    -3.4353   -3.05583  -3.07392 
 C                    -0.71364  -0.77771   4.44121 
 C                    -2.62349  -4.18834  -3.08629 
 C                     0.40403  -0.18855   5.02849 
 C                    -0.2972   -3.47449   1.30228 
 C                     0.78267  -2.60364   1.21478 
 C                     0.87315   1.03861   4.57442 
 C                    -1.23856  -4.06417  -3.05951 
 H                    -0.61231  -4.9477   -3.07739 
 H                     1.73246   1.50215   5.04346 
 H                     1.75741  -2.9046    1.57833 
 H                    -0.16083  -4.46089   1.7281 
 H                     0.90518  -0.68695   5.849 
 H                    -3.07525  -5.1718   -3.124 
 H                    -2.38875  -3.77477   0.91683 
 H                    -4.51212  -3.16608  -3.10662 
 H                    -1.07272  -1.73165   4.80593 
 H                    -2.73386  -1.54051  -0.05721 
 H                    -3.51472  -0.91002  -3.02195 
 H                    -2.23606  -0.62782   2.938 
 C                     2.87779  -0.1316    0.75338 
 C                     1.40302   3.94158   3.148 
 C                     1.89595  -3.10657  -3.08537 
 C                     3.54391   1.04843   0.44356 
 C                     1.37315   5.12247   2.41398 
 C                     3.11396  -2.43875  -3.13679 
 C                     2.86163   2.11062  -0.14596 
 C                     0.3972    5.32525   1.44026 
 C                     3.1559   -1.04613  -3.12806 
 C                    -0.55811   4.34319   1.18204 
 C                     1.9808   -0.30114  -3.05667 
 C                     1.5015    2.0076   -0.42953 
 H                    -1.31457   4.5173    0.4251 
 H                     2.03326   0.77953  -3.0473 
 H                     0.98677   2.84572  -0.88179 
 H                     3.38957   3.02683  -0.37831 
 H                     0.37813   6.25401   0.88366 
 H                     4.11003  -0.53663  -3.17285 
 H                     4.60095   1.14314   0.65943 
 H                     2.10917   5.89361   2.60455 
 H                     4.03633  -3.00355  -3.1918 
 H                     3.41343  -0.95915   1.20182 
 H                     2.15904   3.79268   3.9092 
 H                     1.86536  -4.18907  -3.1087 
 C                    -1.67221   1.39746   0.39825 
 C                    -0.88362   0.36498  -4.32317 
 C                    -1.03661   0.62615  -1.855 
 C                    -2.88545   2.4503    2.29646 
 H                    -3.30871   3.15657   1.57892 
 H                    -3.56918   1.60432   2.3864 
 H                    -2.82302   2.94539   3.26577 
 
 ITRead=  0  0  0  0  0  0  0  0  0  0  0  0  0  0  0  0  0  0  0  0
 ITRead=  0  0  0  0  0  0  0  0  0  0  0  0  0  0  0  0  0  0  0  0
 ITRead=  0  0  0  0  0  0  0  0  0  0  0  0  0  0  0  0  0  0  0  0
 ITRead=  0  0  0  0  0  0  0  0  0  0  0  0  0  0  0  0  0
 MicOpt= -1 -1 -1 -1 -1 -1 -1 -1 -1 -1 -1 -1 -1 -1 -1 -1 -1 -1 -1 -1
 MicOpt= -1 -1 -1 -1 -1 -1 -1 -1 -1 -1 -1 -1 -1 -1 -1 -1 -1 -1 -1 -1
 MicOpt= -1 -1 -1 -1 -1 -1 -1 -1 -1 -1 -1 -1 -1 -1 -1 -1 -1 -1 -1 -1
 MicOpt= -1 -1 -1 -1 -1 -1 -1 -1 -1 -1 -1 -1 -1 -1 -1 -1 -1
 NAtoms=     77 NQM=       77 NQMF=       0 NMMI=      0 NMMIF=      0
                NMic=       0 NMicF=      0.
                    Isotopes and Nuclear Properties:
 (Nuclear quadrupole moments (NQMom) in fm**2, nuclear magnetic moments (NMagM)
  in nuclear magnetons)

  Atom         1           2           3           4           5           6           7           8           9          10
 IAtWgt=          12          12           1           1          12           1           1           1           1           1
 AtmWgt=  12.0000000  12.0000000   1.0078250   1.0078250  12.0000000   1.0078250   1.0078250   1.0078250   1.0078250   1.0078250
 NucSpn=           0           0           1           1           0           1           1           1           1           1
 AtZEff=  -0.0000000  -0.0000000  -0.0000000  -0.0000000  -0.0000000  -0.0000000  -0.0000000  -0.0000000  -0.0000000  -0.0000000
 NQMom=    0.0000000   0.0000000   0.0000000   0.0000000   0.0000000   0.0000000   0.0000000   0.0000000   0.0000000   0.0000000
 NMagM=    0.0000000   0.0000000   2.7928460   2.7928460   0.0000000   2.7928460   2.7928460   2.7928460   2.7928460   2.7928460
 AtZNuc=   6.0000000   6.0000000   1.0000000   1.0000000   6.0000000   1.0000000   1.0000000   1.0000000   1.0000000   1.0000000

  Atom        11          12          13          14          15          16          17          18          19          20
 IAtWgt=          12          12          12          12          12          12          12          12          12          12
 AtmWgt=  12.0000000  12.0000000  12.0000000  12.0000000  12.0000000  12.0000000  12.0000000  12.0000000  12.0000000  12.0000000
 NucSpn=           0           0           0           0           0           0           0           0           0           0
 AtZEff=  -0.0000000  -0.0000000  -0.0000000  -0.0000000  -0.0000000  -0.0000000  -0.0000000  -0.0000000  -0.0000000  -0.0000000
 NQMom=    0.0000000   0.0000000   0.0000000   0.0000000   0.0000000   0.0000000   0.0000000   0.0000000   0.0000000   0.0000000
 NMagM=    0.0000000   0.0000000   0.0000000   0.0000000   0.0000000   0.0000000   0.0000000   0.0000000   0.0000000   0.0000000
 AtZNuc=   6.0000000   6.0000000   6.0000000   6.0000000   6.0000000   6.0000000   6.0000000   6.0000000   6.0000000   6.0000000

  Atom        21          22          23          24          25          26          27          28          29          30
 IAtWgt=          12          12          12          12          12          12          12          12          12          12
 AtmWgt=  12.0000000  12.0000000  12.0000000  12.0000000  12.0000000  12.0000000  12.0000000  12.0000000  12.0000000  12.0000000
 NucSpn=           0           0           0           0           0           0           0           0           0           0
 AtZEff=  -0.0000000  -0.0000000  -0.0000000  -0.0000000  -0.0000000  -0.0000000  -0.0000000  -0.0000000  -0.0000000  -0.0000000
 NQMom=    0.0000000   0.0000000   0.0000000   0.0000000   0.0000000   0.0000000   0.0000000   0.0000000   0.0000000   0.0000000
 NMagM=    0.0000000   0.0000000   0.0000000   0.0000000   0.0000000   0.0000000   0.0000000   0.0000000   0.0000000   0.0000000
 AtZNuc=   6.0000000   6.0000000   6.0000000   6.0000000   6.0000000   6.0000000   6.0000000   6.0000000   6.0000000   6.0000000

  Atom        31          32          33          34          35          36          37          38          39          40
 IAtWgt=          12          12          12          12           1           1           1           1           1           1
 AtmWgt=  12.0000000  12.0000000  12.0000000  12.0000000   1.0078250   1.0078250   1.0078250   1.0078250   1.0078250   1.0078250
 NucSpn=           0           0           0           0           1           1           1           1           1           1
 AtZEff=  -0.0000000  -0.0000000  -0.0000000  -0.0000000  -0.0000000  -0.0000000  -0.0000000  -0.0000000  -0.0000000  -0.0000000
 NQMom=    0.0000000   0.0000000   0.0000000   0.0000000   0.0000000   0.0000000   0.0000000   0.0000000   0.0000000   0.0000000
 NMagM=    0.0000000   0.0000000   0.0000000   0.0000000   2.7928460   2.7928460   2.7928460   2.7928460   2.7928460   2.7928460
 AtZNuc=   6.0000000   6.0000000   6.0000000   6.0000000   1.0000000   1.0000000   1.0000000   1.0000000   1.0000000   1.0000000

  Atom        41          42          43          44          45          46          47          48          49          50
 IAtWgt=           1           1           1           1           1           1          12          12          12          12
 AtmWgt=   1.0078250   1.0078250   1.0078250   1.0078250   1.0078250   1.0078250  12.0000000  12.0000000  12.0000000  12.0000000
 NucSpn=           1           1           1           1           1           1           0           0           0           0
 AtZEff=  -0.0000000  -0.0000000  -0.0000000  -0.0000000  -0.0000000  -0.0000000  -0.0000000  -0.0000000  -0.0000000  -0.0000000
 NQMom=    0.0000000   0.0000000   0.0000000   0.0000000   0.0000000   0.0000000   0.0000000   0.0000000   0.0000000   0.0000000
 NMagM=    2.7928460   2.7928460   2.7928460   2.7928460   2.7928460   2.7928460   0.0000000   0.0000000   0.0000000   0.0000000
 AtZNuc=   1.0000000   1.0000000   1.0000000   1.0000000   1.0000000   1.0000000   6.0000000   6.0000000   6.0000000   6.0000000

  Atom        51          52          53          54          55          56          57          58          59          60
 IAtWgt=          12          12          12          12          12          12          12          12           1           1
 AtmWgt=  12.0000000  12.0000000  12.0000000  12.0000000  12.0000000  12.0000000  12.0000000  12.0000000   1.0078250   1.0078250
 NucSpn=           0           0           0           0           0           0           0           0           1           1
 AtZEff=  -0.0000000  -0.0000000  -0.0000000  -0.0000000  -0.0000000  -0.0000000  -0.0000000  -0.0000000  -0.0000000  -0.0000000
 NQMom=    0.0000000   0.0000000   0.0000000   0.0000000   0.0000000   0.0000000   0.0000000   0.0000000   0.0000000   0.0000000
 NMagM=    0.0000000   0.0000000   0.0000000   0.0000000   0.0000000   0.0000000   0.0000000   0.0000000   2.7928460   2.7928460
 AtZNuc=   6.0000000   6.0000000   6.0000000   6.0000000   6.0000000   6.0000000   6.0000000   6.0000000   1.0000000   1.0000000

  Atom        61          62          63          64          65          66          67          68          69          70
 IAtWgt=           1           1           1           1           1           1           1           1           1           1
 AtmWgt=   1.0078250   1.0078250   1.0078250   1.0078250   1.0078250   1.0078250   1.0078250   1.0078250   1.0078250   1.0078250
 NucSpn=           1           1           1           1           1           1           1           1           1           1
 AtZEff=  -0.0000000  -0.0000000  -0.0000000  -0.0000000  -0.0000000  -0.0000000  -0.0000000  -0.0000000  -0.0000000  -0.0000000
 NQMom=    0.0000000   0.0000000   0.0000000   0.0000000   0.0000000   0.0000000   0.0000000   0.0000000   0.0000000   0.0000000
 NMagM=    2.7928460   2.7928460   2.7928460   2.7928460   2.7928460   2.7928460   2.7928460   2.7928460   2.7928460   2.7928460
 AtZNuc=   1.0000000   1.0000000   1.0000000   1.0000000   1.0000000   1.0000000   1.0000000   1.0000000   1.0000000   1.0000000

  Atom        71          72          73          74          75          76          77
 IAtWgt=          12          12          12          12           1           1           1
 AtmWgt=  12.0000000  12.0000000  12.0000000  12.0000000   1.0078250   1.0078250   1.0078250
 NucSpn=           0           0           0           0           1           1           1
 AtZEff=  -0.0000000  -0.0000000  -0.0000000  -0.0000000  -0.0000000  -0.0000000  -0.0000000
 NQMom=    0.0000000   0.0000000   0.0000000   0.0000000   0.0000000   0.0000000   0.0000000
 NMagM=    0.0000000   0.0000000   0.0000000   0.0000000   2.7928460   2.7928460   2.7928460
 AtZNuc=   6.0000000   6.0000000   6.0000000   6.0000000   1.0000000   1.0000000   1.0000000
 Leave Link  101 at Tue Mar 24 11:05:58 2026, MaxMem=   104857600 cpu:               0.0 elap:               0.0
 (Enter /sw/cluster/pub/apps//g16/l202.exe)
 Symmetry turned off by external request.
 Stoichiometry    C43H34
 Framework group  C1[X(C43H34)]
 Deg. of freedom   225
 Full point group                 C1      NOp   1
                          Input orientation:                          
 ---------------------------------------------------------------------
 Center     Atomic      Atomic             Coordinates (Angstroms)
 Number     Number       Type             X           Y           Z
 ---------------------------------------------------------------------
      1          6           0       -0.637796    0.476429   -0.342905
      2          6           0       -0.649190   -0.379352   -2.982826
      3          1           0       -0.672271    1.611665   -2.155879
      4          1           0       -2.126761    0.699018   -1.898132
      5          6           0       -1.483607    1.972560    1.835916
      6          1           0       -1.907718    0.739621   -4.383866
      7          1           0       -2.614422    0.843705    0.388320
      8          1           0       -0.203762    1.213851   -4.415144
      9          1           0       -0.714421   -0.303067   -5.167954
     10          1           0       -1.846277    2.269160   -0.238479
     11          6           0        0.828203    0.838212   -0.114428
     12          6           0       -0.523338    3.158350    1.899252
     13          6           0        0.763323   -0.959028   -2.982826
     14          6           0        0.448934    2.962467    2.889686
     15          6           0        0.722471   -2.362320   -3.014085
     16          6           0        1.519942   -0.232511    0.470233
     17          6           0        0.587280   -1.342180    0.662801
     18          6           0       -0.676119   -2.792534   -3.011812
     19          6           0        0.215552    1.661966    3.518465
     20          6           0       -1.491776   -1.653014   -2.982826
     21          6           0       -0.897742    1.059673    2.910438
     22          6           0       -0.676336   -0.951895    0.196211
     23          6           0       -1.750086   -1.822056    0.296138
     24          6           0       -1.371914   -0.153381    3.383915
     25          6           0       -2.870527   -1.782094   -3.025710
     26          6           0       -1.555980   -3.086350    0.848261
     27          6           0       -3.435303   -3.055834   -3.073918
     28          6           0       -0.713641   -0.777714    4.441211
     29          6           0       -2.623493   -4.188339   -3.086291
     30          6           0        0.404035   -0.188552    5.028492
     31          6           0       -0.297196   -3.474488    1.302278
     32          6           0        0.782674   -2.603636    1.214778
     33          6           0        0.873150    1.038609    4.574418
     34          6           0       -1.238565   -4.064168   -3.059513
     35          1           0       -0.612305   -4.947699   -3.077390
     36          1           0        1.732465    1.502151    5.043457
     37          1           0        1.757406   -2.904597    1.578331
     38          1           0       -0.160827   -4.460888    1.728097
     39          1           0        0.905185   -0.686951    5.849003
     40          1           0       -3.075248   -5.171800   -3.123996
     41          1           0       -2.388751   -3.774770    0.916829
     42          1           0       -4.512122   -3.166082   -3.106620
     43          1           0       -1.072723   -1.731654    4.805926
     44          1           0       -2.733860   -1.540509   -0.057208
     45          1           0       -3.514721   -0.910023   -3.021953
     46          1           0       -2.236064   -0.627819    2.937996
     47          6           0        2.877791   -0.131598    0.753385
     48          6           0        1.403019    3.941581    3.148002
     49          6           0        1.895952   -3.106570   -3.085366
     50          6           0        3.543911    1.048430    0.443556
     51          6           0        1.373154    5.122468    2.413985
     52          6           0        3.113959   -2.438746   -3.136785
     53          6           0        2.861628    2.110625   -0.145960
     54          6           0        0.397195    5.325248    1.440260
     55          6           0        3.155904   -1.046131   -3.128063
     56          6           0       -0.558109    4.343192    1.182042
     57          6           0        1.980798   -0.301138   -3.056668
     58          6           0        1.501499    2.007604   -0.429526
     59          1           0       -1.314575    4.517299    0.425104
     60          1           0        2.033255    0.779534   -3.047297
     61          1           0        0.986770    2.845718   -0.881794
     62          1           0        3.389570    3.026827   -0.378305
     63          1           0        0.378133    6.254005    0.883657
     64          1           0        4.110033   -0.536633   -3.172852
     65          1           0        4.600950    1.143145    0.659427
     66          1           0        2.109170    5.893612    2.604547
     67          1           0        4.036327   -3.003552   -3.191800
     68          1           0        3.413432   -0.959149    1.201823
     69          1           0        2.159036    3.792685    3.909195
     70          1           0        1.865364   -4.189073   -3.108699
     71          6           0       -1.672205    1.397455    0.398248
     72          6           0       -0.883615    0.364976   -4.323169
     73          6           0       -1.036608    0.626151   -1.854998
     74          6           0       -2.885453    2.450300    2.296464
     75          1           0       -3.308714    3.156570    1.578923
     76          1           0       -3.569176    1.604318    2.386395
     77          1           0       -2.823019    2.945393    3.265770
 ---------------------------------------------------------------------
 Rotational constants (GHZ):           0.1473060           0.0744321           0.0687827
 Leave Link  202 at Tue Mar 24 11:05:58 2026, MaxMem=   104857600 cpu:               0.0 elap:               0.0
 (Enter /sw/cluster/pub/apps//g16/l301.exe)
 Standard basis: def2TZVP (5D, 7F)
 Ernie: Thresh=  0.10000D-02 Tol=  0.10000D-05 Strict=F.
  1537 basis functions,  2465 primitive gaussians,  1752 cartesian basis functions
   146 alpha electrons      146 beta electrons
       nuclear repulsion energy      5166.7299602831 Hartrees.
 IExCor=  402 DFT=T Ex+Corr=B3LYP ExCW=0 ScaHFX=  0.200000
 ScaDFX=  0.800000  0.720000  1.000000  0.810000 ScalE2=  1.000000  1.000000
 IRadAn=      5 IRanWt=     -1 IRanGd=            0 ICorTp=0 IEmpDi=  4
 NAtoms=   77 NActive=   77 NUniq=   77 SFac= 1.00D+00 NAtFMM=   60 NAOKFM=T Big=T
 Integral buffers will be    131072 words long.
 Raffenetti 2 integral format.
 Two-electron integral symmetry is turned off.
 Leave Link  301 at Tue Mar 24 11:05:58 2026, MaxMem=   104857600 cpu:               0.0 elap:               0.0
 (Enter /sw/cluster/pub/apps//g16/l302.exe)
 NPDir=0 NMtPBC=     1 NCelOv=     1 NCel=       1 NClECP=     1 NCelD=      1
         NCelK=      1 NCelE2=     1 NClLst=     1 CellRange=     0.0.
 One-electron integrals computed using PRISM.
   1 Symmetry operations used in ECPInt.
 ECPInt:  NShTT=  185745 NPrTT=  567628 LenC2=  153769 LenP2D=  315681.
 LDataN:  DoStor=T MaxTD1= 6 Len=  172
 NBasis=  1537 RedAO= T EigKep=  2.69D-06  NBF=  1537
 NBsUse=  1537 1.00D-06 EigRej= -1.00D+00 NBFU=  1537
 Precomputing XC quadrature grid using
 IXCGrd= 4 IRadAn=           5 IRanWt=          -1 IRanGd=           0 AccXCQ= 0.00D+00.
 Generated NRdTot=       0 NPtTot=           0 NUsed=           0 NTot=          32
 NSgBfM=  1709  1708  1708  1708  1709 MxSgAt=    77 MxSgA2=    77.
 Leave Link  302 at Tue Mar 24 11:06:03 2026, MaxMem=   104857600 cpu:               5.4 elap:               5.4
 (Enter /sw/cluster/pub/apps//g16/l303.exe)
 DipDrv:  MaxL=1.
 Leave Link  303 at Tue Mar 24 11:06:04 2026, MaxMem=   104857600 cpu:               0.2 elap:               0.2
 (Enter /sw/cluster/pub/apps//g16/l401.exe)
 ExpMin= 9.52D-02 ExpMax= 1.36D+04 ExpMxC= 4.63D+02 IAcc=3 IRadAn=         5 AccDes= 0.00D+00
 Harris functional with IExCor=  402 and IRadAn=       5 diagonalized for initial guess.
 HarFok:  IExCor=  402 AccDes= 0.00D+00 IRadAn=         5 IDoV= 1 UseB2=F ITyADJ=14
 ICtDFT=  3500011 ScaDFX=  1.000000  1.000000  1.000000  1.000000
 FoFCou: FMM=F IPFlag=           0 FMFlag=      100000 FMFlg1=        2001
         NFxFlg=           0 DoJE=T BraDBF=F KetDBF=T FulRan=T
         wScrn=  0.000000 ICntrl=       500 IOpCl=  0 I1Cent=   200000004 NGrid=           0
         NMat0=    1 NMatS0=      1 NMatT0=    0 NMatD0=    1 NMtDS0=    0 NMtDT0=    0
 Symmetry not used in FoFCou.
 Harris En= -1659.81876402954    
 JPrj=0 DoOrth=F DoCkMO=F.
 Leave Link  401 at Tue Mar 24 11:07:14 2026, MaxMem=   104857600 cpu:              70.0 elap:              70.1
 (Enter /sw/cluster/pub/apps//g16/l502.exe)
 Two-electron integral symmetry not used.
 Closed shell SCF:
 Using DIIS extrapolation, IDIIS=  1040.
 NGot=   104857600 LenX=    98696761 LenY=    95625505
 Requested convergence on RMS density matrix=1.00D-08 within 128 cycles.
 Requested convergence on MAX density matrix=1.00D-06.
 Requested convergence on             energy=1.00D-06.
 No special actions if energy rises.
 Fock matrices will be formed incrementally for  20 cycles.
 Integral accuracy reduced to 1.0D-05 until final iterations.

 Cycle   1  Pass 0  IDiag  1:
 FoFJK:  IHMeth= 1 ICntrl=       0 DoSepK=F KAlg= 0 I1Cent=           0 FoldK=F
 IRaf= 840000000 NMat=       1 IRICut=       1 DoRegI=T DoRafI=F ISym2E= 0 IDoP0=0 IntGTp=1.
 FoFCou: FMM=T IPFlag=           0 FMFlag=      100000 FMFlg1=        2001
         NFxFlg=           0 DoJE=F BraDBF=F KetDBF=F FulRan=T
         wScrn=  0.000000 ICntrl=         0 IOpCl=  0 I1Cent=           0 NGrid=           0
         NMat0=    1 NMatS0=      1 NMatT0=    0 NMatD0=    1 NMtDS0=    0 NMtDT0=    0
 Symmetry not used in FoFCou.
 FMM levels:  10  Number of levels for PrismC:   9
 E= -1658.59526487671    
 DIIS: error= 1.60D-02 at cycle   1 NSaved=   1.
 NSaved= 1 IEnMin= 1 EnMin= -1658.59526487671     IErMin= 1 ErrMin= 1.60D-02
 ErrMax= 1.60D-02  0.00D+00 EMaxC= 1.00D-01 BMatC= 1.07D+00 BMatP= 1.07D+00
 IDIUse=3 WtCom= 8.40D-01 WtEn= 1.60D-01
 Coeff-Com:  0.100D+01
 Coeff-En:   0.100D+01
 Coeff:      0.100D+01
 Gap=     0.179 Goal=   None    Shift=    0.000
 GapD=    0.179 DampG=1.000 DampE=0.500 DampFc=0.5000 IDamp=-1.
 Damping current iteration by 5.00D-01
 RMSDP=2.40D+02 MaxDP=3.80D+04              OVMax= 9.90D-01

 Problem detected with inexpensive integrals.
 Switching to full accuracy and repeating last cycle.
 Cycle   2  Pass 1  IDiag  1:
 E= -1658.59545045443     Delta-E=       -0.000185577720 Rises=F Damp=F
 DIIS: error= 1.60D-02 at cycle   1 NSaved=   1.
 NSaved= 1 IEnMin= 1 EnMin= -1658.59545045443     IErMin= 1 ErrMin= 1.60D-02
 ErrMax= 1.60D-02  0.00D+00 EMaxC= 1.00D-01 BMatC= 1.06D+00 BMatP= 1.06D+00
 IDIUse=3 WtCom= 8.40D-01 WtEn= 1.60D-01
 Coeff-Com:  0.100D+01
 Coeff-En:   0.100D+01
 Coeff:      0.100D+01
 Gap=     0.179 Goal=   None    Shift=    0.000
 GapD=    0.179 DampG=1.000 DampE=0.500 DampFc=0.5000 IDamp=-1.
 Damping current iteration by 5.00D-01
 RMSDP=4.31D-03 MaxDP=7.00D-01 DE=-1.86D-04 OVMax= 1.69D-01

 Cycle   3  Pass 1  IDiag  1:
 RMSU=  2.15D-03    CP:  1.04D+00
 E= -1659.06781126230     Delta-E=       -0.472360807866 Rises=F Damp=T
 DIIS: error= 4.10D-03 at cycle   2 NSaved=   2.
 NSaved= 2 IEnMin= 2 EnMin= -1659.06781126230     IErMin= 2 ErrMin= 4.10D-03
 ErrMax= 4.10D-03  0.00D+00 EMaxC= 1.00D-01 BMatC= 6.46D-02 BMatP= 1.06D+00
 IDIUse=3 WtCom= 9.59D-01 WtEn= 4.10D-02
 Coeff-Com:  0.151D-01 0.985D+00
 Coeff-En:   0.839D-01 0.916D+00
 Coeff:      0.179D-01 0.982D+00
 Gap=     0.261 Goal=   None    Shift=    0.000
 GapD=    0.261 DampG=1.000 DampE=1.000 DampFc=1.0000 IDamp=-1.
 RMSDP=2.11D-03 MaxDP=3.46D-01 DE=-4.72D-01 OVMax= 1.10D-01

 Cycle   4  Pass 1  IDiag  1:
 RMSU=  9.14D-04    CP:  9.25D-01  1.51D-01
 E= -1659.62275585852     Delta-E=       -0.554944596221 Rises=F Damp=F
 DIIS: error= 5.60D-03 at cycle   3 NSaved=   3.
 NSaved= 3 IEnMin= 3 EnMin= -1659.62275585852     IErMin= 2 ErrMin= 4.10D-03
 ErrMax= 5.60D-03  0.00D+00 EMaxC= 1.00D-01 BMatC= 3.84D-02 BMatP= 6.46D-02
 IDIUse=3 WtCom= 9.44D-01 WtEn= 5.60D-02
 Coeff-Com: -0.544D-01 0.432D+00 0.623D+00
 Coeff-En:   0.000D+00 0.000D+00 0.100D+01
 Coeff:     -0.514D-01 0.407D+00 0.644D+00
 Gap=     0.186 Goal=   None    Shift=    0.000
 RMSDP=6.12D-04 MaxDP=4.55D-02 DE=-5.55D-01 OVMax= 6.28D-02

 Cycle   5  Pass 1  IDiag  1:
 RMSU=  4.28D-04    CP:  9.35D-01  3.36D-01  8.03D-01
 E= -1659.63701569082     Delta-E=       -0.014259832304 Rises=F Damp=F
 DIIS: error= 5.63D-03 at cycle   4 NSaved=   4.
 NSaved= 4 IEnMin= 4 EnMin= -1659.63701569082     IErMin= 2 ErrMin= 4.10D-03
 ErrMax= 5.63D-03  0.00D+00 EMaxC= 1.00D-01 BMatC= 2.63D-02 BMatP= 3.84D-02
 IDIUse=3 WtCom= 9.44D-01 WtEn= 5.63D-02
 Coeff-Com: -0.432D-01 0.209D+00 0.462D+00 0.373D+00
 Coeff-En:   0.000D+00 0.000D+00 0.407D+00 0.593D+00
 Coeff:     -0.408D-01 0.197D+00 0.458D+00 0.385D+00
 Gap=     0.177 Goal=   None    Shift=    0.000
 RMSDP=2.06D-04 MaxDP=1.12D-02 DE=-1.43D-02 OVMax= 3.90D-02

 Cycle   6  Pass 1  IDiag  1:
 RMSU=  1.15D-04    CP:  9.33D-01  2.99D-01  8.72D-01  6.78D-01
 E= -1659.66254640067     Delta-E=       -0.025530709845 Rises=F Damp=F
 DIIS: error= 1.50D-03 at cycle   5 NSaved=   5.
 NSaved= 5 IEnMin= 5 EnMin= -1659.66254640067     IErMin= 5 ErrMin= 1.50D-03
 ErrMax= 1.50D-03  0.00D+00 EMaxC= 1.00D-01 BMatC= 1.66D-03 BMatP= 2.63D-02
 IDIUse=3 WtCom= 9.85D-01 WtEn= 1.50D-02
 Coeff-Com: -0.153D-01 0.461D-01 0.159D+00 0.234D+00 0.576D+00
 Coeff-En:   0.000D+00 0.000D+00 0.000D+00 0.566D-01 0.943D+00
 Coeff:     -0.150D-01 0.455D-01 0.156D+00 0.231D+00 0.582D+00
 Gap=     0.177 Goal=   None    Shift=    0.000
 RMSDP=5.71D-05 MaxDP=4.65D-03 DE=-2.55D-02 OVMax= 1.09D-02

 Cycle   7  Pass 1  IDiag  1:
 RMSU=  3.80D-05    CP:  9.32D-01  2.95D-01  8.71D-01  7.06D-01  6.59D-01
 E= -1659.66403057555     Delta-E=       -0.001484174885 Rises=F Damp=F
 DIIS: error= 4.17D-04 at cycle   6 NSaved=   6.
 NSaved= 6 IEnMin= 6 EnMin= -1659.66403057555     IErMin= 6 ErrMin= 4.17D-04
 ErrMax= 4.17D-04  0.00D+00 EMaxC= 1.00D-01 BMatC= 2.32D-04 BMatP= 1.66D-03
 IDIUse=3 WtCom= 9.96D-01 WtEn= 4.17D-03
 Coeff-Com: -0.610D-02 0.120D-01 0.615D-01 0.115D+00 0.376D+00 0.442D+00
 Coeff-En:   0.000D+00 0.000D+00 0.000D+00 0.000D+00 0.121D+00 0.879D+00
 Coeff:     -0.607D-02 0.120D-01 0.612D-01 0.114D+00 0.375D+00 0.444D+00
 Gap=     0.176 Goal=   None    Shift=    0.000
 RMSDP=2.09D-05 MaxDP=2.45D-03 DE=-1.48D-03 OVMax= 4.03D-03

 Cycle   8  Pass 1  IDiag  1:
 RMSU=  1.22D-05    CP:  9.32D-01  2.96D-01  8.74D-01  7.05D-01  7.21D-01
                    CP:  6.02D-01
 E= -1659.66427405188     Delta-E=       -0.000243476328 Rises=F Damp=F
 DIIS: error= 1.04D-04 at cycle   7 NSaved=   7.
 NSaved= 7 IEnMin= 7 EnMin= -1659.66427405188     IErMin= 7 ErrMin= 1.04D-04
 ErrMax= 1.04D-04  0.00D+00 EMaxC= 1.00D-01 BMatC= 1.40D-05 BMatP= 2.32D-04
 IDIUse=3 WtCom= 9.99D-01 WtEn= 1.04D-03
 Coeff-Com: -0.243D-02 0.353D-02 0.246D-01 0.508D-01 0.182D+00 0.266D+00
 Coeff-Com:  0.476D+00
 Coeff-En:   0.000D+00 0.000D+00 0.000D+00 0.000D+00 0.000D+00 0.000D+00
 Coeff-En:   0.100D+01
 Coeff:     -0.243D-02 0.352D-02 0.246D-01 0.507D-01 0.182D+00 0.266D+00
 Coeff:      0.476D+00
 Gap=     0.176 Goal=   None    Shift=    0.000
 RMSDP=5.10D-06 MaxDP=3.93D-04 DE=-2.43D-04 OVMax= 1.23D-03

 Cycle   9  Pass 1  IDiag  1:
 RMSU=  3.87D-06    CP:  9.32D-01  2.95D-01  8.75D-01  7.04D-01  7.17D-01
                    CP:  6.29D-01  7.51D-01
 E= -1659.66428736990     Delta-E=       -0.000013318017 Rises=F Damp=F
 DIIS: error= 4.57D-05 at cycle   8 NSaved=   8.
 NSaved= 8 IEnMin= 8 EnMin= -1659.66428736990     IErMin= 8 ErrMin= 4.57D-05
 ErrMax= 4.57D-05  0.00D+00 EMaxC= 1.00D-01 BMatC= 1.88D-06 BMatP= 1.40D-05
 IDIUse=1 WtCom= 1.00D+00 WtEn= 0.00D+00
 Coeff-Com: -0.435D-03 0.108D-03 0.463D-02 0.118D-01 0.464D-01 0.876D-01
 Coeff-Com:  0.295D+00 0.555D+00
 Coeff:     -0.435D-03 0.108D-03 0.463D-02 0.118D-01 0.464D-01 0.876D-01
 Coeff:      0.295D+00 0.555D+00
 Gap=     0.176 Goal=   None    Shift=    0.000
 RMSDP=1.83D-06 MaxDP=9.70D-05 DE=-1.33D-05 OVMax= 4.06D-04

 Cycle  10  Pass 1  IDiag  1:
 RMSU=  1.38D-06    CP:  9.32D-01  2.95D-01  8.75D-01  7.04D-01  7.18D-01
                    CP:  6.23D-01  8.04D-01  7.82D-01
 E= -1659.66428920730     Delta-E=       -0.000001837402 Rises=F Damp=F
 DIIS: error= 1.32D-05 at cycle   9 NSaved=   9.
 NSaved= 9 IEnMin= 9 EnMin= -1659.66428920730     IErMin= 9 ErrMin= 1.32D-05
 ErrMax= 1.32D-05  0.00D+00 EMaxC= 1.00D-01 BMatC= 2.09D-07 BMatP= 1.88D-06
 IDIUse=1 WtCom= 1.00D+00 WtEn= 0.00D+00
 Coeff-Com: -0.595D-04-0.218D-03 0.682D-03 0.293D-02 0.123D-01 0.298D-01
 Coeff-Com:  0.135D+00 0.332D+00 0.488D+00
 Coeff:     -0.595D-04-0.218D-03 0.682D-03 0.293D-02 0.123D-01 0.298D-01
 Coeff:      0.135D+00 0.332D+00 0.488D+00
 Gap=     0.176 Goal=   None    Shift=    0.000
 RMSDP=6.72D-07 MaxDP=7.61D-05 DE=-1.84D-06 OVMax= 1.35D-04

 Cycle  11  Pass 1  IDiag  1:
 RMSU=  4.63D-07    CP:  9.32D-01  2.95D-01  8.75D-01  7.04D-01  7.18D-01
                    CP:  6.27D-01  8.06D-01  7.89D-01  7.46D-01
 E= -1659.66428941969     Delta-E=       -0.000000212389 Rises=F Damp=F
 DIIS: error= 3.58D-06 at cycle  10 NSaved=  10.
 NSaved=10 IEnMin=10 EnMin= -1659.66428941969     IErMin=10 ErrMin= 3.58D-06
 ErrMax= 3.58D-06  0.00D+00 EMaxC= 1.00D-01 BMatC= 1.81D-08 BMatP= 2.09D-07
 IDIUse=1 WtCom= 1.00D+00 WtEn= 0.00D+00
 Coeff-Com:  0.207D-04-0.127D-03-0.245D-03 0.130D-03 0.632D-03 0.455D-02
 Coeff-Com:  0.319D-01 0.102D+00 0.268D+00 0.593D+00
 Coeff:      0.207D-04-0.127D-03-0.245D-03 0.130D-03 0.632D-03 0.455D-02
 Coeff:      0.319D-01 0.102D+00 0.268D+00 0.593D+00
 Gap=     0.176 Goal=   None    Shift=    0.000
 RMSDP=1.82D-07 MaxDP=2.50D-05 DE=-2.12D-07 OVMax= 3.68D-05

 Cycle  12  Pass 1  IDiag  1:
 RMSU=  1.31D-07    CP:  9.32D-01  2.95D-01  8.75D-01  7.04D-01  7.18D-01
                    CP:  6.28D-01  8.10D-01  7.92D-01  7.76D-01  8.29D-01
 E= -1659.66428943765     Delta-E=       -0.000000017956 Rises=F Damp=F
 DIIS: error= 8.82D-07 at cycle  11 NSaved=  11.
 NSaved=11 IEnMin=11 EnMin= -1659.66428943765     IErMin=11 ErrMin= 8.82D-07
 ErrMax= 8.82D-07  0.00D+00 EMaxC= 1.00D-01 BMatC= 1.92D-09 BMatP= 1.81D-08
 IDIUse=1 WtCom= 1.00D+00 WtEn= 0.00D+00
 Coeff-Com:  0.131D-04-0.462D-04-0.178D-03-0.115D-03-0.496D-03 0.389D-03
 Coeff-Com:  0.755D-02 0.316D-01 0.113D+00 0.333D+00 0.515D+00
 Coeff:      0.131D-04-0.462D-04-0.178D-03-0.115D-03-0.496D-03 0.389D-03
 Coeff:      0.755D-02 0.316D-01 0.113D+00 0.333D+00 0.515D+00
 Gap=     0.176 Goal=   None    Shift=    0.000
 RMSDP=5.85D-08 MaxDP=3.17D-06 DE=-1.80D-08 OVMax= 9.57D-06

 Cycle  13  Pass 1  IDiag  1:
 RMSU=  3.48D-08    CP:  9.32D-01  2.95D-01  8.75D-01  7.04D-01  7.18D-01
                    CP:  6.28D-01  8.10D-01  7.96D-01  7.82D-01  8.27D-01
                    CP:  7.21D-01
 E= -1659.66428943946     Delta-E=       -0.000000001808 Rises=F Damp=F
 DIIS: error= 2.56D-07 at cycle  12 NSaved=  12.
 NSaved=12 IEnMin=12 EnMin= -1659.66428943946     IErMin=12 ErrMin= 2.56D-07
 ErrMax= 2.56D-07  0.00D+00 EMaxC= 1.00D-01 BMatC= 1.05D-10 BMatP= 1.92D-09
 IDIUse=1 WtCom= 1.00D+00 WtEn= 0.00D+00
 Coeff-Com:  0.354D-05-0.986D-05-0.609D-04-0.568D-04-0.252D-03-0.136D-03
 Coeff-Com:  0.848D-03 0.636D-02 0.305D-01 0.107D+00 0.246D+00 0.610D+00
 Coeff:      0.354D-05-0.986D-05-0.609D-04-0.568D-04-0.252D-03-0.136D-03
 Coeff:      0.848D-03 0.636D-02 0.305D-01 0.107D+00 0.246D+00 0.610D+00
 Gap=     0.176 Goal=   None    Shift=    0.000
 RMSDP=1.46D-08 MaxDP=2.70D-06 DE=-1.81D-09 OVMax= 2.36D-06

 Cycle  14  Pass 1  IDiag  1:
 RMSU=  1.18D-08    CP:  9.32D-01  2.95D-01  8.75D-01  7.04D-01  7.18D-01
                    CP:  6.28D-01  8.10D-01  7.96D-01  7.85D-01  8.25D-01
                    CP:  7.36D-01  9.07D-01
 E= -1659.66428943958     Delta-E=       -0.000000000124 Rises=F Damp=F
 DIIS: error= 1.02D-07 at cycle  13 NSaved=  13.
 NSaved=13 IEnMin=13 EnMin= -1659.66428943958     IErMin=13 ErrMin= 1.02D-07
 ErrMax= 1.02D-07  0.00D+00 EMaxC= 1.00D-01 BMatC= 1.66D-11 BMatP= 1.05D-10
 IDIUse=1 WtCom= 1.00D+00 WtEn= 0.00D+00
 Coeff-Com:  0.763D-06-0.142D-05-0.184D-04-0.230D-04-0.965D-04-0.109D-03
 Coeff-Com: -0.286D-03 0.465D-03 0.588D-02 0.265D-01 0.835D-01 0.342D+00
 Coeff-Com:  0.542D+00
 Coeff:      0.763D-06-0.142D-05-0.184D-04-0.230D-04-0.965D-04-0.109D-03
 Coeff:     -0.286D-03 0.465D-03 0.588D-02 0.265D-01 0.835D-01 0.342D+00
 Coeff:      0.542D+00
 Gap=     0.176 Goal=   None    Shift=    0.000
 RMSDP=5.43D-09 MaxDP=4.55D-07 DE=-1.24D-10 OVMax= 9.70D-07

 SCF Done:  E(RB3LYP) =  -1659.66428944     A.U. after   14 cycles
            NFock= 14  Conv=0.54D-08     -V/T= 2.0053
 KE= 1.650923976105D+03 PE=-1.418320584213D+04 EE= 5.705887616303D+03
 Leave Link  502 at Tue Mar 24 16:51:05 2026, MaxMem=   104857600 cpu:           20603.4 elap:           20631.4
 (Enter /sw/cluster/pub/apps//g16/l601.exe)
 Copying SCF densities to generalized density rwf, IOpCl= 0 IROHF=0.

 **********************************************************************

            Population analysis using the SCF density.

 **********************************************************************

 Alpha  occ. eigenvalues --  -10.20119 -10.19870 -10.19870 -10.18279 -10.18278
 Alpha  occ. eigenvalues --  -10.17565 -10.17565 -10.17484 -10.17484 -10.17401
 Alpha  occ. eigenvalues --  -10.17401 -10.17382 -10.17382 -10.17319 -10.17319
 Alpha  occ. eigenvalues --  -10.17300 -10.17299 -10.17289 -10.17289 -10.17244
 Alpha  occ. eigenvalues --  -10.17226 -10.17222 -10.17222 -10.17188 -10.17173
 Alpha  occ. eigenvalues --  -10.16984 -10.16983 -10.16908 -10.16908 -10.16887
 Alpha  occ. eigenvalues --  -10.16887 -10.16885 -10.16885 -10.16843 -10.16842
 Alpha  occ. eigenvalues --  -10.16819 -10.16819 -10.16795 -10.16795 -10.16758
 Alpha  occ. eigenvalues --  -10.16758 -10.16698 -10.16698  -0.89635  -0.89059
 Alpha  occ. eigenvalues --   -0.88343  -0.84552  -0.84484  -0.84229  -0.82679
 Alpha  occ. eigenvalues --   -0.81385  -0.79895  -0.77797  -0.77476  -0.76637
 Alpha  occ. eigenvalues --   -0.74384  -0.74252  -0.74032  -0.73952  -0.73329
 Alpha  occ. eigenvalues --   -0.71739  -0.71325  -0.71323  -0.71111  -0.68000
 Alpha  occ. eigenvalues --   -0.65021  -0.64617  -0.64462  -0.62718  -0.62117
 Alpha  occ. eigenvalues --   -0.62027  -0.58556  -0.58405  -0.58134  -0.57596
 Alpha  occ. eigenvalues --   -0.57567  -0.57471  -0.57267  -0.55553  -0.55221
 Alpha  occ. eigenvalues --   -0.51677  -0.50909  -0.50745  -0.50064  -0.49596
 Alpha  occ. eigenvalues --   -0.49102  -0.47930  -0.47320  -0.46886  -0.45741
 Alpha  occ. eigenvalues --   -0.45717  -0.45298  -0.44918  -0.44398  -0.44258
 Alpha  occ. eigenvalues --   -0.43905  -0.43747  -0.43633  -0.43586  -0.43075
 Alpha  occ. eigenvalues --   -0.42483  -0.42118  -0.41955  -0.41854  -0.41805
 Alpha  occ. eigenvalues --   -0.41694  -0.41403  -0.41187  -0.39254  -0.39121
 Alpha  occ. eigenvalues --   -0.38534  -0.38454  -0.38209  -0.38182  -0.38144
 Alpha  occ. eigenvalues --   -0.37725  -0.37629  -0.36673  -0.35883  -0.35600
 Alpha  occ. eigenvalues --   -0.34951  -0.34934  -0.34779  -0.34687  -0.34589
 Alpha  occ. eigenvalues --   -0.34160  -0.33933  -0.33037  -0.33026  -0.32591
 Alpha  occ. eigenvalues --   -0.32072  -0.31905  -0.31620  -0.31230  -0.28489
 Alpha  occ. eigenvalues --   -0.28381  -0.28130  -0.25761  -0.25712  -0.25118
 Alpha  occ. eigenvalues --   -0.24794  -0.24540  -0.23255  -0.21767  -0.21720
 Alpha  occ. eigenvalues --   -0.21378
 Alpha virt. eigenvalues --   -0.03756  -0.03746  -0.03459  -0.02344  -0.01989
 Alpha virt. eigenvalues --   -0.01497   0.00026   0.00235   0.00249   0.02243
 Alpha virt. eigenvalues --    0.03285   0.03299   0.03603   0.04182   0.04440
 Alpha virt. eigenvalues --    0.04890   0.05589   0.05706   0.05962   0.06098
 Alpha virt. eigenvalues --    0.06590   0.06634   0.07282   0.07741   0.07857
 Alpha virt. eigenvalues --    0.08543   0.08689   0.09063   0.09270   0.09570
 Alpha virt. eigenvalues --    0.09957   0.09961   0.10097   0.10334   0.10743
 Alpha virt. eigenvalues --    0.11136   0.11293   0.11965   0.11988   0.12811
 Alpha virt. eigenvalues --    0.12985   0.13234   0.13263   0.13528   0.13854
 Alpha virt. eigenvalues --    0.14179   0.14321   0.14337   0.15054   0.15509
 Alpha virt. eigenvalues --    0.15599   0.15644   0.15937   0.16421   0.16635
 Alpha virt. eigenvalues --    0.16938   0.17068   0.17818   0.18227   0.18401
 Alpha virt. eigenvalues --    0.18827   0.18998   0.19157   0.19320   0.19536
 Alpha virt. eigenvalues --    0.19719   0.19980   0.19993   0.20340   0.20418
 Alpha virt. eigenvalues --    0.20679   0.21161   0.21244   0.21459   0.21518
 Alpha virt. eigenvalues --    0.21593   0.22128   0.22333   0.22462   0.22475
 Alpha virt. eigenvalues --    0.22881   0.23010   0.23530   0.23534   0.23934
 Alpha virt. eigenvalues --    0.23935   0.24333   0.24358   0.25028   0.25113
 Alpha virt. eigenvalues --    0.25229   0.25454   0.25978   0.26420   0.27125
 Alpha virt. eigenvalues --    0.27241   0.27894   0.28151   0.28533   0.28605
 Alpha virt. eigenvalues --    0.29232   0.29273   0.29597   0.29765   0.29967
 Alpha virt. eigenvalues --    0.30071   0.30247   0.30572   0.30681   0.30697
 Alpha virt. eigenvalues --    0.31233   0.31514   0.31905   0.32250   0.32479
 Alpha virt. eigenvalues --    0.32655   0.32731   0.32829   0.33135   0.33513
 Alpha virt. eigenvalues --    0.33693   0.33787   0.33890   0.34420   0.34777
 Alpha virt. eigenvalues --    0.34872   0.34924   0.34977   0.35561   0.35761
 Alpha virt. eigenvalues --    0.36039   0.36180   0.36396   0.36753   0.36813
 Alpha virt. eigenvalues --    0.36959   0.37055   0.37315   0.37572   0.37733
 Alpha virt. eigenvalues --    0.37850   0.38048   0.38279   0.38326   0.38470
 Alpha virt. eigenvalues --    0.39060   0.39295   0.39657   0.39843   0.40255
 Alpha virt. eigenvalues --    0.40279   0.40397   0.40826   0.41010   0.41255
 Alpha virt. eigenvalues --    0.41427   0.41650   0.41714   0.41833   0.42158
 Alpha virt. eigenvalues --    0.42287   0.42356   0.42505   0.42605   0.42682
 Alpha virt. eigenvalues --    0.43025   0.43270   0.43304   0.43592   0.43609
 Alpha virt. eigenvalues --    0.43629   0.43975   0.44002   0.44375   0.44626
 Alpha virt. eigenvalues --    0.44661   0.45195   0.45504   0.45649   0.45877
 Alpha virt. eigenvalues --    0.45979   0.46071   0.46441   0.46631   0.46690
 Alpha virt. eigenvalues --    0.47135   0.47207   0.47573   0.47777   0.47851
 Alpha virt. eigenvalues --    0.48453   0.48596   0.48756   0.48938   0.49314
 Alpha virt. eigenvalues --    0.49356   0.49495   0.49512   0.49869   0.49960
 Alpha virt. eigenvalues --    0.50507   0.50677   0.50854   0.51097   0.51507
 Alpha virt. eigenvalues --    0.51687   0.52121   0.52298   0.52655   0.52727
 Alpha virt. eigenvalues --    0.53218   0.53709   0.53780   0.53796   0.54031
 Alpha virt. eigenvalues --    0.54636   0.54920   0.55247   0.55887   0.56173
 Alpha virt. eigenvalues --    0.56230   0.56710   0.56845   0.57561   0.58070
 Alpha virt. eigenvalues --    0.58282   0.58489   0.58747   0.58863   0.58896
 Alpha virt. eigenvalues --    0.58982   0.59141   0.59994   0.60548   0.60856
 Alpha virt. eigenvalues --    0.61046   0.61490   0.62225   0.63250   0.63474
 Alpha virt. eigenvalues --    0.63878   0.64238   0.64471   0.64848   0.65094
 Alpha virt. eigenvalues --    0.65249   0.65833   0.65868   0.66445   0.66720
 Alpha virt. eigenvalues --    0.66968   0.67165   0.67516   0.67644   0.67659
 Alpha virt. eigenvalues --    0.68417   0.68537   0.68928   0.69089   0.69937
 Alpha virt. eigenvalues --    0.70083   0.70367   0.70742   0.70849   0.70957
 Alpha virt. eigenvalues --    0.71683   0.71708   0.72052   0.72210   0.72724
 Alpha virt. eigenvalues --    0.72730   0.72775   0.73068   0.73173   0.73819
 Alpha virt. eigenvalues --    0.74176   0.74409   0.74848   0.75051   0.75162
 Alpha virt. eigenvalues --    0.75196   0.75587   0.76087   0.76159   0.76293
 Alpha virt. eigenvalues --    0.76952   0.77140   0.77946   0.78071   0.78889
 Alpha virt. eigenvalues --    0.79056   0.79444   0.80030   0.80127   0.80436
 Alpha virt. eigenvalues --    0.80517   0.80692   0.80920   0.81583   0.81897
 Alpha virt. eigenvalues --    0.81996   0.82232   0.82864   0.83219   0.83505
 Alpha virt. eigenvalues --    0.83982   0.84461   0.84702   0.85170   0.85800
 Alpha virt. eigenvalues --    0.86019   0.86280   0.86834   0.86941   0.87320
 Alpha virt. eigenvalues --    0.87588   0.88576   0.88693   0.88743   0.88961
 Alpha virt. eigenvalues --    0.89200   0.89200   0.89988   0.90105   0.90360
 Alpha virt. eigenvalues --    0.91000   0.91537   0.91764   0.92066   0.92560
 Alpha virt. eigenvalues --    0.92625   0.92652   0.93503   0.93776   0.94147
 Alpha virt. eigenvalues --    0.94378   0.94654   0.94661   0.95335   0.95461
 Alpha virt. eigenvalues --    0.95652   0.96285   0.96753   0.97074   0.97666
 Alpha virt. eigenvalues --    0.97891   0.98535   0.98602   0.98801   0.99290
 Alpha virt. eigenvalues --    1.00126   1.00242   1.00611   1.00829   1.01313
 Alpha virt. eigenvalues --    1.01526   1.02163   1.02232   1.02866   1.02920
 Alpha virt. eigenvalues --    1.03216   1.04115   1.04433   1.04590   1.05444
 Alpha virt. eigenvalues --    1.05544   1.06201   1.06817   1.06910   1.07011
 Alpha virt. eigenvalues --    1.07291   1.07993   1.08409   1.08562   1.09049
 Alpha virt. eigenvalues --    1.09207   1.09650   1.10139   1.10275   1.10476
 Alpha virt. eigenvalues --    1.10702   1.11263   1.11989   1.12327   1.12998
 Alpha virt. eigenvalues --    1.13173   1.13899   1.14045   1.14227   1.14670
 Alpha virt. eigenvalues --    1.14721   1.15173   1.15709   1.16126   1.16920
 Alpha virt. eigenvalues --    1.17050   1.17155   1.17511   1.17979   1.18178
 Alpha virt. eigenvalues --    1.18596   1.19123   1.19702   1.20067   1.20198
 Alpha virt. eigenvalues --    1.20355   1.20567   1.21325   1.21486   1.21985
 Alpha virt. eigenvalues --    1.22261   1.22267   1.22378   1.22849   1.23621
 Alpha virt. eigenvalues --    1.23942   1.24248   1.24848   1.25491   1.25562
 Alpha virt. eigenvalues --    1.25819   1.26120   1.26487   1.26601   1.27265
 Alpha virt. eigenvalues --    1.27613   1.27855   1.27860   1.28391   1.28704
 Alpha virt. eigenvalues --    1.29129   1.29259   1.29658   1.30323   1.30445
 Alpha virt. eigenvalues --    1.31068   1.31078   1.31297   1.31761   1.32240
 Alpha virt. eigenvalues --    1.32714   1.32923   1.33252   1.33845   1.34486
 Alpha virt. eigenvalues --    1.34626   1.34804   1.35106   1.35180   1.35463
 Alpha virt. eigenvalues --    1.35941   1.36312   1.36737   1.37086   1.37393
 Alpha virt. eigenvalues --    1.37510   1.38544   1.38801   1.39555   1.39579
 Alpha virt. eigenvalues --    1.40352   1.40453   1.40951   1.41124   1.41518
 Alpha virt. eigenvalues --    1.42142   1.42406   1.42579   1.42719   1.43724
 Alpha virt. eigenvalues --    1.43980   1.45091   1.45257   1.45682   1.46267
 Alpha virt. eigenvalues --    1.46291   1.46722   1.47111   1.47252   1.47671
 Alpha virt. eigenvalues --    1.47851   1.48220   1.48424   1.48971   1.49753
 Alpha virt. eigenvalues --    1.49927   1.50869   1.50990   1.51151   1.52036
 Alpha virt. eigenvalues --    1.52145   1.52940   1.53170   1.53498   1.53714
 Alpha virt. eigenvalues --    1.53946   1.54341   1.55195   1.55476   1.55798
 Alpha virt. eigenvalues --    1.55909   1.56291   1.56531   1.57128   1.57361
 Alpha virt. eigenvalues --    1.57583   1.58033   1.58144   1.59139   1.59183
 Alpha virt. eigenvalues --    1.59957   1.60363   1.61186   1.61192   1.61324
 Alpha virt. eigenvalues --    1.61326   1.61386   1.61934   1.62418   1.62588
 Alpha virt. eigenvalues --    1.62962   1.63225   1.63718   1.63859   1.64580
 Alpha virt. eigenvalues --    1.65033   1.65235   1.65936   1.66058   1.66283
 Alpha virt. eigenvalues --    1.66705   1.66924   1.67670   1.67703   1.68603
 Alpha virt. eigenvalues --    1.68903   1.69071   1.69471   1.69708   1.69991
 Alpha virt. eigenvalues --    1.70329   1.70591   1.70653   1.71229   1.71673
 Alpha virt. eigenvalues --    1.71676   1.72126   1.72335   1.72558   1.72984
 Alpha virt. eigenvalues --    1.73240   1.73464   1.74277   1.74504   1.74652
 Alpha virt. eigenvalues --    1.74872   1.75054   1.75236   1.75553   1.76041
 Alpha virt. eigenvalues --    1.76226   1.76404   1.76846   1.76951   1.77838
 Alpha virt. eigenvalues --    1.78036   1.78925   1.78962   1.79299   1.79629
 Alpha virt. eigenvalues --    1.80017   1.80152   1.80167   1.80504   1.81482
 Alpha virt. eigenvalues --    1.81941   1.82780   1.82989   1.83629   1.83903
 Alpha virt. eigenvalues --    1.84368   1.85187   1.85813   1.86014   1.86376
 Alpha virt. eigenvalues --    1.86862   1.87055   1.87145   1.87284   1.87571
 Alpha virt. eigenvalues --    1.88075   1.89065   1.89209   1.90514   1.91217
 Alpha virt. eigenvalues --    1.91392   1.92703   1.92737   1.93815   1.94828
 Alpha virt. eigenvalues --    1.94928   1.95480   1.96270   1.97061   1.97434
 Alpha virt. eigenvalues --    1.98179   1.98261   1.99342   2.00303   2.00972
 Alpha virt. eigenvalues --    2.01255   2.01408   2.01527   2.02049   2.02870
 Alpha virt. eigenvalues --    2.02923   2.03759   2.03977   2.04150   2.04440
 Alpha virt. eigenvalues --    2.04479   2.05264   2.05993   2.06005   2.06965
 Alpha virt. eigenvalues --    2.07487   2.07493   2.08320   2.08340   2.08554
 Alpha virt. eigenvalues --    2.08694   2.09803   2.09824   2.10445   2.10763
 Alpha virt. eigenvalues --    2.11301   2.11472   2.11939   2.12246   2.12588
 Alpha virt. eigenvalues --    2.13634   2.13838   2.15049   2.15181   2.15470
 Alpha virt. eigenvalues --    2.15915   2.16119   2.16519   2.17005   2.17576
 Alpha virt. eigenvalues --    2.17763   2.18076   2.19292   2.19514   2.19874
 Alpha virt. eigenvalues --    2.20212   2.20563   2.20566   2.21244   2.21394
 Alpha virt. eigenvalues --    2.21611   2.22046   2.22107   2.23108   2.23206
 Alpha virt. eigenvalues --    2.23981   2.24120   2.24146   2.25015   2.25636
 Alpha virt. eigenvalues --    2.26053   2.26426   2.26502   2.27759   2.27833
 Alpha virt. eigenvalues --    2.28149   2.28745   2.29041   2.29067   2.29935
 Alpha virt. eigenvalues --    2.29975   2.31484   2.32058   2.32097   2.33054
 Alpha virt. eigenvalues --    2.33564   2.34045   2.34199   2.34424   2.35158
 Alpha virt. eigenvalues --    2.35596   2.36004   2.36123   2.37082   2.37263
 Alpha virt. eigenvalues --    2.37743   2.38346   2.38454   2.39325   2.39908
 Alpha virt. eigenvalues --    2.40475   2.40789   2.41532   2.41779   2.42339
 Alpha virt. eigenvalues --    2.43395   2.44148   2.44880   2.45203   2.45708
 Alpha virt. eigenvalues --    2.45722   2.46174   2.46896   2.47198   2.47200
 Alpha virt. eigenvalues --    2.48334   2.48338   2.48595   2.48902   2.49073
 Alpha virt. eigenvalues --    2.49607   2.50117   2.50411   2.50939   2.51421
 Alpha virt. eigenvalues --    2.51550   2.51794   2.52660   2.53022   2.53347
 Alpha virt. eigenvalues --    2.54028   2.54915   2.55280   2.55299   2.56153
 Alpha virt. eigenvalues --    2.56632   2.57089   2.57109   2.57590   2.57634
 Alpha virt. eigenvalues --    2.58068   2.59275   2.60142   2.60248   2.60509
 Alpha virt. eigenvalues --    2.61099   2.61482   2.61633   2.61667   2.61742
 Alpha virt. eigenvalues --    2.62454   2.63286   2.63870   2.64234   2.64507
 Alpha virt. eigenvalues --    2.64541   2.64874   2.65005   2.65023   2.65265
 Alpha virt. eigenvalues --    2.65497   2.65764   2.66051   2.66263   2.67106
 Alpha virt. eigenvalues --    2.67344   2.67681   2.67719   2.68080   2.68307
 Alpha virt. eigenvalues --    2.68575   2.68786   2.69162   2.69173   2.69361
 Alpha virt. eigenvalues --    2.70008   2.70164   2.70779   2.71056   2.71757
 Alpha virt. eigenvalues --    2.72226   2.72641   2.72789   2.72877   2.73455
 Alpha virt. eigenvalues --    2.73587   2.74186   2.74339   2.74557   2.74819
 Alpha virt. eigenvalues --    2.74848   2.75276   2.75285   2.75400   2.75741
 Alpha virt. eigenvalues --    2.76059   2.76315   2.76694   2.77099   2.77323
 Alpha virt. eigenvalues --    2.77384   2.77781   2.78035   2.78321   2.78746
 Alpha virt. eigenvalues --    2.79017   2.79134   2.79556   2.79602   2.80391
 Alpha virt. eigenvalues --    2.80578   2.80993   2.81266   2.81517   2.81652
 Alpha virt. eigenvalues --    2.81922   2.82685   2.82716   2.82998   2.83196
 Alpha virt. eigenvalues --    2.83582   2.83778   2.84157   2.84754   2.85038
 Alpha virt. eigenvalues --    2.85181   2.85725   2.85763   2.86082   2.86543
 Alpha virt. eigenvalues --    2.86579   2.87223   2.87359   2.87755   2.87797
 Alpha virt. eigenvalues --    2.88321   2.88454   2.88922   2.89108   2.89457
 Alpha virt. eigenvalues --    2.89820   2.90131   2.90949   2.91032   2.91408
 Alpha virt. eigenvalues --    2.91774   2.92071   2.92197   2.92815   2.93189
 Alpha virt. eigenvalues --    2.93739   2.93958   2.94192   2.94643   2.95013
 Alpha virt. eigenvalues --    2.95375   2.95564   2.95759   2.96201   2.96419
 Alpha virt. eigenvalues --    2.96589   2.96697   2.97699   2.97792   2.98515
 Alpha virt. eigenvalues --    2.98884   2.99347   2.99515   2.99738   3.00446
 Alpha virt. eigenvalues --    3.01149   3.01751   3.01808   3.02229   3.03059
 Alpha virt. eigenvalues --    3.03116   3.03735   3.04307   3.04723   3.05526
 Alpha virt. eigenvalues --    3.05816   3.05997   3.06583   3.06617   3.06787
 Alpha virt. eigenvalues --    3.07450   3.08019   3.08049   3.08433   3.09851
 Alpha virt. eigenvalues --    3.10239   3.10325   3.10449   3.10858   3.11078
 Alpha virt. eigenvalues --    3.11779   3.11957   3.12580   3.12723   3.13747
 Alpha virt. eigenvalues --    3.13999   3.14005   3.14439   3.15031   3.15161
 Alpha virt. eigenvalues --    3.15347   3.16520   3.16647   3.16866   3.17042
 Alpha virt. eigenvalues --    3.17271   3.18096   3.18380   3.18867   3.19289
 Alpha virt. eigenvalues --    3.19431   3.19680   3.20023   3.20095   3.20944
 Alpha virt. eigenvalues --    3.20975   3.21429   3.21539   3.22063   3.22152
 Alpha virt. eigenvalues --    3.22424   3.22754   3.22851   3.23531   3.23710
 Alpha virt. eigenvalues --    3.23934   3.24191   3.24246   3.24673   3.25224
 Alpha virt. eigenvalues --    3.25438   3.25613   3.26043   3.26336   3.26464
 Alpha virt. eigenvalues --    3.26756   3.27147   3.27289   3.27578   3.27764
 Alpha virt. eigenvalues --    3.27965   3.28652   3.28929   3.29171   3.29989
 Alpha virt. eigenvalues --    3.30056   3.30175   3.30854   3.31385   3.31448
 Alpha virt. eigenvalues --    3.31604   3.31780   3.32214   3.32248   3.32904
 Alpha virt. eigenvalues --    3.32934   3.33359   3.33880   3.34072   3.34345
 Alpha virt. eigenvalues --    3.34432   3.34684   3.35212   3.35462   3.35726
 Alpha virt. eigenvalues --    3.35740   3.36662   3.36837   3.37358   3.37567
 Alpha virt. eigenvalues --    3.37765   3.37986   3.38241   3.38451   3.38453
 Alpha virt. eigenvalues --    3.38564   3.39358   3.39439   3.39579   3.39963
 Alpha virt. eigenvalues --    3.40568   3.41048   3.41066   3.41349   3.41668
 Alpha virt. eigenvalues --    3.41829   3.42033   3.42313   3.43080   3.43317
 Alpha virt. eigenvalues --    3.43578   3.43868   3.44271   3.44856   3.45234
 Alpha virt. eigenvalues --    3.45458   3.45589   3.46031   3.46538   3.46666
 Alpha virt. eigenvalues --    3.46668   3.47110   3.47488   3.48010   3.48318
 Alpha virt. eigenvalues --    3.48548   3.49164   3.49513   3.49866   3.49969
 Alpha virt. eigenvalues --    3.50327   3.50464   3.51092   3.51298   3.51389
 Alpha virt. eigenvalues --    3.51755   3.52028   3.52419   3.52697   3.53011
 Alpha virt. eigenvalues --    3.53284   3.53479   3.53612   3.53986   3.54455
 Alpha virt. eigenvalues --    3.54646   3.54875   3.55295   3.55304   3.55979
 Alpha virt. eigenvalues --    3.56063   3.56690   3.57053   3.57261   3.57651
 Alpha virt. eigenvalues --    3.57725   3.58193   3.58472   3.58619   3.58878
 Alpha virt. eigenvalues --    3.59709   3.59766   3.60182   3.60201   3.60582
 Alpha virt. eigenvalues --    3.60669   3.61227   3.61306   3.61722   3.62030
 Alpha virt. eigenvalues --    3.62323   3.62580   3.63044   3.63188   3.63624
 Alpha virt. eigenvalues --    3.64610   3.64630   3.65137   3.65281   3.65770
 Alpha virt. eigenvalues --    3.65795   3.66767   3.67369   3.67416   3.68070
 Alpha virt. eigenvalues --    3.68273   3.68313   3.69206   3.69240   3.70072
 Alpha virt. eigenvalues --    3.70402   3.71270   3.71740   3.72076   3.72178
 Alpha virt. eigenvalues --    3.72976   3.73721   3.74915   3.75294   3.75389
 Alpha virt. eigenvalues --    3.76299   3.76507   3.77474   3.78703   3.79569
 Alpha virt. eigenvalues --    3.79584   3.81009   3.81057   3.82238   3.82452
 Alpha virt. eigenvalues --    3.82814   3.83295   3.83439   3.84026   3.85033
 Alpha virt. eigenvalues --    3.85309   3.85664   3.86613   3.87082   3.87552
 Alpha virt. eigenvalues --    3.88565   3.88628   3.89436   3.89895   3.90307
 Alpha virt. eigenvalues --    3.90647   3.91314   3.92197   3.92890   3.93731
 Alpha virt. eigenvalues --    3.94128   3.95210   3.95494   3.95519   3.97237
 Alpha virt. eigenvalues --    3.97525   3.97571   3.97618   3.99440   4.00182
 Alpha virt. eigenvalues --    4.00266   4.00429   4.01294   4.01653   4.02416
 Alpha virt. eigenvalues --    4.02500   4.03506   4.03986   4.05401   4.05914
 Alpha virt. eigenvalues --    4.06318   4.07979   4.08497   4.08900   4.08941
 Alpha virt. eigenvalues --    4.09695   4.09751   4.11105   4.11311   4.11404
 Alpha virt. eigenvalues --    4.11880   4.12289   4.12580   4.12791   4.13146
 Alpha virt. eigenvalues --    4.13319   4.14540   4.14839   4.15044   4.15692
 Alpha virt. eigenvalues --    4.16477   4.16820   4.17458   4.17661   4.17886
 Alpha virt. eigenvalues --    4.17912   4.18798   4.18855   4.19337   4.20117
 Alpha virt. eigenvalues --    4.20202   4.20583   4.20945   4.21185   4.22082
 Alpha virt. eigenvalues --    4.22178   4.23297   4.23582   4.23742   4.24628
 Alpha virt. eigenvalues --    4.24694   4.24973   4.25256   4.26018   4.26563
 Alpha virt. eigenvalues --    4.27473   4.27525   4.27994   4.28065   4.28373
 Alpha virt. eigenvalues --    4.29137   4.29271   4.29319   4.29851   4.30649
 Alpha virt. eigenvalues --    4.31362   4.31403   4.32125   4.32658   4.32796
 Alpha virt. eigenvalues --    4.33038   4.33892   4.34152   4.34655   4.35414
 Alpha virt. eigenvalues --    4.35482   4.35527   4.36293   4.36334   4.36494
 Alpha virt. eigenvalues --    4.37260   4.37623   4.37864   4.38221   4.39559
 Alpha virt. eigenvalues --    4.39576   4.40561   4.41181   4.41216   4.41663
 Alpha virt. eigenvalues --    4.42542   4.42582   4.43711   4.43732   4.44686
 Alpha virt. eigenvalues --    4.44877   4.46287   4.47125   4.48036   4.49119
 Alpha virt. eigenvalues --    4.49564   4.50480   4.50834   4.51553   4.52880
 Alpha virt. eigenvalues --    4.52892   4.53164   4.53416   4.53652   4.54070
 Alpha virt. eigenvalues --    4.55156   4.56504   4.57270   4.57987   4.58028
 Alpha virt. eigenvalues --    4.58300   4.59115   4.59881   4.61218   4.62373
 Alpha virt. eigenvalues --    4.63255   4.63469   4.63965   4.64504   4.64998
 Alpha virt. eigenvalues --    4.67391   4.67719   4.68080   4.71668   4.73546
 Alpha virt. eigenvalues --    4.74676   4.75124   4.76376   4.76502   4.76782
 Alpha virt. eigenvalues --    4.76977   4.77348   4.78821   4.79127   4.79308
 Alpha virt. eigenvalues --    4.79394   4.80371   4.81368   4.82432   4.83154
 Alpha virt. eigenvalues --    4.83601   4.84206   4.84733   4.84895   4.85488
 Alpha virt. eigenvalues --    4.86216   4.86775   4.86790   4.89132   4.90384
 Alpha virt. eigenvalues --    4.91534   4.92496   4.94579   4.94901   4.95856
 Alpha virt. eigenvalues --    4.96837   4.97533   4.97954   4.98310   4.98804
 Alpha virt. eigenvalues --    5.00385   5.01020   5.02653   5.03255   5.04313
 Alpha virt. eigenvalues --    5.04513   5.05894   5.06318   5.07579   5.12836
 Alpha virt. eigenvalues --    5.12877   5.13573   5.13913   5.14723   5.15479
 Alpha virt. eigenvalues --    5.17622   5.18017   5.21174   5.22791   5.26990
 Alpha virt. eigenvalues --    5.27376   5.27393   5.29911   5.30933   5.31387
 Alpha virt. eigenvalues --    5.31926   5.32417   5.33622   5.37411   5.37493
 Alpha virt. eigenvalues --    5.37695   5.37805   5.39147   5.41323   5.46582
 Alpha virt. eigenvalues --    5.47636   5.49767   5.52623   5.52902   5.55778
 Alpha virt. eigenvalues --    5.59630   5.59707   5.61408   5.62179   5.62501
 Alpha virt. eigenvalues --    5.63555   5.64925   5.65161   5.70812   5.77070
 Alpha virt. eigenvalues --    5.77708   5.78118   5.78647   5.79480   5.81744
 Alpha virt. eigenvalues --    6.11376   6.11506   6.13362  22.14705  22.24592
 Alpha virt. eigenvalues --   22.42589  22.49478  22.49716  22.51145  22.52385
 Alpha virt. eigenvalues --   22.55046  22.63120  22.63756  22.64720  22.66089
 Alpha virt. eigenvalues --   22.66777  22.67954  22.70176  22.70202  22.73398
 Alpha virt. eigenvalues --   22.74280  22.74809  22.75520  22.77184  22.79591
 Alpha virt. eigenvalues --   22.81720  22.84351  22.91791  22.95165  22.96754
 Alpha virt. eigenvalues --   23.00197  23.00583  23.03615  23.04140  23.10224
 Alpha virt. eigenvalues --   23.10438  23.16314  23.17181  23.18767  23.22021
 Alpha virt. eigenvalues --   23.61700  23.61975  23.64836  23.80462  23.80910
 Alpha virt. eigenvalues --   23.84484
          Condensed to atoms (all electrons):
 Mulliken charges:
               1
     1  C    0.850323
     2  C    0.534365
     3  H    0.109948
     4  H    0.117214
     5  C    0.534373
     6  H    0.108750
     7  H    0.109963
     8  H    0.113516
     9  H    0.129161
    10  H    0.117207
    11  C   -0.164707
    12  C   -0.109380
    13  C   -0.068859
    14  C    0.198158
    15  C    0.079243
    16  C    0.167435
    17  C    0.167763
    18  C    0.198378
    19  C    0.079533
    20  C   -0.109345
    21  C   -0.068842
    22  C   -0.164569
    23  C   -0.259754
    24  C   -0.197718
    25  C   -0.276627
    26  C   -0.094266
    27  C   -0.097692
    28  C   -0.117532
    29  C   -0.092540
    30  C   -0.083955
    31  C   -0.081693
    32  C   -0.251945
    33  C   -0.232445
    34  C   -0.226210
    35  H    0.096592
    36  H    0.095163
    37  H    0.090280
    38  H    0.098110
    39  H    0.100956
    40  H    0.102510
    41  H    0.098176
    42  H    0.103659
    43  H    0.099787
    44  H    0.089566
    45  H    0.095520
    46  H    0.105423
    47  C   -0.251709
    48  C   -0.226107
    49  C   -0.232356
    50  C   -0.081906
    51  C   -0.092618
    52  C   -0.083978
    53  C   -0.094119
    54  C   -0.097590
    55  C   -0.117490
    56  C   -0.276778
    57  C   -0.197576
    58  C   -0.259792
    59  H    0.095526
    60  H    0.105408
    61  H    0.089598
    62  H    0.098188
    63  H    0.103661
    64  H    0.099779
    65  H    0.098097
    66  H    0.102508
    67  H    0.100957
    68  H    0.090268
    69  H    0.096602
    70  H    0.095163
    71  C   -0.441383
    72  C   -0.362631
    73  C   -0.441512
    74  C   -0.362631
    75  H    0.108749
    76  H    0.113520
    77  H    0.129159
 Sum of Mulliken charges =  -0.00000
 Mulliken charges with hydrogens summed into heavy atoms:
               1
     1  C    0.850323
     2  C    0.534365
     5  C    0.534373
    11  C   -0.164707
    12  C   -0.109380
    13  C   -0.068859
    14  C    0.198158
    15  C    0.079243
    16  C    0.167435
    17  C    0.167763
    18  C    0.198378
    19  C    0.079533
    20  C   -0.109345
    21  C   -0.068842
    22  C   -0.164569
    23  C   -0.170188
    24  C   -0.092294
    25  C   -0.181107
    26  C    0.003910
    27  C    0.005967
    28  C   -0.017745
    29  C    0.009970
    30  C    0.017001
    31  C    0.016417
    32  C   -0.161665
    33  C   -0.137282
    34  C   -0.129618
    47  C   -0.161441
    48  C   -0.129505
    49  C   -0.137193
    50  C    0.016191
    51  C    0.009889
    52  C    0.016978
    53  C    0.004069
    54  C    0.006071
    55  C   -0.017710
    56  C   -0.181252
    57  C   -0.092167
    58  C   -0.170193
    71  C   -0.214213
    72  C   -0.011205
    73  C   -0.214350
    74  C   -0.011203
 Electronic spatial extent (au):  <R**2>=          17667.2409
 Charge=             -0.0000 electrons
 Dipole moment (field-independent basis, Debye):
    X=             -0.3820    Y=              0.2854    Z=             -0.2054  Tot=              0.5192
 Quadrupole moment (field-independent basis, Debye-Ang):
   XX=           -236.2058   YY=           -237.7003   ZZ=           -259.3744
   XY=              2.2951   XZ=              6.7579   YZ=             -9.0122
 Traceless Quadrupole moment (field-independent basis, Debye-Ang):
   XX=              8.2211   YY=              6.7265   ZZ=            -14.9476
   XY=              2.2951   XZ=              6.7579   YZ=             -9.0122
 Octapole moment (field-independent basis, Debye-Ang**2):
  XXX=             10.6045  YYY=            -32.2728  ZZZ=             47.0810  XYY=             17.3749
  XXY=             -6.6179  XXZ=              1.1144  XZZ=             28.7597  YZZ=             -3.4841
  YYZ=            -17.6789  XYZ=             16.2477
 Hexadecapole moment (field-independent basis, Debye-Ang**3):
 XXXX=          -4879.3561 YYYY=          -8956.3221 ZZZZ=         -10958.6223 XXXY=           -539.4242
 XXXZ=            -73.7823 YYYX=           -459.9373 YYYZ=          -2395.9250 ZZZX=             44.7593
 ZZZY=          -2638.9167 XXYY=          -2298.2851 XXZZ=          -2599.4768 YYZZ=          -3374.0150
 XXYZ=           -747.1440 YYXZ=             18.8490 ZZXY=           -155.4140
 N-N= 5.166729960283D+03 E-N=-1.418320584485D+04  KE= 1.650923976105D+03
 No NMR shielding tensors so no spin-rotation constants.
 Leave Link  601 at Tue Mar 24 16:51:08 2026, MaxMem=   104857600 cpu:               2.2 elap:               2.2
 (Enter /sw/cluster/pub/apps//g16/l9999.exe)
 1\1\GINC-N05\SP\RB3LYP\def2TZVP\C43H34\UNKNOWN\24-Mar-2026\0\\#p B3LYP
 /def2TZVP nosymm density=current sp\\Generated by extraQ₂\\0,1\C,0,-
 0.63779599,0.47642935,-0.34290524\C,0,-0.64918953,-0.37935181,-2.98282
 591\H,0,-0.67227098,1.61166525,-2.15587878\H,0,-2.12676137,0.699018,-1
 .89813202\C,0,-1.483607,1.97256021,1.83591572\H,0,-1.90771822,0.739620
 77,-4.38386551\H,0,-2.61442198,0.84370482,0.38832025\H,0,-0.20376162,1
 .21385108,-4.41514376\H,0,-0.71442066,-0.3030667,-5.16795406\H,0,-1.84
 627749,2.26916024,-0.23847908\C,0,0.82820274,0.83821211,-0.1144276\C,0
 ,-0.52333754,3.15835015,1.89925228\C,0,0.76332269,-0.9590282,-2.982825
 91\C,0,0.44893432,2.96246683,2.8896859\C,0,0.72247054,-2.36231994,-3.0
 1408484\C,0,1.51994184,-0.23251084,0.47023257\C,0,0.58728046,-1.342180
 32,0.66280067\C,0,-0.67611935,-2.79253365,-3.01181174\C,0,0.21555194,1
 .66196613,3.51846515\C,0,-1.49177584,-1.65301415,-2.98282591\C,0,-0.89
 774245,1.05967347,2.9104378\C,0,-0.67633615,-0.95189474,0.19621113\C,0
 ,-1.75008596,-1.82205614,0.29613764\C,0,-1.37191403,-0.15338138,3.3839
 1501\C,0,-2.87052737,-1.7820944,-3.0257098\C,0,-1.55598024,-3.08634999
 ,0.84826126\C,0,-3.4353033,-3.0558336,-3.07391778\C,0,-0.71364147,-0.7
 777144,4.44121106\C,0,-2.62349315,-4.18833936,-3.08629052\C,0,0.404034
 51,-0.18855234,5.02849155\C,0,-0.29719644,-3.47448827,1.30227815\C,0,0
 .78267447,-2.6036358,1.21477806\C,0,0.8731501,1.03860862,4.57441765\C,
 0,-1.23856485,-4.06416776,-3.0595134\H,0,-0.61230536,-4.94769896,-3.07
 739032\H,0,1.73246476,1.50215147,5.04345691\H,0,1.7574061,-2.90459706,
 1.57833058\H,0,-0.16082706,-4.46088787,1.72809725\H,0,0.90518462,-0.68
 695077,5.84900348\H,0,-3.07524785,-5.17180008,-3.12399567\H,0,-2.38875
 137,-3.77477032,0.91682884\H,0,-4.51212187,-3.1660823,-3.10662\H,0,-1.
 07272264,-1.7316544,4.80592609\H,0,-2.73385996,-1.54050895,-0.05720835
 \H,0,-3.51472103,-0.9100231,-3.02195282\H,0,-2.23606425,-0.62781892,2.
 93799646\C,0,2.87779091,-0.13159835,0.75338493\C,0,1.4030186,3.9415811
 1,3.14800169\C,0,1.89595221,-3.10657039,-3.08536645\C,0,3.54391132,1.0
 4843007,0.44355578\C,0,1.37315379,5.12246793,2.41398455\C,0,3.11395925
 ,-2.4387464,-3.13678538\C,0,2.86162785,2.11062498,-0.14595961\C,0,0.39
 719506,5.32524759,1.44026045\C,0,3.15590391,-1.04613101,-3.12806288\C,
 0,-0.55810893,4.3431915,1.18204208\C,0,1.98079813,-0.30113832,-3.05666
 777\C,0,1.50149895,2.00760363,-0.42952553\H,0,-1.31457452,4.51729854,0
 .42510424\H,0,2.03325543,0.77953363,-3.04729748\H,0,0.98676978,2.84571
 783,-0.8817936\H,0,3.38957047,3.02682652,-0.37830523\H,0,0.37813269,6.
 25400524,0.88365689\H,0,4.11003302,-0.5366328,-3.17285169\H,0,4.600949
 91,1.14314471,0.65942744\H,0,2.10917005,5.89361176,2.60454734\H,0,4.03
 632697,-3.00355241,-3.19179971\H,0,3.41343219,-0.95914948,1.20182267\H
 ,0,2.15903567,3.79268457,3.90919543\H,0,1.86536439,-4.1890733,-3.10869
 929\C,0,-1.67220518,1.39745542,0.39824782\C,0,-0.88361548,0.36497641,-
 4.32316861\C,0,-1.03660839,0.62615111,-1.85499785\C,0,-2.88545266,2.45
 029984,2.29646396\H,0,-3.30871382,3.15656979,1.57892288\H,0,-3.5691760
 1,1.60431836,2.38639504\H,0,-2.82301869,2.94539316,3.26576968\\Version
 =ES64L-G16RevA.03\HF=-1659.6642894\RMSD=5.430e-09\Dipole=-0.1502888,0.
 112274,-0.080821\Quadrupole=6.1121532,5.0009992,-11.1131525,1.706325,5
 .0243296,-6.700345\PG=C01 [X(C43H34)]\\@


 GOOD SENSE ABOUT TRIVIALITIES IS BETTER THAN NONSENSE
 ABOUT THINGS THAT MATTER

                                       -- MAX BEERBOHM
 Job cpu time:       0 days  5 hours 44 minutes 41.3 seconds.
 Elapsed time:       0 days  5 hours 45 minutes  9.4 seconds.
 File lengths (MBytes):  RWF=   1270 Int=      0 D2E=      0 Chk=    137 Scr=      1
 Normal termination of Gaussian 16 at Tue Mar 24 16:51:09 2026.
