77
Generated from .fchk
C 0.624211 -0.476315 -0.362393
C 1.486798 -2.027373 1.777086
H 2.615954 -0.876946 0.333053
H 1.821951 -2.288253 -0.313883
C 0.599058 0.435122 -2.988367
H 3.314474 -3.213099 1.477447
H 0.605190 -1.581659 -2.203332
H 3.586029 -1.672860 2.320283
H 2.842194 -3.037193 3.179700
H 2.085571 -0.694193 -1.955185
C 0.689768 0.946400 0.200459
C 1.474282 1.691779 -2.988367
C 0.913234 -1.132569 2.878727
C 0.681955 2.855808 -2.988367
C -0.191722 -1.753428 3.498097
C -0.565360 1.344746 0.700965
C -1.516600 0.245095 0.508557
C -0.434701 -3.044831 2.844421
C -0.730184 2.456714 -2.963067
C 0.524125 -3.217286 1.827733
C -0.802905 1.048056 -2.942891
C -0.844853 -0.827571 -0.110043
C -1.539251 -1.990522 -0.431861
C -2.042441 0.415687 -2.991925
C 0.548530 -4.391572 1.080491
C -2.901758 -2.084784 -0.122085
C -0.404546 -5.386889 1.335719
C -3.207415 1.191983 -3.028876
C -1.367521 -5.206818 2.337040
C -3.132891 2.590603 -3.028202
C -3.564263 -1.019792 0.501407
C -2.875413 0.153739 0.819363
C -1.892063 3.232710 -2.999974
C -1.385900 -4.036021 3.101026
H -2.130424 -3.904801 3.882749
H -1.836064 4.318734 -3.014625
H -3.394434 0.982725 1.294557
H -4.621961 -1.106723 0.738386
H -4.046078 3.180141 -3.056341
H -2.101393 -5.986484 2.526045
H -3.445353 -2.995732 -0.359543
H -0.393551 -6.306610 0.755826
H -4.177600 0.702526 -3.053599
H -1.038632 -2.830126 -0.906960
H 1.295639 -4.547177 0.304179
H -2.118738 -0.667818 -2.987142
C -0.737271 2.604679 1.279171
C 1.275040 4.120303 -3.037173
C -0.835096 -1.151643 4.583188
C 0.359577 3.466749 1.360136
C 2.668957 4.213232 -3.093228
C -0.359304 0.074343 5.055769
C 1.611173 3.070482 0.871938
C 3.458218 3.055994 -3.109204
C 0.750211 0.683053 4.455654
C 2.861093 1.789017 -3.060544
C 1.393922 0.078952 3.368521
C 1.780306 1.806931 0.292184
H 3.485750 0.897700 -3.080646
H 2.249479 0.567711 2.911395
H 2.756168 1.519381 -0.090285
H 2.456566 3.751039 0.934066
H 4.540811 3.141076 -3.164293
H 1.113809 1.635454 4.832704
H 0.241331 4.451414 1.806106
H 3.143846 5.190550 -3.131937
H -0.849304 0.555723 5.898640
H -1.705519 2.911101 1.667777
H 0.666614 5.021652 -3.033383
H -1.687526 -1.629820 5.060165
C 0.993306 -0.604617 -1.888436
C 2.896669 -2.518915 2.216917
C 1.664743 -1.424177 0.345044
C 0.782795 -0.289719 -4.353517
H 1.799610 -0.690479 -4.447071
H 0.076361 -1.122749 -4.446895
H 0.610167 0.401814 -5.184489