53
Generated from .fchk
C 0.529223 -1.613879 0.989803
C 0.683995 -0.839306 -1.640710
H 0.430565 -2.807641 -0.783610
H 1.997900 -2.102557 -0.519290
C 0.794342 -0.214291 1.546405
C 1.682617 0.319482 -1.627949
C 1.015978 1.555875 -1.627949
C -0.387422 0.345444 2.065934
C -1.483410 -0.610707 1.878745
C -0.428868 1.305129 -1.627949
C -0.646321 -0.085009 -1.625781
C -0.972083 -1.756204 1.246722
C -1.798333 -2.842913 0.993270
C -1.940030 -0.585330 -1.695764
C -3.146633 -2.773855 1.353446
C -3.015403 0.304289 -1.736995
C -2.798053 1.683298 -1.717914
C -3.657466 -1.628065 1.966510
C -2.828815 -0.540411 2.237105
C -1.502753 2.193627 -1.668119
H -1.336557 3.265393 -1.667860
H -3.229587 0.343974 2.720209
H -4.705984 -1.587591 2.240176
H -3.643859 2.361303 -1.748880
H -3.800249 -3.617062 1.159061
H -4.027887 -0.080624 -1.780114
H -1.412145 -3.741180 0.521561
H -2.126357 -1.652585 -1.707527
C -0.373305 1.599838 2.674676
C 1.736500 2.749102 -1.651047
C 0.833955 2.288189 2.771712
C 3.129016 2.696609 -1.683011
C 2.011522 1.725598 2.275634
C 3.792401 1.468089 -1.699979
C 3.069490 0.272596 -1.675327
C 1.997101 0.469929 1.665191
H 3.596773 -0.676175 -1.693745
H 2.919235 0.049366 1.282194
H 2.945504 2.269247 2.360881
H 4.875916 1.442025 -1.736270
H 0.861328 3.265090 3.241766
H 3.702432 3.616806 -1.701770
H -1.283895 2.033264 3.073766
H 1.226549 3.706213 -1.645522
C 1.286839 -2.660403 1.849984
H 0.993216 -2.581880 2.898555
H 1.066371 -3.675949 1.508255
H 2.367049 -2.505350 1.782970
C 0.926879 -1.874132 -0.497277
C 0.823663 -1.607182 -2.982344
H 1.794198 -2.108274 -3.043089
H 0.042035 -2.365974 -3.075503
H 0.739682 -0.922254 -3.828337