%chk=f1.chk
#P B3LYP/6-31G* nosymm Density=Current

Single-Point F1

0 1
C       0.00467500    -0.00975700     0.03989600
C      -0.04442300    -1.53762100     0.05211900
C       1.25514700    -2.08255300     0.03277900
C       2.22308500    -0.97800300     0.00746500
C       1.51251400     0.23895900     0.01131200
C       2.19660600     1.44928400    -0.00992900
C       3.59640800     1.44228400    -0.03494700
C       4.30057500     0.23374300    -0.03862400
C       3.61916200    -0.98529700    -0.01755300
H       4.17143500    -1.92176100    -0.02067700
H       5.38719400     0.24329300    -0.05813000
H       4.13996400     2.38323900    -0.05168800
H       1.65841700     2.39456000    -0.00744100
C       1.44613600    -3.46571900     0.03935300
C       0.32742700    -4.30153600     0.06540800
C      -0.96297000    -3.76206000     0.08470600
C      -1.15407100    -2.37513200     0.07812300
H      -2.16184900    -1.96617300     0.09321400
H      -1.82418000    -4.42467600     0.10490500
H       0.46061900    -5.38016600     0.07078300
H       2.44711200    -3.88965200     0.02446300
C      -0.64100700     0.58465600     1.31200100
H      -0.16732800     0.18958200     2.21630100
H      -0.54198200     1.67634100     1.32267700
H      -1.70967300     0.34382000     1.35207000
C      -0.68565600     0.56537100    -1.21755300
H      -1.75522000     0.32489500    -1.21603800
H      -0.58660300     1.65667500    -1.24881900
H      -0.24450500     0.15575400    -2.13178800

