101
Generated from .fchk
C -1.360985 0.326855 0.852471
C 3.970504 -0.225059 1.794522
C 1.360947 -0.326865 0.852417
H -0.180568 -0.850792 2.239890
H 0.180484 0.850374 2.240166
C -3.970553 0.224953 1.794549
H 2.202073 0.639737 2.605385
H -2.201369 1.097820 2.675461
H 2.201273 -1.097861 2.675417
H -2.202101 -0.639780 2.605450
C -1.693602 -0.527776 -0.371411
C 4.571107 -1.144474 0.729267
C -4.492576 -1.139258 1.338312
C 1.332248 -1.728513 0.236715
C -5.293885 -1.011404 0.192121
C 1.606115 -1.678335 -1.138117
C 5.344973 -0.404859 -0.183977
C -1.831373 0.280961 -1.514975
C -1.606159 1.678570 -1.137894
C 5.293934 1.011208 0.192104
C 1.831285 -0.280673 -1.515030
C -5.344916 0.404643 -0.184035
C 1.693533 0.527920 -0.371363
C -4.571118 1.144310 0.729224
C 4.492570 1.139127 1.338248
C -1.332220 1.728566 0.236932
C -1.090841 2.946344 0.858410
C 4.324836 2.379743 1.938742
C -4.529530 2.529619 0.639471
C 1.876768 1.900841 -0.470725
C -1.121433 4.118945 0.099494
C 4.940902 3.500031 1.375554
C 2.190752 2.461891 -1.708743
C -5.230862 3.169932 -0.383827
C 2.323023 1.657100 -2.841801
C -5.977266 2.431813 -1.304348
C -1.391770 4.066819 -1.269350
C 5.722459 3.374362 0.225365
C -1.636058 2.846620 -1.896767
C 5.907949 2.128692 -0.371528
C -6.043991 1.043888 -1.207315
C 2.144566 0.279086 -2.752562
H 2.250319 -0.346136 -3.632281
H -6.638683 0.473807 -1.912766
H -1.847216 2.812340 -2.959696
H 6.523158 2.035417 -1.259748
H -1.411859 4.983747 -1.848105
H 6.194219 4.252281 -0.202023
H -6.515050 2.943833 -2.094752
H 2.567607 2.108920 -3.797010
H -0.933173 5.075006 0.575778
H 4.814363 4.473435 1.836542
H 2.332928 3.533193 -1.788430
H -5.190951 4.250152 -0.465610
H -0.878624 3.001176 1.922070
H 3.723861 2.490498 2.836026
H 1.778963 2.541740 0.395096
H -3.951955 3.117503 1.342347
C 6.044111 -1.044160 -1.207179
C -2.144670 -0.278644 -2.752572
C -5.907859 -2.128923 -0.371485
C 1.636007 -2.846287 -1.897140
C 5.977381 -2.432089 -1.304150
C -2.323128 -1.656647 -2.841980
C -5.722381 -3.374562 0.225476
C 1.391808 -4.066575 -1.269860
C 5.230912 -3.170156 -0.383639
C -2.190831 -2.461580 -1.709027
C -4.940877 -3.500166 1.375708
C 1.121556 -4.118882 0.098993
C -4.324850 -2.379843 1.938871
C 1.090949 -2.946377 0.858055
C 4.529522 -2.529788 0.639583
C -1.876832 -1.900684 -0.470942
H -3.723916 -2.490546 2.836189
H 0.878790 -3.001353 1.921720
H -1.779023 -2.541690 0.394800
H 3.951903 -3.117635 1.342454
H 5.191000 -4.250381 -0.465368
H -2.333003 -3.532873 -1.788847
H -4.814347 -4.473547 1.836748
H 0.933366 -5.075011 0.575171
H 6.515209 -2.944152 -2.094496
H -2.567719 -2.108348 -3.797243
H -6.194106 -4.252508 -0.201894
H 1.411903 -4.983430 -1.848731
H 6.638851 -0.474116 -1.912619
H -2.250429 0.346684 -3.632215
H -6.523027 -2.035699 -1.259739
H 1.847106 -2.811867 -2.960076
C 4.612286 -0.564063 3.168309
H 5.699304 -0.478188 3.115122
H 4.252903 0.118714 3.943804
H 4.362324 -1.584993 3.469207
C -2.422311 0.254003 2.013478
C 2.422267 -0.254059 2.013429
C -0.000029 -0.000107 1.575733
C -4.612364 0.564003 3.168304
H -4.252996 -0.118740 3.943836
H -4.362424 1.584946 3.469178
H -5.699382 0.478119 3.115105