%chk=f4-6-311Gdp_SP.chk
#p B3LYP/6-311G(d,p) nosymm density=current sp

Generated by extraQ₂

0 1
C         1.50185488      -0.11464725       0.64583985
C        -0.75483303       0.50367437      -4.26759909
C        -0.12666073      -0.09744869      -1.63097916
H         1.70221861      -1.14115212      -1.25450496
H         1.91137561       0.58343887      -1.33427752
C         3.64980701      -0.95024584       2.19368246
H         1.06182624       0.81558390      -3.20215051
H         3.61034762       0.20154704       0.36618939
H         0.70575452      -0.86722471      -3.45811937
H         3.14127884      -1.46382687       0.19108921
C         0.49154366      -0.86476541       1.51504026
C        -2.15764622      -0.10677723      -4.25086247
C         3.24007260      -2.33177380       2.70868740
C        -0.94090331      -1.37795151      -1.42640335
C         2.77959870      -2.25648280       4.03325964
C        -2.18614260      -1.09349954      -0.84661877
C        -3.13729624       0.90326201      -4.25534778
C        -0.16408207       0.02383425       2.38757710
C         0.35037405       1.37683683       2.16187537
C        -2.46975292       2.20851047      -4.25534778
C        -2.27982752       0.35333572      -0.63658334
C         2.84037271      -0.85767818       4.46793050
C        -1.09059939       0.95728412      -1.08575509
C         3.33404341      -0.07481043       3.40806261
C        -1.08116632       1.99869905      -4.25534778
C         1.32294812       1.31909053       1.15269067
C         1.98304604       2.47229442       0.75035559
C        -0.21115626       3.07927594      -4.31272262
C         3.56840156       1.28076989       3.59870480
C        -0.94359495       2.33579253      -1.00535490
C         1.66615901       3.68904734       1.35943473
C        -0.73256931       4.37498401      -4.34485161
C        -1.97876585       3.10490689      -0.47343766
C         3.27474855       1.85821134       4.83536781
C        -3.15556672       2.50199870      -0.02550236
C         2.76076270       1.08424921       5.87752839
C         0.69595443       3.74485372       2.36199237
C        -2.11316442       4.58275840      -4.32625784
C         0.03206498       2.58936494       2.76980456
C        -2.99108058       3.50108507      -4.28591465
C         2.54525890      -0.28073138       5.70262974
C        -3.31453279       1.12097885      -0.10454048
H        -4.22995700       0.65324104       0.24072987
H         2.16258378      -0.88350926       6.51904300
H        -0.71917191       2.63837498       3.55007505
H        -4.06264335       3.66794112      -4.28049234
H         0.45793403       4.69539073       2.82668966
H        -2.50454884       5.59379005      -4.35060962
H         2.53595974       1.54800181       6.83173578
H        -3.95102458       3.11421218       0.38538489
H         2.17568504       4.59556325       1.05129020
H        -0.06089146       5.22528838      -4.38808067
H        -1.86535940       4.18064568      -0.40880765
H         3.44392927       2.91849558       4.98480608
H         2.73918423       2.44324382      -0.02863497
H         0.86416889       2.93151481      -4.33268941
H        -0.03995627       2.82225061      -1.34705510
H         3.96249472       1.89695015       2.79980079
C        -4.49293818       0.58084564      -4.30754615
C        -1.12578989      -0.43577394       3.28581842
C         2.39165689      -3.40886010       4.71516303
C        -3.09215320      -2.11711825      -0.57741464
C        -4.86492537      -0.76000712      -4.37033615
C        -1.42885087      -1.79456088       3.31001355
C         2.47672654      -4.63901429       4.06565179
C        -2.74406359      -3.42874798      -0.89471138
C        -3.89387291      -1.76294733      -4.39195614
C        -0.77791742      -2.67947711       2.44849684
C         2.95171308      -4.71734770       2.75499921
C        -1.50610944      -3.71364794      -1.47422172
C         3.33885295      -3.56172612       2.07204465
C        -0.59859827      -2.68581792      -1.74230530
C        -2.53674247      -1.44004082      -4.33782012
C         0.18411095      -2.21851909       1.54956788
H         3.71110232      -3.63716177       1.05504106
H         0.36111485      -2.92151803      -2.19265317
H         0.67713690      -2.92047476       0.89066869
H        -1.79691653      -2.23106192      -4.35118625
H        -4.19494433      -2.80289677      -4.44690890
H        -1.01998347      -3.73536462       2.47603576
H         3.02376054      -5.68232649       2.26544495
H        -1.24742624      -4.73869296      -1.71652183
H        -5.91520172      -1.02715539      -4.41114875
H        -2.17436255      -2.16901076       4.00311209
H         2.17863113      -5.54373715       4.58389348
H        -3.43977925      -4.23521189      -0.69047079
H        -5.24833352       1.35910520      -4.30872004
H        -1.62945234       0.25091805       3.95721259
H         2.03026756      -3.35477341       5.73623596
H        -4.05559040      -1.90156329      -0.12919005
C        -0.07462945       0.15874506      -5.62127758
H        -0.68540824       0.50645137      -6.45665838
H         0.90766982       0.63461012      -5.69458273
H         0.06070029      -0.92160397      -5.72052727
C         2.99540086      -0.58150722       0.82196400
C         0.25274424       0.08052108      -3.14888178
C         1.27098879      -0.19612118      -0.91052648
C         5.18581887      -0.94705595       1.95972422
H         5.45460627      -1.61582976       1.13678548
H         5.53589811       0.05844375       1.71125961
H         5.71078374      -1.28153718       2.85657900



