 Entering Gaussian System, Link 0=g16
 Initial command:
 /sw/cluster/pub/apps//g16/l1.exe "/data/mmaximo/44346/Gau-1911334.inp" -scrdir="/data/mmaximo/44346/"
 Entering Link 1 = /sw/cluster/pub/apps//g16/l1.exe PID=   1911335.
  
 Copyright (c) 1988,1990,1992,1993,1995,1998,2003,2009,2016,
            Gaussian, Inc.  All Rights Reserved.
  
 This is part of the Gaussian(R) 16 program.  It is based on
 the Gaussian(R) 09 system (copyright 2009, Gaussian, Inc.),
 the Gaussian(R) 03 system (copyright 2003, Gaussian, Inc.),
 the Gaussian(R) 98 system (copyright 1998, Gaussian, Inc.),
 the Gaussian(R) 94 system (copyright 1995, Gaussian, Inc.),
 the Gaussian 92(TM) system (copyright 1992, Gaussian, Inc.),
 the Gaussian 90(TM) system (copyright 1990, Gaussian, Inc.),
 the Gaussian 88(TM) system (copyright 1988, Gaussian, Inc.),
 the Gaussian 86(TM) system (copyright 1986, Carnegie Mellon
 University), and the Gaussian 82(TM) system (copyright 1983,
 Carnegie Mellon University). Gaussian is a federally registered
 trademark of Gaussian, Inc.
  
 This software contains proprietary and confidential information,
 including trade secrets, belonging to Gaussian, Inc.
  
 This software is provided under written license and may be
 used, copied, transmitted, or stored only in accord with that
 written license.
  
 The following legend is applicable only to US Government
 contracts under FAR:
  
                    RESTRICTED RIGHTS LEGEND
  
 Use, reproduction and disclosure by the US Government is
 subject to restrictions as set forth in subparagraphs (a)
 and (c) of the Commercial Computer Software - Restricted
 Rights clause in FAR 52.227-19.
  
 Gaussian, Inc.
 340 Quinnipiac St., Bldg. 40, Wallingford CT 06492
  
  
 ---------------------------------------------------------------
 Warning -- This program may not be used in any manner that
 competes with the business of Gaussian, Inc. or will provide
 assistance to any competitor of Gaussian, Inc.  The licensee
 of this program is prohibited from giving any competitor of
 Gaussian, Inc. access to this program.  By using this program,
 the user acknowledges that Gaussian, Inc. is engaged in the
 business of creating and licensing software in the field of
 computational chemistry and represents and warrants to the
 licensee that it is not a competitor of Gaussian, Inc. and that
 it will not use this program in any manner prohibited above.
 ---------------------------------------------------------------
  

 Cite this work as:
 Gaussian 16, Revision A.03,
 M. J. Frisch, G. W. Trucks, H. B. Schlegel, G. E. Scuseria, 
 M. A. Robb, J. R. Cheeseman, G. Scalmani, V. Barone, 
 G. A. Petersson, H. Nakatsuji, X. Li, M. Caricato, A. V. Marenich, 
 J. Bloino, B. G. Janesko, R. Gomperts, B. Mennucci, H. P. Hratchian, 
 J. V. Ortiz, A. F. Izmaylov, J. L. Sonnenberg, D. Williams-Young, 
 F. Ding, F. Lipparini, F. Egidi, J. Goings, B. Peng, A. Petrone, 
 T. Henderson, D. Ranasinghe, V. G. Zakrzewski, J. Gao, N. Rega, 
 G. Zheng, W. Liang, M. Hada, M. Ehara, K. Toyota, R. Fukuda, 
 J. Hasegawa, M. Ishida, T. Nakajima, Y. Honda, O. Kitao, H. Nakai, 
 T. Vreven, K. Throssell, J. A. Montgomery, Jr., J. E. Peralta, 
 F. Ogliaro, M. J. Bearpark, J. J. Heyd, E. N. Brothers, K. N. Kudin, 
 V. N. Staroverov, T. A. Keith, R. Kobayashi, J. Normand, 
 K. Raghavachari, A. P. Rendell, J. C. Burant, S. S. Iyengar, 
 J. Tomasi, M. Cossi, J. M. Millam, M. Klene, C. Adamo, R. Cammi, 
 J. W. Ochterski, R. L. Martin, K. Morokuma, O. Farkas, 
 J. B. Foresman, and D. J. Fox, Gaussian, Inc., Wallingford CT, 2016.
 
 ******************************************
 Gaussian 16:  ES64L-G16RevA.03 25-Dec-2016
                17-Mar-2026 
 ******************************************
 %chk=f4-6-311Gdp_SP.chk
 ----------------------------------------------
 #p B3LYP/6-311G(d,p) nosymm density=current sp
 ----------------------------------------------
 1/30=1,38=1,172=1/1;
 2/12=2,15=1,17=6,18=5,40=1/2;
 3/5=4,6=6,7=101,11=2,25=1,30=1,74=-5/1,2,3;
 4//1;
 5/5=2,38=5/2;
 6/7=2,8=2,9=2,10=2,22=-1,28=1/1;
 99/5=1,9=1/99;
 Leave Link    1 at Tue Mar 17 11:13:10 2026, MaxMem=           0 cpu:               0.0 elap:               0.0
 (Enter /sw/cluster/pub/apps//g16/l101.exe)
 ----------------------
 Generated by extraQ₂
 ----------------------
 Symbolic Z-matrix:
 Charge =  0 Multiplicity = 1
 C                     1.50185  -0.11465   0.64584 
 C                    -0.75483   0.50367  -4.2676 
 C                    -0.12666  -0.09745  -1.63098 
 H                     1.70222  -1.14115  -1.2545 
 H                     1.91138   0.58344  -1.33428 
 C                     3.64981  -0.95025   2.19368 
 H                     1.06183   0.81558  -3.20215 
 H                     3.61035   0.20155   0.36619 
 H                     0.70575  -0.86722  -3.45812 
 H                     3.14128  -1.46383   0.19109 
 C                     0.49154  -0.86477   1.51504 
 C                    -2.15765  -0.10678  -4.25086 
 C                     3.24007  -2.33177   2.70869 
 C                    -0.9409   -1.37795  -1.4264 
 C                     2.7796   -2.25648   4.03326 
 C                    -2.18614  -1.0935   -0.84662 
 C                    -3.1373    0.90326  -4.25535 
 C                    -0.16408   0.02383   2.38758 
 C                     0.35037   1.37684   2.16188 
 C                    -2.46975   2.20851  -4.25535 
 C                    -2.27983   0.35334  -0.63658 
 C                     2.84037  -0.85768   4.46793 
 C                    -1.0906    0.95728  -1.08576 
 C                     3.33404  -0.07481   3.40806 
 C                    -1.08117   1.9987   -4.25535 
 C                     1.32295   1.31909   1.15269 
 C                     1.98305   2.47229   0.75036 
 C                    -0.21116   3.07928  -4.31272 
 C                     3.5684    1.28077   3.5987 
 C                    -0.94359   2.33579  -1.00535 
 C                     1.66616   3.68905   1.35943 
 C                    -0.73257   4.37498  -4.34485 
 C                    -1.97877   3.10491  -0.47344 
 C                     3.27475   1.85821   4.83537 
 C                    -3.15557   2.502    -0.0255 
 C                     2.76076   1.08425   5.87753 
 C                     0.69595   3.74485   2.36199 
 C                    -2.11316   4.58276  -4.32626 
 C                     0.03206   2.58936   2.7698 
 C                    -2.99108   3.50109  -4.28591 
 C                     2.54526  -0.28073   5.70263 
 C                    -3.31453   1.12098  -0.10454 
 H                    -4.22996   0.65324   0.24073 
 H                     2.16258  -0.88351   6.51904 
 H                    -0.71917   2.63837   3.55008 
 H                    -4.06264   3.66794  -4.28049 
 H                     0.45793   4.69539   2.82669 
 H                    -2.50455   5.59379  -4.35061 
 H                     2.53596   1.548     6.83174 
 H                    -3.95102   3.11421   0.38538 
 H                     2.17569   4.59556   1.05129 
 H                    -0.06089   5.22529  -4.38808 
 H                    -1.86536   4.18065  -0.40881 
 H                     3.44393   2.9185    4.98481 
 H                     2.73918   2.44324  -0.02863 
 H                     0.86417   2.93151  -4.33269 
 H                    -0.03996   2.82225  -1.34706 
 H                     3.96249   1.89695   2.7998 
 C                    -4.49294   0.58085  -4.30755 
 C                    -1.12579  -0.43577   3.28582 
 C                     2.39166  -3.40886   4.71516 
 C                    -3.09215  -2.11712  -0.57741 
 C                    -4.86493  -0.76001  -4.37034 
 C                    -1.42885  -1.79456   3.31001 
 C                     2.47673  -4.63901   4.06565 
 C                    -2.74406  -3.42875  -0.89471 
 C                    -3.89387  -1.76295  -4.39196 
 C                    -0.77792  -2.67948   2.4485 
 C                     2.95171  -4.71735   2.755 
 C                    -1.50611  -3.71365  -1.47422 
 C                     3.33885  -3.56173   2.07204 
 C                    -0.5986   -2.68582  -1.74231 
 C                    -2.53674  -1.44004  -4.33782 
 C                     0.18411  -2.21852   1.54957 
 H                     3.7111   -3.63716   1.05504 
 H                     0.36111  -2.92152  -2.19265 
 H                     0.67714  -2.92047   0.89067 
 H                    -1.79692  -2.23106  -4.35119 
 H                    -4.19494  -2.8029   -4.44691 
 H                    -1.01998  -3.73536   2.47604 
 H                     3.02376  -5.68233   2.26544 
 H                    -1.24743  -4.73869  -1.71652 
 H                    -5.9152   -1.02716  -4.41115 
 H                    -2.17436  -2.16901   4.00311 
 H                     2.17863  -5.54374   4.58389 
 H                    -3.43978  -4.23521  -0.69047 
 H                    -5.24833   1.35911  -4.30872 
 H                    -1.62945   0.25092   3.95721 
 H                     2.03027  -3.35477   5.73624 
 H                    -4.05559  -1.90156  -0.12919 
 C                    -0.07463   0.15875  -5.62128 
 H                    -0.68541   0.50645  -6.45666 
 H                     0.90767   0.63461  -5.69458 
 H                     0.0607   -0.9216   -5.72053 
 C                     2.9954   -0.58151   0.82196 
 C                     0.25274   0.08052  -3.14888 
 C                     1.27099  -0.19612  -0.91053 
 C                     5.18582  -0.94706   1.95972 
 H                     5.45461  -1.61583   1.13679 
 H                     5.5359    0.05844   1.71126 
 H                     5.71078  -1.28154   2.85658 
 
 ITRead=  0  0  0  0  0  0  0  0  0  0  0  0  0  0  0  0  0  0  0  0
 ITRead=  0  0  0  0  0  0  0  0  0  0  0  0  0  0  0  0  0  0  0  0
 ITRead=  0  0  0  0  0  0  0  0  0  0  0  0  0  0  0  0  0  0  0  0
 ITRead=  0  0  0  0  0  0  0  0  0  0  0  0  0  0  0  0  0  0  0  0
 ITRead=  0  0  0  0  0  0  0  0  0  0  0  0  0  0  0  0  0  0  0  0
 ITRead=  0
 MicOpt= -1 -1 -1 -1 -1 -1 -1 -1 -1 -1 -1 -1 -1 -1 -1 -1 -1 -1 -1 -1
 MicOpt= -1 -1 -1 -1 -1 -1 -1 -1 -1 -1 -1 -1 -1 -1 -1 -1 -1 -1 -1 -1
 MicOpt= -1 -1 -1 -1 -1 -1 -1 -1 -1 -1 -1 -1 -1 -1 -1 -1 -1 -1 -1 -1
 MicOpt= -1 -1 -1 -1 -1 -1 -1 -1 -1 -1 -1 -1 -1 -1 -1 -1 -1 -1 -1 -1
 MicOpt= -1 -1 -1 -1 -1 -1 -1 -1 -1 -1 -1 -1 -1 -1 -1 -1 -1 -1 -1 -1
 MicOpt= -1
 NAtoms=    101 NQM=      101 NQMF=       0 NMMI=      0 NMMIF=      0
                NMic=       0 NMicF=      0.
                    Isotopes and Nuclear Properties:
 (Nuclear quadrupole moments (NQMom) in fm**2, nuclear magnetic moments (NMagM)
  in nuclear magnetons)

  Atom         1           2           3           4           5           6           7           8           9          10
 IAtWgt=          12          12          12           1           1          12           1           1           1           1
 AtmWgt=  12.0000000  12.0000000  12.0000000   1.0078250   1.0078250  12.0000000   1.0078250   1.0078250   1.0078250   1.0078250
 NucSpn=           0           0           0           1           1           0           1           1           1           1
 AtZEff=  -0.0000000  -0.0000000  -0.0000000  -0.0000000  -0.0000000  -0.0000000  -0.0000000  -0.0000000  -0.0000000  -0.0000000
 NQMom=    0.0000000   0.0000000   0.0000000   0.0000000   0.0000000   0.0000000   0.0000000   0.0000000   0.0000000   0.0000000
 NMagM=    0.0000000   0.0000000   0.0000000   2.7928460   2.7928460   0.0000000   2.7928460   2.7928460   2.7928460   2.7928460
 AtZNuc=   6.0000000   6.0000000   6.0000000   1.0000000   1.0000000   6.0000000   1.0000000   1.0000000   1.0000000   1.0000000

  Atom        11          12          13          14          15          16          17          18          19          20
 IAtWgt=          12          12          12          12          12          12          12          12          12          12
 AtmWgt=  12.0000000  12.0000000  12.0000000  12.0000000  12.0000000  12.0000000  12.0000000  12.0000000  12.0000000  12.0000000
 NucSpn=           0           0           0           0           0           0           0           0           0           0
 AtZEff=  -0.0000000  -0.0000000  -0.0000000  -0.0000000  -0.0000000  -0.0000000  -0.0000000  -0.0000000  -0.0000000  -0.0000000
 NQMom=    0.0000000   0.0000000   0.0000000   0.0000000   0.0000000   0.0000000   0.0000000   0.0000000   0.0000000   0.0000000
 NMagM=    0.0000000   0.0000000   0.0000000   0.0000000   0.0000000   0.0000000   0.0000000   0.0000000   0.0000000   0.0000000
 AtZNuc=   6.0000000   6.0000000   6.0000000   6.0000000   6.0000000   6.0000000   6.0000000   6.0000000   6.0000000   6.0000000

  Atom        21          22          23          24          25          26          27          28          29          30
 IAtWgt=          12          12          12          12          12          12          12          12          12          12
 AtmWgt=  12.0000000  12.0000000  12.0000000  12.0000000  12.0000000  12.0000000  12.0000000  12.0000000  12.0000000  12.0000000
 NucSpn=           0           0           0           0           0           0           0           0           0           0
 AtZEff=  -0.0000000  -0.0000000  -0.0000000  -0.0000000  -0.0000000  -0.0000000  -0.0000000  -0.0000000  -0.0000000  -0.0000000
 NQMom=    0.0000000   0.0000000   0.0000000   0.0000000   0.0000000   0.0000000   0.0000000   0.0000000   0.0000000   0.0000000
 NMagM=    0.0000000   0.0000000   0.0000000   0.0000000   0.0000000   0.0000000   0.0000000   0.0000000   0.0000000   0.0000000
 AtZNuc=   6.0000000   6.0000000   6.0000000   6.0000000   6.0000000   6.0000000   6.0000000   6.0000000   6.0000000   6.0000000

  Atom        31          32          33          34          35          36          37          38          39          40
 IAtWgt=          12          12          12          12          12          12          12          12          12          12
 AtmWgt=  12.0000000  12.0000000  12.0000000  12.0000000  12.0000000  12.0000000  12.0000000  12.0000000  12.0000000  12.0000000
 NucSpn=           0           0           0           0           0           0           0           0           0           0
 AtZEff=  -0.0000000  -0.0000000  -0.0000000  -0.0000000  -0.0000000  -0.0000000  -0.0000000  -0.0000000  -0.0000000  -0.0000000
 NQMom=    0.0000000   0.0000000   0.0000000   0.0000000   0.0000000   0.0000000   0.0000000   0.0000000   0.0000000   0.0000000
 NMagM=    0.0000000   0.0000000   0.0000000   0.0000000   0.0000000   0.0000000   0.0000000   0.0000000   0.0000000   0.0000000
 AtZNuc=   6.0000000   6.0000000   6.0000000   6.0000000   6.0000000   6.0000000   6.0000000   6.0000000   6.0000000   6.0000000

  Atom        41          42          43          44          45          46          47          48          49          50
 IAtWgt=          12          12           1           1           1           1           1           1           1           1
 AtmWgt=  12.0000000  12.0000000   1.0078250   1.0078250   1.0078250   1.0078250   1.0078250   1.0078250   1.0078250   1.0078250
 NucSpn=           0           0           1           1           1           1           1           1           1           1
 AtZEff=  -0.0000000  -0.0000000  -0.0000000  -0.0000000  -0.0000000  -0.0000000  -0.0000000  -0.0000000  -0.0000000  -0.0000000
 NQMom=    0.0000000   0.0000000   0.0000000   0.0000000   0.0000000   0.0000000   0.0000000   0.0000000   0.0000000   0.0000000
 NMagM=    0.0000000   0.0000000   2.7928460   2.7928460   2.7928460   2.7928460   2.7928460   2.7928460   2.7928460   2.7928460
 AtZNuc=   6.0000000   6.0000000   1.0000000   1.0000000   1.0000000   1.0000000   1.0000000   1.0000000   1.0000000   1.0000000

  Atom        51          52          53          54          55          56          57          58          59          60
 IAtWgt=           1           1           1           1           1           1           1           1          12          12
 AtmWgt=   1.0078250   1.0078250   1.0078250   1.0078250   1.0078250   1.0078250   1.0078250   1.0078250  12.0000000  12.0000000
 NucSpn=           1           1           1           1           1           1           1           1           0           0
 AtZEff=  -0.0000000  -0.0000000  -0.0000000  -0.0000000  -0.0000000  -0.0000000  -0.0000000  -0.0000000  -0.0000000  -0.0000000
 NQMom=    0.0000000   0.0000000   0.0000000   0.0000000   0.0000000   0.0000000   0.0000000   0.0000000   0.0000000   0.0000000
 NMagM=    2.7928460   2.7928460   2.7928460   2.7928460   2.7928460   2.7928460   2.7928460   2.7928460   0.0000000   0.0000000
 AtZNuc=   1.0000000   1.0000000   1.0000000   1.0000000   1.0000000   1.0000000   1.0000000   1.0000000   6.0000000   6.0000000

  Atom        61          62          63          64          65          66          67          68          69          70
 IAtWgt=          12          12          12          12          12          12          12          12          12          12
 AtmWgt=  12.0000000  12.0000000  12.0000000  12.0000000  12.0000000  12.0000000  12.0000000  12.0000000  12.0000000  12.0000000
 NucSpn=           0           0           0           0           0           0           0           0           0           0
 AtZEff=  -0.0000000  -0.0000000  -0.0000000  -0.0000000  -0.0000000  -0.0000000  -0.0000000  -0.0000000  -0.0000000  -0.0000000
 NQMom=    0.0000000   0.0000000   0.0000000   0.0000000   0.0000000   0.0000000   0.0000000   0.0000000   0.0000000   0.0000000
 NMagM=    0.0000000   0.0000000   0.0000000   0.0000000   0.0000000   0.0000000   0.0000000   0.0000000   0.0000000   0.0000000
 AtZNuc=   6.0000000   6.0000000   6.0000000   6.0000000   6.0000000   6.0000000   6.0000000   6.0000000   6.0000000   6.0000000

  Atom        71          72          73          74          75          76          77          78          79          80
 IAtWgt=          12          12          12          12           1           1           1           1           1           1
 AtmWgt=  12.0000000  12.0000000  12.0000000  12.0000000   1.0078250   1.0078250   1.0078250   1.0078250   1.0078250   1.0078250
 NucSpn=           0           0           0           0           1           1           1           1           1           1
 AtZEff=  -0.0000000  -0.0000000  -0.0000000  -0.0000000  -0.0000000  -0.0000000  -0.0000000  -0.0000000  -0.0000000  -0.0000000
 NQMom=    0.0000000   0.0000000   0.0000000   0.0000000   0.0000000   0.0000000   0.0000000   0.0000000   0.0000000   0.0000000
 NMagM=    0.0000000   0.0000000   0.0000000   0.0000000   2.7928460   2.7928460   2.7928460   2.7928460   2.7928460   2.7928460
 AtZNuc=   6.0000000   6.0000000   6.0000000   6.0000000   1.0000000   1.0000000   1.0000000   1.0000000   1.0000000   1.0000000

  Atom        81          82          83          84          85          86          87          88          89          90
 IAtWgt=           1           1           1           1           1           1           1           1           1           1
 AtmWgt=   1.0078250   1.0078250   1.0078250   1.0078250   1.0078250   1.0078250   1.0078250   1.0078250   1.0078250   1.0078250
 NucSpn=           1           1           1           1           1           1           1           1           1           1
 AtZEff=  -0.0000000  -0.0000000  -0.0000000  -0.0000000  -0.0000000  -0.0000000  -0.0000000  -0.0000000  -0.0000000  -0.0000000
 NQMom=    0.0000000   0.0000000   0.0000000   0.0000000   0.0000000   0.0000000   0.0000000   0.0000000   0.0000000   0.0000000
 NMagM=    2.7928460   2.7928460   2.7928460   2.7928460   2.7928460   2.7928460   2.7928460   2.7928460   2.7928460   2.7928460
 AtZNuc=   1.0000000   1.0000000   1.0000000   1.0000000   1.0000000   1.0000000   1.0000000   1.0000000   1.0000000   1.0000000

  Atom        91          92          93          94          95          96          97          98          99         100
 IAtWgt=          12           1           1           1          12          12          12          12           1           1
 AtmWgt=  12.0000000   1.0078250   1.0078250   1.0078250  12.0000000  12.0000000  12.0000000  12.0000000   1.0078250   1.0078250
 NucSpn=           0           1           1           1           0           0           0           0           1           1
 AtZEff=  -0.0000000  -0.0000000  -0.0000000  -0.0000000  -0.0000000  -0.0000000  -0.0000000  -0.0000000  -0.0000000  -0.0000000
 NQMom=    0.0000000   0.0000000   0.0000000   0.0000000   0.0000000   0.0000000   0.0000000   0.0000000   0.0000000   0.0000000
 NMagM=    0.0000000   2.7928460   2.7928460   2.7928460   0.0000000   0.0000000   0.0000000   0.0000000   2.7928460   2.7928460
 AtZNuc=   6.0000000   1.0000000   1.0000000   1.0000000   6.0000000   6.0000000   6.0000000   6.0000000   1.0000000   1.0000000

  Atom       101
 IAtWgt=           1
 AtmWgt=   1.0078250
 NucSpn=           1
 AtZEff=  -0.0000000
 NQMom=    0.0000000
 NMagM=    2.7928460
 AtZNuc=   1.0000000
 Leave Link  101 at Tue Mar 17 11:13:10 2026, MaxMem=   104857600 cpu:               0.0 elap:               0.0
 (Enter /sw/cluster/pub/apps//g16/l202.exe)
 Symmetry turned off by external request.
 Stoichiometry    C57H44
 Framework group  C1[X(C57H44)]
 Deg. of freedom   297
 Full point group                 C1      NOp   1
                          Input orientation:                          
 ---------------------------------------------------------------------
 Center     Atomic      Atomic             Coordinates (Angstroms)
 Number     Number       Type             X           Y           Z
 ---------------------------------------------------------------------
      1          6           0        1.501855   -0.114647    0.645840
      2          6           0       -0.754833    0.503674   -4.267599
      3          6           0       -0.126661   -0.097449   -1.630979
      4          1           0        1.702219   -1.141152   -1.254505
      5          1           0        1.911376    0.583439   -1.334278
      6          6           0        3.649807   -0.950246    2.193682
      7          1           0        1.061826    0.815584   -3.202151
      8          1           0        3.610348    0.201547    0.366189
      9          1           0        0.705755   -0.867225   -3.458119
     10          1           0        3.141279   -1.463827    0.191089
     11          6           0        0.491544   -0.864765    1.515040
     12          6           0       -2.157646   -0.106777   -4.250862
     13          6           0        3.240073   -2.331774    2.708687
     14          6           0       -0.940903   -1.377952   -1.426403
     15          6           0        2.779599   -2.256483    4.033260
     16          6           0       -2.186143   -1.093500   -0.846619
     17          6           0       -3.137296    0.903262   -4.255348
     18          6           0       -0.164082    0.023834    2.387577
     19          6           0        0.350374    1.376837    2.161875
     20          6           0       -2.469753    2.208510   -4.255348
     21          6           0       -2.279828    0.353336   -0.636583
     22          6           0        2.840373   -0.857678    4.467931
     23          6           0       -1.090599    0.957284   -1.085755
     24          6           0        3.334043   -0.074810    3.408063
     25          6           0       -1.081166    1.998699   -4.255348
     26          6           0        1.322948    1.319091    1.152691
     27          6           0        1.983046    2.472294    0.750356
     28          6           0       -0.211156    3.079276   -4.312723
     29          6           0        3.568402    1.280770    3.598705
     30          6           0       -0.943595    2.335793   -1.005355
     31          6           0        1.666159    3.689047    1.359435
     32          6           0       -0.732569    4.374984   -4.344852
     33          6           0       -1.978766    3.104907   -0.473438
     34          6           0        3.274749    1.858211    4.835368
     35          6           0       -3.155567    2.501999   -0.025502
     36          6           0        2.760763    1.084249    5.877528
     37          6           0        0.695954    3.744854    2.361992
     38          6           0       -2.113164    4.582758   -4.326258
     39          6           0        0.032065    2.589365    2.769805
     40          6           0       -2.991081    3.501085   -4.285915
     41          6           0        2.545259   -0.280731    5.702630
     42          6           0       -3.314533    1.120979   -0.104540
     43          1           0       -4.229957    0.653241    0.240730
     44          1           0        2.162584   -0.883509    6.519043
     45          1           0       -0.719172    2.638375    3.550075
     46          1           0       -4.062643    3.667941   -4.280492
     47          1           0        0.457934    4.695391    2.826690
     48          1           0       -2.504549    5.593790   -4.350610
     49          1           0        2.535960    1.548002    6.831736
     50          1           0       -3.951025    3.114212    0.385385
     51          1           0        2.175685    4.595563    1.051290
     52          1           0       -0.060891    5.225288   -4.388081
     53          1           0       -1.865359    4.180646   -0.408808
     54          1           0        3.443929    2.918496    4.984806
     55          1           0        2.739184    2.443244   -0.028635
     56          1           0        0.864169    2.931515   -4.332689
     57          1           0       -0.039956    2.822251   -1.347055
     58          1           0        3.962495    1.896950    2.799801
     59          6           0       -4.492938    0.580846   -4.307546
     60          6           0       -1.125790   -0.435774    3.285818
     61          6           0        2.391657   -3.408860    4.715163
     62          6           0       -3.092153   -2.117118   -0.577415
     63          6           0       -4.864925   -0.760007   -4.370336
     64          6           0       -1.428851   -1.794561    3.310014
     65          6           0        2.476727   -4.639014    4.065652
     66          6           0       -2.744064   -3.428748   -0.894711
     67          6           0       -3.893873   -1.762947   -4.391956
     68          6           0       -0.777917   -2.679477    2.448497
     69          6           0        2.951713   -4.717348    2.754999
     70          6           0       -1.506109   -3.713648   -1.474222
     71          6           0        3.338853   -3.561726    2.072045
     72          6           0       -0.598598   -2.685818   -1.742305
     73          6           0       -2.536742   -1.440041   -4.337820
     74          6           0        0.184111   -2.218519    1.549568
     75          1           0        3.711102   -3.637162    1.055041
     76          1           0        0.361115   -2.921518   -2.192653
     77          1           0        0.677137   -2.920475    0.890669
     78          1           0       -1.796917   -2.231062   -4.351186
     79          1           0       -4.194944   -2.802897   -4.446909
     80          1           0       -1.019983   -3.735365    2.476036
     81          1           0        3.023761   -5.682326    2.265445
     82          1           0       -1.247426   -4.738693   -1.716522
     83          1           0       -5.915202   -1.027155   -4.411149
     84          1           0       -2.174363   -2.169011    4.003112
     85          1           0        2.178631   -5.543737    4.583893
     86          1           0       -3.439779   -4.235212   -0.690471
     87          1           0       -5.248334    1.359105   -4.308720
     88          1           0       -1.629452    0.250918    3.957213
     89          1           0        2.030268   -3.354773    5.736236
     90          1           0       -4.055590   -1.901563   -0.129190
     91          6           0       -0.074629    0.158745   -5.621278
     92          1           0       -0.685408    0.506451   -6.456658
     93          1           0        0.907670    0.634610   -5.694583
     94          1           0        0.060700   -0.921604   -5.720527
     95          6           0        2.995401   -0.581507    0.821964
     96          6           0        0.252744    0.080521   -3.148882
     97          6           0        1.270989   -0.196121   -0.910526
     98          6           0        5.185819   -0.947056    1.959724
     99          1           0        5.454606   -1.615830    1.136785
    100          1           0        5.535898    0.058444    1.711260
    101          1           0        5.710784   -1.281537    2.856579
 ---------------------------------------------------------------------
 Rotational constants (GHZ):           0.0974130           0.0413397           0.0360092
 Leave Link  202 at Tue Mar 17 11:13:10 2026, MaxMem=   104857600 cpu:               0.0 elap:               0.0
 (Enter /sw/cluster/pub/apps//g16/l301.exe)
 Standard basis: 6-311G(d,p) (5D, 7F)
 Ernie: Thresh=  0.10000D-02 Tol=  0.10000D-05 Strict=F.
  1290 basis functions,  2176 primitive gaussians,  1347 cartesian basis functions
   193 alpha electrons      193 beta electrons
       nuclear repulsion energy      8087.1168989633 Hartrees.
 IExCor=  402 DFT=T Ex+Corr=B3LYP ExCW=0 ScaHFX=  0.200000
 ScaDFX=  0.800000  0.720000  1.000000  0.810000 ScalE2=  1.000000  1.000000
 IRadAn=      5 IRanWt=     -1 IRanGd=            0 ICorTp=0 IEmpDi=  4
 NAtoms=  101 NActive=  101 NUniq=  101 SFac= 1.00D+00 NAtFMM=   60 NAOKFM=T Big=T
 Integral buffers will be    131072 words long.
 Raffenetti 2 integral format.
 Two-electron integral symmetry is turned off.
 Leave Link  301 at Tue Mar 17 11:13:10 2026, MaxMem=   104857600 cpu:               0.0 elap:               0.0
 (Enter /sw/cluster/pub/apps//g16/l302.exe)
 NPDir=0 NMtPBC=     1 NCelOv=     1 NCel=       1 NClECP=     1 NCelD=      1
         NCelK=      1 NCelE2=     1 NClLst=     1 CellRange=     0.0.
 One-electron integrals computed using PRISM.
 NBasis=  1290 RedAO= T EigKep=  9.79D-05  NBF=  1290
 NBsUse=  1290 1.00D-06 EigRej= -1.00D+00 NBFU=  1290
 Precomputing XC quadrature grid using
 IXCGrd= 4 IRadAn=           5 IRanWt=          -1 IRanGd=           0 AccXCQ= 0.00D+00.
 Generated NRdTot=       0 NPtTot=           0 NUsed=           0 NTot=          32
 NSgBfM=  1211  1192  1201  1207  1211 MxSgAt=   101 MxSgA2=   101.
 Leave Link  302 at Tue Mar 17 11:13:18 2026, MaxMem=   104857600 cpu:               7.6 elap:               7.6
 (Enter /sw/cluster/pub/apps//g16/l303.exe)
 DipDrv:  MaxL=1.
 Leave Link  303 at Tue Mar 17 11:13:18 2026, MaxMem=   104857600 cpu:               0.1 elap:               0.1
 (Enter /sw/cluster/pub/apps//g16/l401.exe)
 ExpMin= 1.03D-01 ExpMax= 4.56D+03 ExpMxC= 6.82D+02 IAcc=3 IRadAn=         5 AccDes= 0.00D+00
 Harris functional with IExCor=  402 and IRadAn=       5 diagonalized for initial guess.
 HarFok:  IExCor=  402 AccDes= 0.00D+00 IRadAn=         5 IDoV= 1 UseB2=F ITyADJ=14
 ICtDFT=  3500011 ScaDFX=  1.000000  1.000000  1.000000  1.000000
 FoFCou: FMM=F IPFlag=           0 FMFlag=      100000 FMFlg1=        2001
         NFxFlg=           0 DoJE=T BraDBF=F KetDBF=T FulRan=T
         wScrn=  0.000000 ICntrl=       500 IOpCl=  0 I1Cent=   200000004 NGrid=           0
         NMat0=    1 NMatS0=      1 NMatT0=    0 NMatD0=    1 NMtDS0=    0 NMtDT0=    0
 Symmetry not used in FoFCou.
 Harris En= -2199.22989454796    
 JPrj=0 DoOrth=F DoCkMO=F.
 Leave Link  401 at Tue Mar 17 11:14:10 2026, MaxMem=   104857600 cpu:              51.8 elap:              51.8
 (Enter /sw/cluster/pub/apps//g16/l502.exe)
 Two-electron integral symmetry not used.
 Closed shell SCF:
 Using DIIS extrapolation, IDIIS=  1040.
 NGot=   104857600 LenX=   101210662 LenY=    99394906
 Requested convergence on RMS density matrix=1.00D-08 within 128 cycles.
 Requested convergence on MAX density matrix=1.00D-06.
 Requested convergence on             energy=1.00D-06.
 No special actions if energy rises.
 Fock matrices will be formed incrementally for  20 cycles.
 Integral accuracy reduced to 1.0D-05 until final iterations.

 Cycle   1  Pass 0  IDiag  1:
 FoFJK:  IHMeth= 1 ICntrl=       0 DoSepK=F KAlg= 0 I1Cent=           0 FoldK=F
 IRaf= 720000000 NMat=       1 IRICut=       1 DoRegI=T DoRafI=F ISym2E= 0 IDoP0=0 IntGTp=1.
 FoFCou: FMM=T IPFlag=           0 FMFlag=      100000 FMFlg1=        2001
         NFxFlg=           0 DoJE=F BraDBF=F KetDBF=F FulRan=T
         wScrn=  0.000000 ICntrl=         0 IOpCl=  0 I1Cent=           0 NGrid=           0
         NMat0=    1 NMatS0=      1 NMatT0=    0 NMatD0=    1 NMtDS0=    0 NMtDT0=    0
 Symmetry not used in FoFCou.
 FMM levels:  10  Number of levels for PrismC:   9
 E= -2197.78720277178    
 DIIS: error= 3.36D-02 at cycle   1 NSaved=   1.
 NSaved= 1 IEnMin= 1 EnMin= -2197.78720277178     IErMin= 1 ErrMin= 3.36D-02
 ErrMax= 3.36D-02  0.00D+00 EMaxC= 1.00D-01 BMatC= 1.33D+00 BMatP= 1.33D+00
 IDIUse=3 WtCom= 6.64D-01 WtEn= 3.36D-01
 Coeff-Com:  0.100D+01
 Coeff-En:   0.100D+01
 Coeff:      0.100D+01
 Gap=     0.183 Goal=   None    Shift=    0.000
 GapD=    0.183 DampG=1.000 DampE=0.500 DampFc=0.5000 IDamp=-1.
 Damping current iteration by 5.00D-01
 RMSDP=1.80D-03 MaxDP=1.24D-01              OVMax= 1.48D-01

 Cycle   2  Pass 0  IDiag  1:
 RMSU=  8.80D-04    CP:  9.64D-01
 E= -2198.39226240720     Delta-E=       -0.605059635423 Rises=F Damp=T
 DIIS: error= 5.25D-03 at cycle   2 NSaved=   2.
 NSaved= 2 IEnMin= 2 EnMin= -2198.39226240720     IErMin= 2 ErrMin= 5.25D-03
 ErrMax= 5.25D-03  0.00D+00 EMaxC= 1.00D-01 BMatC= 7.87D-02 BMatP= 1.33D+00
 IDIUse=3 WtCom= 9.47D-01 WtEn= 5.25D-02
 Coeff-Com: -0.108D-01 0.101D+01
 Coeff-En:   0.387D-01 0.961D+00
 Coeff:     -0.817D-02 0.101D+01
 Gap=     0.260 Goal=   None    Shift=    0.000
 RMSDP=6.57D-04 MaxDP=2.43D-02 DE=-6.05D-01 OVMax= 1.06D-01

 Cycle   3  Pass 0  IDiag  1:
 RMSU=  6.13D-04    CP:  9.62D-01  7.31D-01
 E= -2199.05959472871     Delta-E=       -0.667332321507 Rises=F Damp=F
 DIIS: error= 6.20D-03 at cycle   3 NSaved=   3.
 NSaved= 3 IEnMin= 3 EnMin= -2199.05959472871     IErMin= 2 ErrMin= 5.25D-03
 ErrMax= 6.20D-03  0.00D+00 EMaxC= 1.00D-01 BMatC= 4.22D-02 BMatP= 7.87D-02
 IDIUse=3 WtCom= 9.38D-01 WtEn= 6.20D-02
 Coeff-Com: -0.651D-01 0.426D+00 0.639D+00
 Coeff-En:   0.000D+00 0.000D+00 0.100D+01
 Coeff:     -0.611D-01 0.399D+00 0.662D+00
 Gap=     0.186 Goal=   None    Shift=    0.000
 RMSDP=3.96D-04 MaxDP=2.04D-02 DE=-6.67D-01 OVMax= 6.33D-02

 Cycle   4  Pass 0  IDiag  1:
 RMSU=  2.38D-04    CP:  9.57D-01  9.15D-01  5.59D-01
 E= -2199.07539557631     Delta-E=       -0.015800847601 Rises=F Damp=F
 DIIS: error= 7.94D-03 at cycle   4 NSaved=   4.
 NSaved= 4 IEnMin= 4 EnMin= -2199.07539557631     IErMin= 2 ErrMin= 5.25D-03
 ErrMax= 7.94D-03  0.00D+00 EMaxC= 1.00D-01 BMatC= 2.79D-02 BMatP= 4.22D-02
 IDIUse=3 WtCom= 9.21D-01 WtEn= 7.94D-02
 Coeff-Com: -0.468D-01 0.207D+00 0.467D+00 0.373D+00
 Coeff-En:   0.000D+00 0.000D+00 0.403D+00 0.597D+00
 Coeff:     -0.431D-01 0.191D+00 0.462D+00 0.391D+00
 Gap=     0.175 Goal=   None    Shift=    0.000
 RMSDP=1.60D-04 MaxDP=6.71D-03 DE=-1.58D-02 OVMax= 3.98D-02

 Cycle   5  Pass 0  IDiag  1:
 RMSU=  7.52D-05    CP:  9.58D-01  8.83D-01  6.95D-01  5.35D-01
 E= -2199.10231416186     Delta-E=       -0.026918585550 Rises=F Damp=F
 DIIS: error= 2.54D-03 at cycle   5 NSaved=   5.
 NSaved= 5 IEnMin= 5 EnMin= -2199.10231416186     IErMin= 5 ErrMin= 2.54D-03
 ErrMax= 2.54D-03  0.00D+00 EMaxC= 1.00D-01 BMatC= 2.06D-03 BMatP= 2.79D-02
 IDIUse=3 WtCom= 9.75D-01 WtEn= 2.54D-02
 Coeff-Com: -0.166D-01 0.520D-01 0.176D+00 0.246D+00 0.543D+00
 Coeff-En:   0.000D+00 0.000D+00 0.000D+00 0.665D-01 0.934D+00
 Coeff:     -0.161D-01 0.507D-01 0.172D+00 0.241D+00 0.553D+00
 Gap=     0.175 Goal=   None    Shift=    0.000
 RMSDP=4.99D-05 MaxDP=2.63D-03 DE=-2.69D-02 OVMax= 1.18D-02

 Cycle   6  Pass 0  IDiag  1:
 RMSU=  3.31D-05    CP:  9.58D-01  8.81D-01  6.88D-01  5.99D-01  5.52D-01
 E= -2199.10405940805     Delta-E=       -0.001745246187 Rises=F Damp=F
 DIIS: error= 1.18D-03 at cycle   6 NSaved=   6.
 NSaved= 6 IEnMin= 6 EnMin= -2199.10405940805     IErMin= 6 ErrMin= 1.18D-03
 ErrMax= 1.18D-03  0.00D+00 EMaxC= 1.00D-01 BMatC= 4.06D-04 BMatP= 2.06D-03
 IDIUse=3 WtCom= 9.88D-01 WtEn= 1.18D-02
 Coeff-Com: -0.608D-02 0.125D-01 0.660D-01 0.121D+00 0.385D+00 0.421D+00
 Coeff-En:   0.000D+00 0.000D+00 0.000D+00 0.000D+00 0.187D+00 0.813D+00
 Coeff:     -0.601D-02 0.123D-01 0.653D-01 0.120D+00 0.383D+00 0.426D+00
 Gap=     0.175 Goal=   None    Shift=    0.000
 RMSDP=2.03D-05 MaxDP=1.32D-03 DE=-1.75D-03 OVMax= 4.95D-03

 Cycle   7  Pass 0  IDiag  1:
 RMSU=  9.41D-06    CP:  9.58D-01  8.82D-01  6.92D-01  5.90D-01  6.44D-01
                    CP:  5.07D-01
 E= -2199.10452534663     Delta-E=       -0.000465938580 Rises=F Damp=F
 DIIS: error= 2.28D-04 at cycle   7 NSaved=   7.
 NSaved= 7 IEnMin= 7 EnMin= -2199.10452534663     IErMin= 7 ErrMin= 2.28D-04
 ErrMax= 2.28D-04  0.00D+00 EMaxC= 1.00D-01 BMatC= 2.02D-05 BMatP= 4.06D-04
 IDIUse=3 WtCom= 9.98D-01 WtEn= 2.28D-03
 Coeff-Com: -0.259D-02 0.411D-02 0.290D-01 0.583D-01 0.202D+00 0.263D+00
 Coeff-Com:  0.445D+00
 Coeff-En:   0.000D+00 0.000D+00 0.000D+00 0.000D+00 0.000D+00 0.000D+00
 Coeff-En:   0.100D+01
 Coeff:     -0.259D-02 0.410D-02 0.289D-01 0.582D-01 0.202D+00 0.263D+00
 Coeff:      0.447D+00
 Gap=     0.175 Goal=   None    Shift=    0.000
 RMSDP=5.03D-06 MaxDP=2.35D-04 DE=-4.66D-04 OVMax= 1.31D-03

 Initial convergence to 1.0D-05 achieved.  Increase integral accuracy.
 Cycle   8  Pass 1  IDiag  1:
 E= -2199.10428253401     Delta-E=        0.000242812615 Rises=F Damp=F
 DIIS: error= 4.56D-04 at cycle   1 NSaved=   1.
 NSaved= 1 IEnMin= 1 EnMin= -2199.10428253401     IErMin= 1 ErrMin= 4.56D-04
 ErrMax= 4.56D-04  0.00D+00 EMaxC= 1.00D-01 BMatC= 1.30D-04 BMatP= 1.30D-04
 IDIUse=3 WtCom= 9.95D-01 WtEn= 4.56D-03
 Coeff-Com:  0.100D+01
 Coeff-En:   0.100D+01
 Coeff:      0.100D+01
 Gap=     0.175 Goal=   None    Shift=    0.000
 RMSDP=5.03D-06 MaxDP=2.35D-04 DE= 2.43D-04 OVMax= 1.62D-03

 Cycle   9  Pass 1  IDiag  1:
 RMSU=  2.71D-04    CP:  9.98D-01
 E= -2199.10440179361     Delta-E=       -0.000119259594 Rises=F Damp=F
 DIIS: error= 2.10D-04 at cycle   2 NSaved=   2.
 NSaved= 2 IEnMin= 2 EnMin= -2199.10440179361     IErMin= 2 ErrMin= 2.10D-04
 ErrMax= 2.10D-04  0.00D+00 EMaxC= 1.00D-01 BMatC= 1.26D-05 BMatP= 1.30D-04
 IDIUse=3 WtCom= 9.98D-01 WtEn= 2.10D-03
 Coeff-Com:  0.111D+00 0.889D+00
 Coeff-En:   0.000D+00 0.100D+01
 Coeff:      0.111D+00 0.889D+00
 Gap=     0.175 Goal=   None    Shift=    0.000
 RMSDP=9.40D-06 MaxDP=3.98D-04 DE=-1.19D-04 OVMax= 2.50D-03

 Cycle  10  Pass 1  IDiag  1:
 RMSU=  8.96D-06    CP:  9.97D-01  1.01D+00
 E= -2199.10435556752     Delta-E=        0.000046226085 Rises=F Damp=F
 DIIS: error= 4.35D-04 at cycle   3 NSaved=   3.
 NSaved= 3 IEnMin= 2 EnMin= -2199.10440179361     IErMin= 2 ErrMin= 2.10D-04
 ErrMax= 4.35D-04  0.00D+00 EMaxC= 1.00D-01 BMatC= 5.29D-05 BMatP= 1.26D-05
 IDIUse=3 WtCom= 3.24D-01 WtEn= 6.76D-01
 Coeff-Com: -0.445D-02 0.675D+00 0.329D+00
 Coeff-En:   0.000D+00 0.744D+00 0.256D+00
 Coeff:     -0.144D-02 0.721D+00 0.280D+00
 Gap=     0.175 Goal=   None    Shift=    0.000
 RMSDP=5.10D-06 MaxDP=2.26D-04 DE= 4.62D-05 OVMax= 1.40D-03

 Cycle  11  Pass 1  IDiag  1:
 RMSU=  8.13D-07    CP:  9.98D-01  1.01D+00  4.39D-01
 E= -2199.10441437779     Delta-E=       -0.000058810263 Rises=F Damp=F
 DIIS: error= 6.88D-05 at cycle   4 NSaved=   4.
 NSaved= 4 IEnMin= 4 EnMin= -2199.10441437779     IErMin= 4 ErrMin= 6.88D-05
 ErrMax= 6.88D-05  0.00D+00 EMaxC= 1.00D-01 BMatC= 1.64D-06 BMatP= 1.26D-05
 IDIUse=1 WtCom= 1.00D+00 WtEn= 0.00D+00
 Coeff-Com: -0.388D-02 0.444D+00 0.149D+00 0.411D+00
 Coeff:     -0.388D-02 0.444D+00 0.149D+00 0.411D+00
 Gap=     0.175 Goal=   None    Shift=    0.000
 RMSDP=1.01D-06 MaxDP=5.86D-05 DE=-5.88D-05 OVMax= 2.90D-04

 Cycle  12  Pass 1  IDiag  1:
 RMSU=  3.32D-07    CP:  9.98D-01  1.01D+00  3.35D-01  7.25D-01
 E= -2199.10441622501     Delta-E=       -0.000001847220 Rises=F Damp=F
 DIIS: error= 6.43D-06 at cycle   5 NSaved=   5.
 NSaved= 5 IEnMin= 5 EnMin= -2199.10441622501     IErMin= 5 ErrMin= 6.43D-06
 ErrMax= 6.43D-06  0.00D+00 EMaxC= 1.00D-01 BMatC= 1.21D-08 BMatP= 1.64D-06
 IDIUse=1 WtCom= 1.00D+00 WtEn= 0.00D+00
 Coeff-Com: -0.237D-02 0.265D+00 0.840D-01 0.272D+00 0.382D+00
 Coeff:     -0.237D-02 0.265D+00 0.840D-01 0.272D+00 0.382D+00
 Gap=     0.175 Goal=   None    Shift=    0.000
 RMSDP=1.09D-07 MaxDP=5.05D-06 DE=-1.85D-06 OVMax= 2.71D-05

 Cycle  13  Pass 1  IDiag  1:
 RMSU=  9.25D-08    CP:  9.98D-01  1.01D+00  3.36D-01  7.60D-01  8.57D-01
 E= -2199.10441623692     Delta-E=       -0.000000011916 Rises=F Damp=F
 DIIS: error= 1.35D-06 at cycle   6 NSaved=   6.
 NSaved= 6 IEnMin= 6 EnMin= -2199.10441623692     IErMin= 6 ErrMin= 1.35D-06
 ErrMax= 1.35D-06  0.00D+00 EMaxC= 1.00D-01 BMatC= 9.24D-10 BMatP= 1.21D-08
 IDIUse=1 WtCom= 1.00D+00 WtEn= 0.00D+00
 Coeff-Com: -0.739D-03 0.801D-01 0.238D-01 0.915D-01 0.233D+00 0.572D+00
 Coeff:     -0.739D-03 0.801D-01 0.238D-01 0.915D-01 0.233D+00 0.572D+00
 Gap=     0.175 Goal=   None    Shift=    0.000
 RMSDP=3.30D-08 MaxDP=1.69D-06 DE=-1.19D-08 OVMax= 7.62D-06

 Cycle  14  Pass 1  IDiag  1:
 RMSU=  1.99D-08    CP:  9.98D-01  1.01D+00  3.36D-01  7.64D-01  8.78D-01
                    CP:  7.35D-01
 E= -2199.10441623784     Delta-E=       -0.000000000915 Rises=F Damp=F
 DIIS: error= 2.72D-07 at cycle   7 NSaved=   7.
 NSaved= 7 IEnMin= 7 EnMin= -2199.10441623784     IErMin= 7 ErrMin= 2.72D-07
 ErrMax= 2.72D-07  0.00D+00 EMaxC= 1.00D-01 BMatC= 9.01D-11 BMatP= 9.24D-10
 IDIUse=1 WtCom= 1.00D+00 WtEn= 0.00D+00
 Coeff-Com: -0.164D-03 0.170D-01 0.452D-02 0.224D-01 0.881D-01 0.317D+00
 Coeff-Com:  0.551D+00
 Coeff:     -0.164D-03 0.170D-01 0.452D-02 0.224D-01 0.881D-01 0.317D+00
 Coeff:      0.551D+00
 Gap=     0.175 Goal=   None    Shift=    0.000
 RMSDP=9.48D-09 MaxDP=7.35D-07 DE=-9.15D-10 OVMax= 2.32D-06

 SCF Done:  E(RB3LYP) =  -2199.10441624     A.U. after   14 cycles
            NFock= 14  Conv=0.95D-08     -V/T= 2.0045
 KE= 2.189302830223D+03 PE=-2.127848549270D+04 EE= 8.802961347279D+03
 Leave Link  502 at Tue Mar 17 11:54:07 2026, MaxMem=   104857600 cpu:            2394.4 elap:            2397.3
 (Enter /sw/cluster/pub/apps//g16/l601.exe)
 Copying SCF densities to generalized density rwf, IOpCl= 0 IROHF=0.
 Hyperfine terms turned off by default for NAtoms > 100.

 **********************************************************************

            Population analysis using the SCF density.

 **********************************************************************

 Alpha  occ. eigenvalues --  -10.19909 -10.19909 -10.19674 -10.19674 -10.18087
 Alpha  occ. eigenvalues --  -10.17995 -10.17995 -10.17194 -10.17194 -10.17134
 Alpha  occ. eigenvalues --  -10.17134 -10.17065 -10.17064 -10.17040 -10.17040
 Alpha  occ. eigenvalues --  -10.16982 -10.16982 -10.16980 -10.16979 -10.16975
 Alpha  occ. eigenvalues --  -10.16975 -10.16939 -10.16939 -10.16931 -10.16931
 Alpha  occ. eigenvalues --  -10.16882 -10.16882 -10.16881 -10.16880 -10.16870
 Alpha  occ. eigenvalues --  -10.16870 -10.16780 -10.16780 -10.16678 -10.16678
 Alpha  occ. eigenvalues --  -10.16668 -10.16668 -10.16649 -10.16649 -10.16598
 Alpha  occ. eigenvalues --  -10.16598 -10.16596 -10.16596 -10.16517 -10.16517
 Alpha  occ. eigenvalues --  -10.16465 -10.16465 -10.16421 -10.16421 -10.16213
 Alpha  occ. eigenvalues --  -10.16213 -10.16159 -10.16159 -10.16006 -10.16005
 Alpha  occ. eigenvalues --  -10.15934 -10.15934  -0.89366  -0.88973  -0.88380
 Alpha  occ. eigenvalues --   -0.87827  -0.84223  -0.84205  -0.83960  -0.83763
 Alpha  occ. eigenvalues --   -0.82499  -0.81645  -0.80393  -0.79307  -0.77507
 Alpha  occ. eigenvalues --   -0.77354  -0.76875  -0.76108  -0.74086  -0.74055
 Alpha  occ. eigenvalues --   -0.73827  -0.73790  -0.73504  -0.73402  -0.72546
 Alpha  occ. eigenvalues --   -0.71103  -0.71102  -0.70872  -0.70796  -0.70765
 Alpha  occ. eigenvalues --   -0.67549  -0.65109  -0.64375  -0.64227  -0.64139
 Alpha  occ. eigenvalues --   -0.62535  -0.61976  -0.61746  -0.61696  -0.58296
 Alpha  occ. eigenvalues --   -0.58231  -0.57995  -0.57779  -0.57508  -0.57335
 Alpha  occ. eigenvalues --   -0.57319  -0.57084  -0.56887  -0.55800  -0.54973
 Alpha  occ. eigenvalues --   -0.54885  -0.51412  -0.50911  -0.50466  -0.50444
 Alpha  occ. eigenvalues --   -0.49880  -0.49573  -0.49130  -0.48647  -0.47577
 Alpha  occ. eigenvalues --   -0.47381  -0.46684  -0.46504  -0.45831  -0.45406
 Alpha  occ. eigenvalues --   -0.45189  -0.45084  -0.44387  -0.44247  -0.44084
 Alpha  occ. eigenvalues --   -0.43820  -0.43742  -0.43545  -0.43341  -0.43334
 Alpha  occ. eigenvalues --   -0.43268  -0.43150  -0.42580  -0.41953  -0.41690
 Alpha  occ. eigenvalues --   -0.41687  -0.41608  -0.41553  -0.41348  -0.41315
 Alpha  occ. eigenvalues --   -0.41280  -0.41001  -0.40228  -0.39370  -0.39031
 Alpha  occ. eigenvalues --   -0.38584  -0.38288  -0.38082  -0.38078  -0.37997
 Alpha  occ. eigenvalues --   -0.37989  -0.37562  -0.37349  -0.37172  -0.36590
 Alpha  occ. eigenvalues --   -0.35746  -0.35519  -0.34834  -0.34822  -0.34759
 Alpha  occ. eigenvalues --   -0.34719  -0.34604  -0.34437  -0.34313  -0.34128
 Alpha  occ. eigenvalues --   -0.33964  -0.33795  -0.33564  -0.32786  -0.32578
 Alpha  occ. eigenvalues --   -0.32301  -0.32057  -0.32037  -0.31579  -0.31478
 Alpha  occ. eigenvalues --   -0.31242  -0.30817  -0.28026  -0.27971  -0.27806
 Alpha  occ. eigenvalues --   -0.27433  -0.25457  -0.25414  -0.24964  -0.24861
 Alpha  occ. eigenvalues --   -0.24410  -0.23945  -0.23678  -0.22391  -0.21393
 Alpha  occ. eigenvalues --   -0.21271  -0.20987  -0.20754
 Alpha virt. eigenvalues --   -0.03283  -0.03246  -0.03021  -0.02815  -0.01746
 Alpha virt. eigenvalues --   -0.01700  -0.01379  -0.00726   0.00552   0.00636
 Alpha virt. eigenvalues --    0.00995   0.01147   0.02373   0.03726   0.03915
 Alpha virt. eigenvalues --    0.04112   0.04154   0.04317   0.04531   0.04817
 Alpha virt. eigenvalues --    0.05513   0.05763   0.05935   0.06184   0.06594
 Alpha virt. eigenvalues --    0.06646   0.07137   0.07398   0.07845   0.08187
 Alpha virt. eigenvalues --    0.08279   0.08679   0.09031   0.09629   0.09681
 Alpha virt. eigenvalues --    0.10077   0.10392   0.10501   0.10724   0.10909
 Alpha virt. eigenvalues --    0.10932   0.11102   0.11618   0.11711   0.12505
 Alpha virt. eigenvalues --    0.12540   0.12954   0.13028   0.13225   0.13318
 Alpha virt. eigenvalues --    0.13633   0.14326   0.14760   0.14789   0.15228
 Alpha virt. eigenvalues --    0.15399   0.15491   0.16062   0.16500   0.16694
 Alpha virt. eigenvalues --    0.17105   0.17431   0.17741   0.18117   0.18480
 Alpha virt. eigenvalues --    0.18626   0.19254   0.19734   0.20161   0.20343
 Alpha virt. eigenvalues --    0.20398   0.20851   0.20870   0.21438   0.21479
 Alpha virt. eigenvalues --    0.22369   0.22561   0.23169   0.23275   0.23619
 Alpha virt. eigenvalues --    0.23834   0.24274   0.24523   0.24723   0.24972
 Alpha virt. eigenvalues --    0.25526   0.25666   0.25787   0.26412   0.26500
 Alpha virt. eigenvalues --    0.27209   0.27488   0.27671   0.27747   0.28036
 Alpha virt. eigenvalues --    0.28066   0.28237   0.28243   0.28489   0.28655
 Alpha virt. eigenvalues --    0.28885   0.29028   0.29096   0.29161   0.29751
 Alpha virt. eigenvalues --    0.29794   0.30025   0.30396   0.31522   0.31579
 Alpha virt. eigenvalues --    0.31743   0.32069   0.32280   0.32503   0.32631
 Alpha virt. eigenvalues --    0.33465   0.33555   0.33797   0.33979   0.33989
 Alpha virt. eigenvalues --    0.34398   0.34640   0.34719   0.34854   0.35458
 Alpha virt. eigenvalues --    0.35676   0.35759   0.35991   0.36047   0.36510
 Alpha virt. eigenvalues --    0.37032   0.37142   0.37227   0.37384   0.38024
 Alpha virt. eigenvalues --    0.38092   0.38256   0.39062   0.39130   0.39597
 Alpha virt. eigenvalues --    0.39707   0.40090   0.40413   0.40615   0.40677
 Alpha virt. eigenvalues --    0.40838   0.40871   0.41197   0.41237   0.41645
 Alpha virt. eigenvalues --    0.41800   0.42140   0.42147   0.42370   0.42445
 Alpha virt. eigenvalues --    0.43048   0.43072   0.43214   0.43470   0.43614
 Alpha virt. eigenvalues --    0.44045   0.44187   0.44532   0.44816   0.44993
 Alpha virt. eigenvalues --    0.45250   0.45432   0.45663   0.45970   0.46136
 Alpha virt. eigenvalues --    0.46149   0.46240   0.46729   0.47121   0.47254
 Alpha virt. eigenvalues --    0.47469   0.47648   0.47688   0.48315   0.48675
 Alpha virt. eigenvalues --    0.48801   0.48856   0.49230   0.49267   0.49357
 Alpha virt. eigenvalues --    0.49458   0.49775   0.50315   0.50498   0.50916
 Alpha virt. eigenvalues --    0.50966   0.51506   0.51725   0.51856   0.52018
 Alpha virt. eigenvalues --    0.52303   0.53128   0.53224   0.53496   0.53858
 Alpha virt. eigenvalues --    0.53935   0.54508   0.54555   0.54680   0.54792
 Alpha virt. eigenvalues --    0.55222   0.55891   0.55898   0.56095   0.56541
 Alpha virt. eigenvalues --    0.56559   0.56967   0.57355   0.57401   0.57554
 Alpha virt. eigenvalues --    0.58021   0.58029   0.58138   0.58451   0.58742
 Alpha virt. eigenvalues --    0.58842   0.58860   0.59196   0.59200   0.59626
 Alpha virt. eigenvalues --    0.59760   0.59845   0.59952   0.60124   0.60322
 Alpha virt. eigenvalues --    0.61088   0.61092   0.61262   0.61428   0.61465
 Alpha virt. eigenvalues --    0.61657   0.61841   0.61975   0.62020   0.62210
 Alpha virt. eigenvalues --    0.62258   0.62501   0.62580   0.62655   0.63037
 Alpha virt. eigenvalues --    0.63104   0.63143   0.63302   0.63566   0.63773
 Alpha virt. eigenvalues --    0.63903   0.64226   0.64259   0.64340   0.64470
 Alpha virt. eigenvalues --    0.64937   0.65122   0.65260   0.65401   0.65666
 Alpha virt. eigenvalues --    0.66046   0.66192   0.66593   0.66699   0.67326
 Alpha virt. eigenvalues --    0.67403   0.67560   0.67828   0.68152   0.68768
 Alpha virt. eigenvalues --    0.68952   0.69041   0.69392   0.69704   0.69926
 Alpha virt. eigenvalues --    0.70374   0.70485   0.71080   0.71305   0.71555
 Alpha virt. eigenvalues --    0.71639   0.71708   0.72174   0.72432   0.72568
 Alpha virt. eigenvalues --    0.73035   0.73323   0.73949   0.74121   0.74203
 Alpha virt. eigenvalues --    0.74381   0.74685   0.75051   0.75599   0.75600
 Alpha virt. eigenvalues --    0.76182   0.76311   0.76501   0.76722   0.77245
 Alpha virt. eigenvalues --    0.77369   0.77574   0.77873   0.78139   0.78275
 Alpha virt. eigenvalues --    0.78284   0.78708   0.78796   0.79125   0.79645
 Alpha virt. eigenvalues --    0.79836   0.80429   0.80636   0.80832   0.81047
 Alpha virt. eigenvalues --    0.81118   0.81642   0.82197   0.82599   0.83166
 Alpha virt. eigenvalues --    0.83351   0.83837   0.84175   0.84544   0.84853
 Alpha virt. eigenvalues --    0.85085   0.85590   0.86106   0.87029   0.87262
 Alpha virt. eigenvalues --    0.87413   0.87798   0.88189   0.88541   0.88740
 Alpha virt. eigenvalues --    0.89068   0.89112   0.89343   0.89531   0.90482
 Alpha virt. eigenvalues --    0.90729   0.90916   0.91541   0.92200   0.92437
 Alpha virt. eigenvalues --    0.92748   0.93048   0.93588   0.93619   0.94000
 Alpha virt. eigenvalues --    0.94253   0.94467   0.96113   0.96428   0.96658
 Alpha virt. eigenvalues --    0.97149   0.97580   0.97707   0.98048   0.98242
 Alpha virt. eigenvalues --    0.98842   0.98958   0.99517   0.99692   0.99801
 Alpha virt. eigenvalues --    1.00360   1.00665   1.01010   1.01758   1.01810
 Alpha virt. eigenvalues --    1.02348   1.02413   1.02713   1.03271   1.03400
 Alpha virt. eigenvalues --    1.04070   1.04302   1.04714   1.04806   1.05386
 Alpha virt. eigenvalues --    1.05477   1.05752   1.06172   1.06470   1.06751
 Alpha virt. eigenvalues --    1.07197   1.07213   1.07926   1.07933   1.08265
 Alpha virt. eigenvalues --    1.09011   1.09086   1.09217   1.09331   1.09487
 Alpha virt. eigenvalues --    1.09548   1.10175   1.10405   1.10836   1.10963
 Alpha virt. eigenvalues --    1.11313   1.11323   1.11893   1.11983   1.12274
 Alpha virt. eigenvalues --    1.12982   1.13120   1.13248   1.13845   1.14564
 Alpha virt. eigenvalues --    1.15130   1.15384   1.15481   1.15560   1.16339
 Alpha virt. eigenvalues --    1.16721   1.17575   1.17706   1.18136   1.18663
 Alpha virt. eigenvalues --    1.18874   1.19191   1.19209   1.20381   1.20468
 Alpha virt. eigenvalues --    1.21795   1.21981   1.22182   1.22783   1.22976
 Alpha virt. eigenvalues --    1.23398   1.24014   1.24466   1.24547   1.26346
 Alpha virt. eigenvalues --    1.26403   1.26904   1.26960   1.27602   1.27798
 Alpha virt. eigenvalues --    1.28722   1.29078   1.29673   1.30422   1.30939
 Alpha virt. eigenvalues --    1.30940   1.32179   1.33298   1.34912   1.35115
 Alpha virt. eigenvalues --    1.36241   1.37906   1.38569   1.38739   1.40349
 Alpha virt. eigenvalues --    1.41422   1.41580   1.42929   1.43177   1.43748
 Alpha virt. eigenvalues --    1.44163   1.44622   1.44694   1.44860   1.45081
 Alpha virt. eigenvalues --    1.45448   1.45647   1.46156   1.46527   1.46608
 Alpha virt. eigenvalues --    1.47031   1.47235   1.47431   1.47894   1.47999
 Alpha virt. eigenvalues --    1.48059   1.48241   1.48331   1.48698   1.48853
 Alpha virt. eigenvalues --    1.48968   1.49153   1.50220   1.50277   1.50387
 Alpha virt. eigenvalues --    1.50751   1.50890   1.50970   1.51297   1.51446
 Alpha virt. eigenvalues --    1.51695   1.51819   1.51868   1.52772   1.52936
 Alpha virt. eigenvalues --    1.53702   1.54337   1.54857   1.54956   1.55342
 Alpha virt. eigenvalues --    1.55343   1.55763   1.56511   1.56584   1.56670
 Alpha virt. eigenvalues --    1.56698   1.57112   1.57827   1.58074   1.58119
 Alpha virt. eigenvalues --    1.58189   1.58485   1.58537   1.59277   1.59456
 Alpha virt. eigenvalues --    1.60080   1.60103   1.60427   1.60583   1.60731
 Alpha virt. eigenvalues --    1.60802   1.61216   1.61800   1.62005   1.62362
 Alpha virt. eigenvalues --    1.62769   1.63069   1.63984   1.64143   1.64189
 Alpha virt. eigenvalues --    1.64369   1.64545   1.65021   1.65308   1.65438
 Alpha virt. eigenvalues --    1.65893   1.66511   1.66583   1.66860   1.67365
 Alpha virt. eigenvalues --    1.67633   1.67686   1.68310   1.68644   1.68649
 Alpha virt. eigenvalues --    1.68928   1.69218   1.69680   1.69741   1.70424
 Alpha virt. eigenvalues --    1.70609   1.70749   1.70945   1.71320   1.71403
 Alpha virt. eigenvalues --    1.71843   1.72084   1.72439   1.72945   1.73255
 Alpha virt. eigenvalues --    1.73505   1.73691   1.73766   1.74194   1.74286
 Alpha virt. eigenvalues --    1.74465   1.74539   1.74918   1.75241   1.75488
 Alpha virt. eigenvalues --    1.75732   1.75897   1.76124   1.76569   1.76707
 Alpha virt. eigenvalues --    1.76769   1.77031   1.77248   1.77752   1.77999
 Alpha virt. eigenvalues --    1.78286   1.78332   1.79093   1.79196   1.80424
 Alpha virt. eigenvalues --    1.80809   1.81115   1.81932   1.82235   1.82417
 Alpha virt. eigenvalues --    1.82513   1.82752   1.83027   1.83561   1.83736
 Alpha virt. eigenvalues --    1.84230   1.84369   1.84383   1.84696   1.85092
 Alpha virt. eigenvalues --    1.85482   1.85516   1.85961   1.86915   1.87081
 Alpha virt. eigenvalues --    1.87111   1.87346   1.87860   1.87898   1.88405
 Alpha virt. eigenvalues --    1.88684   1.88833   1.89386   1.89510   1.89698
 Alpha virt. eigenvalues --    1.90275   1.90707   1.90949   1.91777   1.92073
 Alpha virt. eigenvalues --    1.92121   1.92496   1.92705   1.92870   1.92902
 Alpha virt. eigenvalues --    1.93157   1.93276   1.93430   1.93445   1.93798
 Alpha virt. eigenvalues --    1.94088   1.94394   1.94533   1.94999   1.95229
 Alpha virt. eigenvalues --    1.95302   1.95358   1.95576   1.95650   1.96099
 Alpha virt. eigenvalues --    1.96352   1.96406   1.96917   1.97130   1.97262
 Alpha virt. eigenvalues --    1.97600   1.98108   1.98128   1.98552   1.99358
 Alpha virt. eigenvalues --    1.99817   1.99942   2.00191   2.00504   2.00660
 Alpha virt. eigenvalues --    2.00727   2.01053   2.01382   2.02178   2.02526
 Alpha virt. eigenvalues --    2.02960   2.03392   2.03749   2.04036   2.04573
 Alpha virt. eigenvalues --    2.05802   2.05908   2.07031   2.07093   2.07837
 Alpha virt. eigenvalues --    2.08181   2.09467   2.09577   2.10175   2.10254
 Alpha virt. eigenvalues --    2.11183   2.11711   2.11761   2.11926   2.12686
 Alpha virt. eigenvalues --    2.12737   2.13147   2.13335   2.13732   2.14046
 Alpha virt. eigenvalues --    2.14049   2.14628   2.14906   2.15412   2.16288
 Alpha virt. eigenvalues --    2.16632   2.18758   2.19598   2.20267   2.20878
 Alpha virt. eigenvalues --    2.21314   2.21708   2.21839   2.22596   2.23598
 Alpha virt. eigenvalues --    2.24229   2.24927   2.25211   2.26069   2.26199
 Alpha virt. eigenvalues --    2.26293   2.26579   2.26698   2.27397   2.27607
 Alpha virt. eigenvalues --    2.28358   2.29338   2.29360   2.29895   2.30738
 Alpha virt. eigenvalues --    2.30945   2.31214   2.32138   2.32967   2.33641
 Alpha virt. eigenvalues --    2.33715   2.34265   2.35524   2.35581   2.35899
 Alpha virt. eigenvalues --    2.36338   2.36840   2.37268   2.37425   2.38001
 Alpha virt. eigenvalues --    2.38193   2.38661   2.38676   2.39364   2.39410
 Alpha virt. eigenvalues --    2.39882   2.39905   2.40913   2.41709   2.42372
 Alpha virt. eigenvalues --    2.42618   2.42934   2.43059   2.43133   2.43691
 Alpha virt. eigenvalues --    2.43826   2.44732   2.45063   2.45157   2.45603
 Alpha virt. eigenvalues --    2.45665   2.46803   2.46882   2.47762   2.48308
 Alpha virt. eigenvalues --    2.49220   2.49614   2.50480   2.50587   2.51693
 Alpha virt. eigenvalues --    2.51965   2.52355   2.53484   2.53708   2.54364
 Alpha virt. eigenvalues --    2.54756   2.55578   2.55723   2.56681   2.57785
 Alpha virt. eigenvalues --    2.57873   2.58713   2.59392   2.59480   2.59723
 Alpha virt. eigenvalues --    2.59831   2.60128   2.60291   2.60683   2.60706
 Alpha virt. eigenvalues --    2.60966   2.61079   2.61308   2.61644   2.62017
 Alpha virt. eigenvalues --    2.62086   2.62388   2.62780   2.62814   2.63009
 Alpha virt. eigenvalues --    2.63217   2.63313   2.63719   2.63803   2.64450
 Alpha virt. eigenvalues --    2.64570   2.64787   2.64915   2.65090   2.65201
 Alpha virt. eigenvalues --    2.65747   2.66026   2.66248   2.66563   2.66718
 Alpha virt. eigenvalues --    2.67170   2.67392   2.67925   2.68182   2.68336
 Alpha virt. eigenvalues --    2.69191   2.69316   2.69727   2.70431   2.70572
 Alpha virt. eigenvalues --    2.70877   2.71079   2.71408   2.71590   2.71723
 Alpha virt. eigenvalues --    2.71995   2.72964   2.73279   2.73323   2.73607
 Alpha virt. eigenvalues --    2.74045   2.74053   2.74571   2.75310   2.75558
 Alpha virt. eigenvalues --    2.75737   2.76240   2.76479   2.76671   2.77441
 Alpha virt. eigenvalues --    2.77761   2.77939   2.78428   2.79096   2.79318
 Alpha virt. eigenvalues --    2.79638   2.80092   2.80344   2.80775   2.81527
 Alpha virt. eigenvalues --    2.81827   2.82310   2.82386   2.83123   2.83549
 Alpha virt. eigenvalues --    2.83819   2.83990   2.84369   2.84730   2.84953
 Alpha virt. eigenvalues --    2.85942   2.85958   2.86283   2.86626   2.86839
 Alpha virt. eigenvalues --    2.87133   2.87427   2.87628   2.88321   2.88487
 Alpha virt. eigenvalues --    2.88588   2.89130   2.89451   2.89691   2.89787
 Alpha virt. eigenvalues --    2.89974   2.90147   2.90975   2.91900   2.92226
 Alpha virt. eigenvalues --    2.92717   2.92999   2.94474   2.94822   2.95112
 Alpha virt. eigenvalues --    2.95406   2.96141   2.96615   2.97425   2.98211
 Alpha virt. eigenvalues --    2.98329   2.98921   3.00823   3.01151   3.01740
 Alpha virt. eigenvalues --    3.02064   3.02403   3.03395   3.03823   3.04207
 Alpha virt. eigenvalues --    3.05139   3.06239   3.06344   3.06987   3.08175
 Alpha virt. eigenvalues --    3.08665   3.10313   3.10371   3.12189   3.12871
 Alpha virt. eigenvalues --    3.13657   3.14144   3.14996   3.15535   3.16459
 Alpha virt. eigenvalues --    3.17644   3.17722   3.18127   3.20206   3.20577
 Alpha virt. eigenvalues --    3.22261   3.23120   3.23688   3.24218   3.24624
 Alpha virt. eigenvalues --    3.24766   3.26960   3.27217   3.27809   3.28049
 Alpha virt. eigenvalues --    3.28769   3.28813   3.30355   3.32248   3.33653
 Alpha virt. eigenvalues --    3.34123   3.36920   3.37025   3.37785   3.38216
 Alpha virt. eigenvalues --    3.39167   3.39599   3.40051   3.40809   3.41046
 Alpha virt. eigenvalues --    3.41884   3.42843   3.43052   3.43509   3.44316
 Alpha virt. eigenvalues --    3.45349   3.45531   3.46932   3.48363   3.48662
 Alpha virt. eigenvalues --    3.49056   3.49097   3.49527   3.49641   3.50095
 Alpha virt. eigenvalues --    3.50928   3.52181   3.52389   3.53079   3.54940
 Alpha virt. eigenvalues --    3.55240   3.59187   3.59744   3.60728   3.60946
 Alpha virt. eigenvalues --    3.63327   3.63545   3.65151   3.65240   3.67488
 Alpha virt. eigenvalues --    3.68008   3.69409   3.71449   3.71782   3.72458
 Alpha virt. eigenvalues --    3.74006   3.74501   3.75501   3.77578   3.78046
 Alpha virt. eigenvalues --    3.78638   3.79724   3.80157   3.80912   3.80991
 Alpha virt. eigenvalues --    3.82528   3.85576   3.85780   3.87216   3.89568
 Alpha virt. eigenvalues --    3.90550   3.93741   4.02976   4.03043   4.03166
 Alpha virt. eigenvalues --    4.03416   4.03602   4.03649   4.03790   4.04222
 Alpha virt. eigenvalues --    4.04388   4.04737   4.04758   4.05412   4.06176
 Alpha virt. eigenvalues --    4.06318   4.06388   4.09025   4.09497   4.11656
 Alpha virt. eigenvalues --    4.13232   4.14466   4.15950   4.18294   4.19172
 Alpha virt. eigenvalues --    4.22150   4.22296   4.23356   4.24155   4.26790
 Alpha virt. eigenvalues --    4.30797   4.39317   4.39867   4.39955   4.41256
 Alpha virt. eigenvalues --    4.42943   4.45715   4.46694   4.62406   4.62789
 Alpha virt. eigenvalues --    4.63402   4.64739   4.83565   4.83657   4.84155
 Alpha virt. eigenvalues --    4.84628   4.87682   4.87709   4.88334   4.88386
 Alpha virt. eigenvalues --   23.43679  23.45113  23.46509  23.47585  23.65347
 Alpha virt. eigenvalues --   23.65492  23.67455  23.68155  23.81199  23.81244
 Alpha virt. eigenvalues --   23.83496  23.88173  23.90316  23.93152  23.93336
 Alpha virt. eigenvalues --   23.93399  23.93444  23.94035  23.94187  23.94285
 Alpha virt. eigenvalues --   23.94686  23.94689  23.94932  23.95407  23.95935
 Alpha virt. eigenvalues --   23.96391  23.96547  23.96943  23.97140  23.97959
 Alpha virt. eigenvalues --   23.98915  23.99850  24.00304  24.08381  24.08438
 Alpha virt. eigenvalues --   24.09069  24.09163  24.09207  24.09579  24.10082
 Alpha virt. eigenvalues --   24.10134  24.11024  24.11055  24.11535  24.11601
 Alpha virt. eigenvalues --   24.11787  24.11790  24.12492  24.13944  24.19638
 Alpha virt. eigenvalues --   24.19715  24.20071  24.20202  24.20298  24.20462
 Alpha virt. eigenvalues --   24.21232  24.21488
          Condensed to atoms (all electrons):
 Mulliken charges:
               1
     1  C   -0.276858
     2  C   -0.285406
     3  C   -0.276902
     4  H    0.102271
     5  H    0.102268
     6  C   -0.285401
     7  H    0.103136
     8  H    0.104964
     9  H    0.104969
    10  H    0.103129
    11  C   -0.016283
    12  C   -0.016640
    13  C   -0.023533
    14  C   -0.017398
    15  C    0.006981
    16  C    0.031852
    17  C   -0.012713
    18  C   -0.011738
    19  C    0.031825
    20  C    0.006996
    21  C   -0.011716
    22  C   -0.012699
    23  C   -0.016259
    24  C   -0.016660
    25  C   -0.023479
    26  C   -0.017393
    27  C   -0.099646
    28  C   -0.076215
    29  C   -0.043761
    30  C   -0.028203
    31  C   -0.085756
    32  C   -0.084724
    33  C   -0.066582
    34  C   -0.079951
    35  C   -0.095747
    36  C   -0.094851
    37  C   -0.084338
    38  C   -0.090294
    39  C   -0.026625
    40  C   -0.035247
    41  C   -0.040069
    42  C   -0.037883
    43  H    0.074436
    44  H    0.077750
    45  H    0.075449
    46  H    0.078298
    47  H    0.085846
    48  H    0.088130
    49  H    0.087014
    50  H    0.083737
    51  H    0.085206
    52  H    0.086969
    53  H    0.081623
    54  H    0.085381
    55  H    0.076687
    56  H    0.076744
    57  H    0.077861
    58  H    0.082187
    59  C   -0.040066
    60  C   -0.037858
    61  C   -0.035210
    62  C   -0.026611
    63  C   -0.094858
    64  C   -0.095717
    65  C   -0.090286
    66  C   -0.084352
    67  C   -0.079945
    68  C   -0.066616
    69  C   -0.084756
    70  C   -0.085749
    71  C   -0.076180
    72  C   -0.099656
    73  C   -0.043719
    74  C   -0.028210
    75  H    0.076750
    76  H    0.076684
    77  H    0.077885
    78  H    0.082178
    79  H    0.085380
    80  H    0.081625
    81  H    0.086970
    82  H    0.085205
    83  H    0.087013
    84  H    0.083737
    85  H    0.088131
    86  H    0.085846
    87  H    0.077749
    88  H    0.074434
    89  H    0.078298
    90  H    0.075448
    91  C   -0.208108
    92  H    0.120298
    93  H    0.100878
    94  H    0.105069
    95  C   -0.025834
    96  C   -0.025892
    97  C   -0.028826
    98  C   -0.208112
    99  H    0.100877
   100  H    0.105070
   101  H    0.120296
 Sum of Mulliken charges =  -0.00000
 Mulliken charges with hydrogens summed into heavy atoms:
               1
     1  C   -0.276858
     2  C   -0.285406
     3  C   -0.276902
     6  C   -0.285401
    11  C   -0.016283
    12  C   -0.016640
    13  C   -0.023533
    14  C   -0.017398
    15  C    0.006981
    16  C    0.031852
    17  C   -0.012713
    18  C   -0.011738
    19  C    0.031825
    20  C    0.006996
    21  C   -0.011716
    22  C   -0.012699
    23  C   -0.016259
    24  C   -0.016660
    25  C   -0.023479
    26  C   -0.017393
    27  C   -0.022960
    28  C    0.000528
    29  C    0.038426
    30  C    0.049657
    31  C   -0.000550
    32  C    0.002244
    33  C    0.015041
    34  C    0.005430
    35  C   -0.012010
    36  C   -0.007838
    37  C    0.001509
    38  C   -0.002164
    39  C    0.048825
    40  C    0.043051
    41  C    0.037681
    42  C    0.036553
    59  C    0.037683
    60  C    0.036577
    61  C    0.043087
    62  C    0.048837
    63  C   -0.007845
    64  C   -0.011980
    65  C   -0.002154
    66  C    0.001494
    67  C    0.005434
    68  C    0.015009
    69  C    0.002214
    70  C   -0.000543
    71  C    0.000570
    72  C   -0.022972
    73  C    0.038459
    74  C    0.049675
    91  C    0.118137
    95  C    0.182259
    96  C    0.182213
    97  C    0.175713
    98  C    0.118132
 Electronic spatial extent (au):  <R**2>=          31136.1396
 Charge=             -0.0000 electrons
 Dipole moment (field-independent basis, Debye):
    X=              0.3491    Y=             -0.0538    Z=             -0.2501  Tot=              0.4328
 Quadrupole moment (field-independent basis, Debye-Ang):
   XX=           -322.0452   YY=           -307.0519   ZZ=           -334.7040
   XY=              3.6900   XZ=            -16.4211   YZ=              4.3335
 Traceless Quadrupole moment (field-independent basis, Debye-Ang):
   XX=             -0.7782   YY=             14.2151   ZZ=            -13.4369
   XY=              3.6900   XZ=            -16.4211   YZ=              4.3335
 Octapole moment (field-independent basis, Debye-Ang**2):
  XXX=           -107.4997  YYY=              5.1970  ZZZ=            144.9446  XYY=            -14.3239
  XXY=             25.5723  XXZ=            -53.6414  XZZ=            -10.6306  YZZ=            -10.3431
  YYZ=              3.5803  XYZ=             13.4137
 Hexadecapole moment (field-independent basis, Debye-Ang**3):
 XXXX=         -12232.1547 YYYY=         -10216.6899 ZZZZ=         -20992.1316 XXXY=           1052.1571
 XXXZ=          -5395.0438 YYYX=            978.0349 YYYZ=           1899.7585 ZZZX=          -5694.9452
 ZZZY=           2100.0990 XXYY=          -3774.0376 XXZZ=          -5779.4262 YYZZ=          -5113.7711
 XXYZ=            706.8897 YYXZ=          -1731.8607 ZZXY=            396.3137
 N-N= 8.087116898963D+03 E-N=-2.127848570646D+04  KE= 2.189302830223D+03
 Leave Link  601 at Tue Mar 17 11:54:08 2026, MaxMem=   104857600 cpu:               0.2 elap:               0.2
 (Enter /sw/cluster/pub/apps//g16/l9999.exe)
 1\1\GINC-N07\SP\RB3LYP\6-311G(d,p)\C57H44\UNKNOWN\17-Mar-2026\0\\#p B3
 LYP/6-311G(d,p) nosymm density=current sp\\Generated by extraQ₂\\0,1
 \C,0,1.50185488,-0.11464725,0.64583985\C,0,-0.75483303,0.50367437,-4.2
 6759909\C,0,-0.12666073,-0.09744869,-1.63097916\H,0,1.70221861,-1.1411
 5212,-1.25450496\H,0,1.91137561,0.58343887,-1.33427752\C,0,3.64980701,
 -0.95024584,2.19368246\H,0,1.06182624,0.8155839,-3.20215051\H,0,3.6103
 4762,0.20154704,0.36618939\H,0,0.70575452,-0.86722471,-3.45811937\H,0,
 3.14127884,-1.46382687,0.19108921\C,0,0.49154366,-0.86476541,1.5150402
 6\C,0,-2.15764622,-0.10677723,-4.25086247\C,0,3.2400726,-2.3317738,2.7
 086874\C,0,-0.94090331,-1.37795151,-1.42640335\C,0,2.7795987,-2.256482
 8,4.03325964\C,0,-2.1861426,-1.09349954,-0.84661877\C,0,-3.13729624,0.
 90326201,-4.25534778\C,0,-0.16408207,0.02383425,2.3875771\C,0,0.350374
 05,1.37683683,2.16187537\C,0,-2.46975292,2.20851047,-4.25534778\C,0,-2
 .27982752,0.35333572,-0.63658334\C,0,2.84037271,-0.85767818,4.4679305\
 C,0,-1.09059939,0.95728412,-1.08575509\C,0,3.33404341,-0.07481043,3.40
 806261\C,0,-1.08116632,1.99869905,-4.25534778\C,0,1.32294812,1.3190905
 3,1.15269067\C,0,1.98304604,2.47229442,0.75035559\C,0,-0.21115626,3.07
 927594,-4.31272262\C,0,3.56840156,1.28076989,3.5987048\C,0,-0.94359495
 ,2.33579253,-1.0053549\C,0,1.66615901,3.68904734,1.35943473\C,0,-0.732
 56931,4.37498401,-4.34485161\C,0,-1.97876585,3.10490689,-0.47343766\C,
 0,3.27474855,1.85821134,4.83536781\C,0,-3.15556672,2.5019987,-0.025502
 36\C,0,2.7607627,1.08424921,5.87752839\C,0,0.69595443,3.74485372,2.361
 99237\C,0,-2.11316442,4.5827584,-4.32625784\C,0,0.03206498,2.58936494,
 2.76980456\C,0,-2.99108058,3.50108507,-4.28591465\C,0,2.5452589,-0.280
 73138,5.70262974\C,0,-3.31453279,1.12097885,-0.10454048\H,0,-4.229957,
 0.65324104,0.24072987\H,0,2.16258378,-0.88350926,6.519043\H,0,-0.71917
 191,2.63837498,3.55007505\H,0,-4.06264335,3.66794112,-4.28049234\H,0,0
 .45793403,4.69539073,2.82668966\H,0,-2.50454884,5.59379005,-4.35060962
 \H,0,2.53595974,1.54800181,6.83173578\H,0,-3.95102458,3.11421218,0.385
 38489\H,0,2.17568504,4.59556325,1.0512902\H,0,-0.06089146,5.22528838,-
 4.38808067\H,0,-1.8653594,4.18064568,-0.40880765\H,0,3.44392927,2.9184
 9558,4.98480608\H,0,2.73918423,2.44324382,-0.02863497\H,0,0.86416889,2
 .93151481,-4.33268941\H,0,-0.03995627,2.82225061,-1.3470551\H,0,3.9624
 9472,1.89695015,2.79980079\C,0,-4.49293818,0.58084564,-4.30754615\C,0,
 -1.12578989,-0.43577394,3.28581842\C,0,2.39165689,-3.4088601,4.7151630
 3\C,0,-3.0921532,-2.11711825,-0.57741464\C,0,-4.86492537,-0.76000712,-
 4.37033615\C,0,-1.42885087,-1.79456088,3.31001355\C,0,2.47672654,-4.63
 901429,4.06565179\C,0,-2.74406359,-3.42874798,-0.89471138\C,0,-3.89387
 291,-1.76294733,-4.39195614\C,0,-0.77791742,-2.67947711,2.44849684\C,0
 ,2.95171308,-4.7173477,2.75499921\C,0,-1.50610944,-3.71364794,-1.47422
 172\C,0,3.33885295,-3.56172612,2.07204465\C,0,-0.59859827,-2.68581792,
 -1.7423053\C,0,-2.53674247,-1.44004082,-4.33782012\C,0,0.18411095,-2.2
 1851909,1.54956788\H,0,3.71110232,-3.63716177,1.05504106\H,0,0.3611148
 5,-2.92151803,-2.19265317\H,0,0.6771369,-2.92047476,0.89066869\H,0,-1.
 79691653,-2.23106192,-4.35118625\H,0,-4.19494433,-2.80289677,-4.446908
 9\H,0,-1.01998347,-3.73536462,2.47603576\H,0,3.02376054,-5.68232649,2.
 26544495\H,0,-1.24742624,-4.73869296,-1.71652183\H,0,-5.91520172,-1.02
 715539,-4.41114875\H,0,-2.17436255,-2.16901076,4.00311209\H,0,2.178631
 13,-5.54373715,4.58389348\H,0,-3.43977925,-4.23521189,-0.69047079\H,0,
 -5.24833352,1.3591052,-4.30872004\H,0,-1.62945234,0.25091805,3.9572125
 9\H,0,2.03026756,-3.35477341,5.73623596\H,0,-4.0555904,-1.90156329,-0.
 12919005\C,0,-0.07462945,0.15874506,-5.62127758\H,0,-0.68540824,0.5064
 5137,-6.45665838\H,0,0.90766982,0.63461012,-5.69458273\H,0,0.06070029,
 -0.92160397,-5.72052727\C,0,2.99540086,-0.58150722,0.821964\C,0,0.2527
 4424,0.08052108,-3.14888178\C,0,1.27098879,-0.19612118,-0.91052648\C,0
 ,5.18581887,-0.94705595,1.95972422\H,0,5.45460627,-1.61582976,1.136785
 48\H,0,5.53589811,0.05844375,1.71125961\H,0,5.71078374,-1.28153718,2.8
 56579\\Version=ES64L-G16RevA.03\HF=-2199.1044162\RMSD=9.478e-09\Dipole
 =0.1373555,-0.0211722,-0.0983866\Quadrupole=-0.5785667,10.5686053,-9.9
 900387,2.7434537,-12.2086918,3.2218378\PG=C01 [X(C57H44)]\\@


 OF ALL THE WONDERS OF THE UNIVERSE, THE GREATEST IS MAN.

                                    -- ARISTOTLE
 Job cpu time:       0 days  0 hours 40 minutes 54.1 seconds.
 Elapsed time:       0 days  0 hours 40 minutes 57.0 seconds.
 File lengths (MBytes):  RWF=    897 Int=      0 D2E=      0 Chk=     97 Scr=      1
 Normal termination of Gaussian 16 at Tue Mar 17 11:54:08 2026.
