77

C     0.000077   -0.000064    0.866806
C    -2.516132    1.015261    1.449461
H    -0.577749    1.541057    2.233513
H    -1.150363   -0.030355    2.700074
C     2.516235   -1.015335    1.449253
H    -2.929277    1.502729    3.544837
H     0.577935   -1.540997    2.233642
H    -2.457428    2.897348    2.564154
H    -4.079609    2.210741    2.404044
H     1.150675    0.030427    2.699950
C     0.563006    1.036315   -0.103385
C     3.456384    0.185485    1.369390
C    -2.756887    1.670581    0.091592
C     4.155314    0.193789    0.154454
C    -3.723199    0.958611   -0.637252
C     0.348732    0.642388   -1.432176
C    -0.349318   -0.642538   -1.432053
C    -4.155122   -0.193708    0.154423
C     3.723360   -0.958378   -0.637417
C    -3.456224   -0.185566    1.369378
C     2.756974   -1.670412    0.091270
C    -0.563087   -1.036493   -0.103196
C    -1.183722   -2.245132    0.169031
C     2.244186   -2.854621   -0.413924
C    -3.717790   -1.149188    2.329834
C    -1.603312   -3.050994   -0.887136
C    -4.664461   -2.137651    2.064383
C     2.672888   -3.307464   -1.659773
C    -5.346843   -2.153990    0.849538
C     3.615681   -2.587663   -2.390690
C    -1.397862   -2.652289   -2.206282
C    -0.766982   -1.446038   -2.487550
C     4.151657   -1.410446   -1.881702
C    -5.099768   -1.179838   -0.111786
H    -5.638922   -1.192802   -1.051092
H     4.896474   -0.861373   -2.444781
H    -0.599346   -1.144096   -3.513990
H    -1.730435   -3.288387   -3.017255
H     3.938070   -2.952528   -3.358022
H    -6.079762   -2.927420    0.656316
H    -2.100299   -3.990248   -0.679915
H    -4.874480   -2.895402    2.809009
H     2.265463   -4.225292   -2.064193
H    -1.357783   -2.568445    1.187415
H    -3.198563   -1.146196    3.281623
H     1.508586   -3.425087    0.137576
C     0.766052    1.445879   -2.487809
C     5.099974    1.179945   -0.111603
C    -4.151433    1.410847   -1.881498
C     1.397142    2.652076   -2.206752
C     5.347030    2.153971    0.849856
C    -3.615479    2.588167   -2.390267
C     1.603121    3.050735   -0.887683
C     4.664625    2.137465    2.064684
C    -2.672778    3.307916   -1.659177
C     3.717941    1.148968    2.329982
C    -2.244134    2.854901   -0.413372
C     1.183848    2.244891    0.168631
H     3.198718    1.145855    3.281774
H    -1.508608    3.425319    0.138278
H     1.358315    2.568174    1.186953
H     2.100277    3.989936   -0.680625
H     4.874620    2.895116    2.809418
H    -2.265385    4.225828   -2.063435
H     1.729473    3.288149   -3.017844
H     6.079952    2.927428    0.656752
H    -3.937823    2.953165   -3.357565
H     0.598015    1.143978   -3.514196
H     5.639153    1.193027   -1.050892
H    -4.896178    0.861821   -2.444721
C     1.053959   -0.638998    1.840818
C    -3.028634    1.967313    2.561414
C    -1.053817    0.639006    1.840865
C     3.028740   -1.967623    2.561008
H     2.929330   -1.503271    3.544537
H     2.457563   -2.897677    2.563515
H     4.079729   -2.210983    2.403626