101
Generated from .fchk
C -1.454735 0.332972 0.627661
C 0.993592 0.244895 -4.233666
C 0.178812 -0.138815 -1.603060
H -1.881651 -0.590438 -1.283024
H -1.567989 1.115127 -1.354076
C -3.830488 0.186624 2.064969
H -0.649695 1.087019 -3.185867
H -3.354865 1.256074 0.254677
H -0.814515 -0.621806 -3.442022
H -3.394374 -0.471797 0.094249
C -0.750552 -0.678199 1.528822
C 2.145591 -0.757575 -4.218849
C -3.881545 -1.245918 2.592550
C 0.570622 -1.600698 -1.389675
C -3.502478 -1.296681 3.940781
C 1.829596 -1.699414 -0.785379
C 3.381536 -0.091079 -4.220845
C 0.100643 -0.023127 2.434075
C 0.021315 1.418061 2.200243
C 3.138579 1.351811 -4.218849
C 2.344031 -0.348523 -0.565281
C -3.171911 0.058918 4.381278
C 1.399161 0.579684 -1.033029
C -3.345461 0.939940 3.301712
C 1.754156 1.569449 -4.218849
C -0.879483 1.647791 1.153476
C -1.147549 2.941134 0.736407
C 1.252287 2.859457 -4.276118
C -3.181051 2.303049 3.489900
C 1.667723 1.936335 -0.947430
C -0.509979 4.007998 1.367389
C 2.138068 3.935326 -4.308475
C 2.871350 2.362020 -0.392525
C -2.807499 2.779473 4.744557
C 3.804249 1.438463 0.073663
C -2.610656 1.900561 5.807552
C 0.387897 3.777056 2.407466
C 3.514277 3.717965 -4.290175
C 0.659183 2.480653 2.830690
C 4.023768 2.424692 -4.249569
C -2.797692 0.534200 5.634411
C 3.546796 0.075694 -0.010244
H 4.273920 -0.641865 0.349493
H -2.662466 -0.145320 6.467018
H 1.356810 2.307100 3.640529
H 5.094446 2.261186 -4.244598
H 0.877534 4.614289 2.889237
H 4.191214 4.562854 -4.314614
H -2.319030 2.286223 6.776585
H 4.736119 1.785835 0.502598
H -0.713027 5.022493 1.047087
H 1.754343 4.947077 -4.351566
H 3.081915 3.421363 -0.323940
H -2.665254 3.842447 4.892394
H -1.843590 3.137314 -0.071842
H 0.184157 3.044331 -4.295204
H 0.958209 2.669428 -1.303279
H -3.326909 3.000575 2.675841
C 4.574724 -0.804922 -4.275643
C 0.841959 -0.742983 3.365164
C -3.518798 -2.501805 4.635754
C 2.383920 -2.943305 -0.504488
C 4.526332 -2.192389 -4.342730
C 0.726806 -2.127391 3.389999
C -3.926616 -3.655464 3.975043
C 1.669899 -4.089865 -0.834563
C 3.300862 -2.854826 -4.367074
C -0.119085 -2.780441 2.496365
C -4.321042 -3.603335 2.639661
C 0.417780 -3.993847 -1.438099
C -4.302744 -2.395433 1.944110
C -0.136174 -2.745784 -1.717934
C 2.106602 -2.139780 -4.311066
C -0.860207 -2.059014 1.564631
H -4.616587 -2.369971 0.906662
H -1.111952 -2.687725 -2.187739
H -1.510582 -2.585305 0.880897
H 1.164682 -2.671747 -4.328585
H 3.274917 -3.935504 -4.425938
H -0.202849 -3.859066 2.524670
H -4.647237 -4.507036 2.140000
H -0.128357 -4.894408 -1.690579
H 5.446125 -2.762430 -4.385586
H 1.296586 -2.703123 4.108971
H -3.944621 -4.600642 4.503239
H 2.089264 -5.065332 -0.621481
H 5.528280 -0.291114 -4.275875
H 1.497410 -0.235677 4.062325
H -3.221820 -2.546456 5.676388
H 3.357320 -3.023873 -0.036893
C 0.245525 0.123433 -5.586800
H 0.932955 0.273002 -6.419643
H -0.546957 0.871406 -5.659797
H -0.207391 -0.864417 -5.688685
C -3.024141 0.331622 0.735322
C -0.101669 0.143897 -3.124911
C -1.201707 0.182800 -0.918662
C -5.277024 0.642062 1.740291
H -5.681471 0.076246 0.898214
H -5.297448 1.701946 1.480313
H -5.929691 0.487195 2.599710