%chk=f4.chk
#P B3LYP/6-31G* nosymm Density=Current

Single-Point F4

0 1
C      -0.63333795     0.37125086     0.25000705
C       3.10508166    -0.43532100     4.13229146
C       0.82601172    -0.27563059     2.55126640
H       0.92983089    -1.10265994     0.57775671
H       1.46458993     0.55472301     0.64590327
C      -1.42028996     0.09191324    -2.39952816
H       2.89292942     0.25306310     2.12580515
H       0.47720093     0.71406873    -1.56321806
H       2.60746419    -1.45841848     2.29123203
H       0.07995187    -0.96393434    -1.31309404
C      -1.95535079    -0.18826065     0.77992685
C       2.43987829    -1.11510478     5.33145025
C      -2.34976295    -1.12478670    -2.39952816
C       0.04574901    -1.49068933     3.06291629
C      -3.69913788    -0.72597671    -2.42069087
C      -0.86940349    -1.11643928     4.06215998
C       2.30404885    -0.20903404     6.40321603
C      -2.79465235     0.85692231     1.21800734
C      -2.10698871     2.13504120     1.01283449
C       2.83478527     1.09437474     5.98941507
C      -0.75679836     0.32960146     4.27499588
C      -3.75045188     0.73996415    -2.42241744
C       0.22443498     0.84411054     3.40254490
C      -2.43235906     1.24018859    -2.39952816
C       3.30050483     0.98644107     4.66580447
C      -0.84570742     1.87527651     0.44885059
C       0.01323155     2.92457376     0.13962546
C       3.91092775     2.07274687     4.04824265
C      -2.21003557     2.61080609    -2.48623876
C       0.52383445     2.20235085     3.42408150
C      -0.39139683     4.23938381     0.39859005
C       4.03175898     3.27901382     4.74801720
C      -0.15527713     3.04106609     4.31259977
C      -3.30409412     3.48010375    -2.54985961
C      -1.12913680     2.52690024     5.17489031
C      -4.61112398     2.98206919    -2.54331377
C      -1.64578376     4.49512467     0.96239604
C       3.55048135     3.39025421     6.05674054
C      -2.51169863     3.44459310     1.27344226
C       2.95304484     2.29719828     6.68798645
C      -4.84298068     1.60707531    -2.48611008
C      -1.43724944     1.16627735     5.16139010
H      -2.19203863     0.76559801     5.83323402
H      -5.85874635     1.21993454    -2.50031101
H      -3.48581376     3.64854714     1.71004939
H       2.59021642     2.38539560     7.70893089
H      -1.94893890     5.52019909     1.15972116
H       3.64959404     4.33253710     6.58940645
H      -5.45143318     3.66985803    -2.59219097
H      -1.64856227     3.19164678     5.86054995
H       0.27327835     5.06607595     0.16076811
H       4.50561434     4.13372538     4.27223047
H       0.07871750     4.10159014     4.33116142
H      -3.13433144     4.55207496    -2.60148502
H       0.99220468     2.73820185    -0.29834297
H       4.29362036     1.99659770     3.03247288
H       1.27563036     2.61871144     2.76333020
H      -1.20228605     3.01445872    -2.48809050
C       1.77777892    -0.62482509     7.62791912
C      -4.06217462     0.58772366     1.73702647
C      -4.72022186    -1.67686445    -2.46603113
C      -1.68454840    -2.07096573     4.67123888
C       1.39975219    -1.95939692     7.78221193
C      -4.49218663    -0.73731161     1.81243102
C      -4.38221114    -3.03145411    -2.50032960
C      -1.57672974    -3.40574719     4.27482356
C       1.55853892    -2.86655510     6.72947904
C      -3.66544135    -1.77647517     1.37324509
C      -3.04104098    -3.42908136    -2.49796360
C      -0.66389773    -3.78129191     3.28365978
C      -2.01831908    -2.47452596    -2.45104499
C       0.15235802    -2.82152097     2.67347567
C       2.08700736    -2.44953268     5.50335694
C      -2.39560079    -1.50559070     0.85513802
H      -0.97861975    -2.79583302    -2.45492964
H       0.85826799    -3.12571282     1.90257782
H      -1.76884454    -2.32345053     0.51825876
H       2.19990605    -3.16537998     4.69510917
H       1.26686200    -3.90482997     6.86199429
H      -4.00994014    -2.80482898     1.43318570
H      -2.79101512    -4.48618818    -2.53631024
H      -0.58853921    -4.82366760     2.98447305
H       0.98715487    -2.29774919     8.72923061
H      -5.47702828    -0.96342878     2.21341716
H      -5.16718783    -3.78239562    -2.53662325
H      -2.20641741    -4.15912390     4.74120916
H       1.67107527     0.07532469     8.45273011
H      -4.70624354     1.39551768     2.07516438
H      -5.76369419    -1.37226414    -2.47803861
H      -2.39356659    -1.78469435     5.44366744
C       4.50500133    -1.07391212     3.90883123
H       5.11230575    -0.99771440     4.81591421
H       5.03981713    -0.56841302     3.09584593
H       4.41051658    -2.13390725     3.64685668
C      -0.34226580     0.04768029    -1.26475642
C       2.37543165    -0.48765956     2.74807159
C       0.67037621    -0.11950281     0.98951351
C      -0.63641438     0.11440237    -3.74176351
H       0.05676419    -0.73314530    -3.80305374
H      -0.05405564     1.03814426    -3.83492182
H      -1.32382391     0.05518640    -4.59108462


