 Entering Gaussian System, Link 0=g16
 Initial command:
 /sw/cluster/pub/apps//g16/l1.exe "/data/mmaximo/41227/Gau-1555753.inp" -scrdir="/data/mmaximo/41227/"
 Entering Link 1 = /sw/cluster/pub/apps//g16/l1.exe PID=   1555754.
  
 Copyright (c) 1988,1990,1992,1993,1995,1998,2003,2009,2016,
            Gaussian, Inc.  All Rights Reserved.
  
 This is part of the Gaussian(R) 16 program.  It is based on
 the Gaussian(R) 09 system (copyright 2009, Gaussian, Inc.),
 the Gaussian(R) 03 system (copyright 2003, Gaussian, Inc.),
 the Gaussian(R) 98 system (copyright 1998, Gaussian, Inc.),
 the Gaussian(R) 94 system (copyright 1995, Gaussian, Inc.),
 the Gaussian 92(TM) system (copyright 1992, Gaussian, Inc.),
 the Gaussian 90(TM) system (copyright 1990, Gaussian, Inc.),
 the Gaussian 88(TM) system (copyright 1988, Gaussian, Inc.),
 the Gaussian 86(TM) system (copyright 1986, Carnegie Mellon
 University), and the Gaussian 82(TM) system (copyright 1983,
 Carnegie Mellon University). Gaussian is a federally registered
 trademark of Gaussian, Inc.
  
 This software contains proprietary and confidential information,
 including trade secrets, belonging to Gaussian, Inc.
  
 This software is provided under written license and may be
 used, copied, transmitted, or stored only in accord with that
 written license.
  
 The following legend is applicable only to US Government
 contracts under FAR:
  
                    RESTRICTED RIGHTS LEGEND
  
 Use, reproduction and disclosure by the US Government is
 subject to restrictions as set forth in subparagraphs (a)
 and (c) of the Commercial Computer Software - Restricted
 Rights clause in FAR 52.227-19.
  
 Gaussian, Inc.
 340 Quinnipiac St., Bldg. 40, Wallingford CT 06492
  
  
 ---------------------------------------------------------------
 Warning -- This program may not be used in any manner that
 competes with the business of Gaussian, Inc. or will provide
 assistance to any competitor of Gaussian, Inc.  The licensee
 of this program is prohibited from giving any competitor of
 Gaussian, Inc. access to this program.  By using this program,
 the user acknowledges that Gaussian, Inc. is engaged in the
 business of creating and licensing software in the field of
 computational chemistry and represents and warrants to the
 licensee that it is not a competitor of Gaussian, Inc. and that
 it will not use this program in any manner prohibited above.
 ---------------------------------------------------------------
  

 Cite this work as:
 Gaussian 16, Revision A.03,
 M. J. Frisch, G. W. Trucks, H. B. Schlegel, G. E. Scuseria, 
 M. A. Robb, J. R. Cheeseman, G. Scalmani, V. Barone, 
 G. A. Petersson, H. Nakatsuji, X. Li, M. Caricato, A. V. Marenich, 
 J. Bloino, B. G. Janesko, R. Gomperts, B. Mennucci, H. P. Hratchian, 
 J. V. Ortiz, A. F. Izmaylov, J. L. Sonnenberg, D. Williams-Young, 
 F. Ding, F. Lipparini, F. Egidi, J. Goings, B. Peng, A. Petrone, 
 T. Henderson, D. Ranasinghe, V. G. Zakrzewski, J. Gao, N. Rega, 
 G. Zheng, W. Liang, M. Hada, M. Ehara, K. Toyota, R. Fukuda, 
 J. Hasegawa, M. Ishida, T. Nakajima, Y. Honda, O. Kitao, H. Nakai, 
 T. Vreven, K. Throssell, J. A. Montgomery, Jr., J. E. Peralta, 
 F. Ogliaro, M. J. Bearpark, J. J. Heyd, E. N. Brothers, K. N. Kudin, 
 V. N. Staroverov, T. A. Keith, R. Kobayashi, J. Normand, 
 K. Raghavachari, A. P. Rendell, J. C. Burant, S. S. Iyengar, 
 J. Tomasi, M. Cossi, J. M. Millam, M. Klene, C. Adamo, R. Cammi, 
 J. W. Ochterski, R. L. Martin, K. Morokuma, O. Farkas, 
 J. B. Foresman, and D. J. Fox, Gaussian, Inc., Wallingford CT, 2016.
 
 ******************************************
 Gaussian 16:  ES64L-G16RevA.03 25-Dec-2016
                11-Mar-2026 
 ******************************************
 %chk=f1-6-311Gdp.chk
 -----------------------------
 #P B3LYP/6-311G(d,p) OPT FREQ
 -----------------------------
 1/18=20,19=15,26=3,38=1/1,3;
 2/9=110,12=2,17=6,18=5,40=1/2;
 3/5=4,6=6,7=101,11=2,25=1,30=1,71=1,74=-5/1,2,3;
 4//1;
 5/5=2,38=5/2;
 6/7=2,8=2,9=2,10=2,28=1/1;
 7//1,2,3,16;
 1/18=20,19=15,26=3/3(2);
 2/9=110/2;
 99//99;
 2/9=110/2;
 3/5=4,6=6,7=101,11=2,25=1,30=1,71=1,74=-5/1,2,3;
 4/5=5,16=3,69=1/1;
 5/5=2,38=5/2;
 7//1,2,3,16;
 1/18=20,19=15,26=3/3(-5);
 2/9=110/2;
 6/7=2,8=2,9=2,10=2,19=2,28=1/1;
 99/9=1/99;
 Leave Link    1 at Wed Mar 11 11:26:36 2026, MaxMem=           0 cpu:               0.0 elap:               0.0
 (Enter /sw/cluster/pub/apps//g16/l101.exe)
 ----------------------
 OPT FREQ F1 6-31G(d,p)
 ----------------------
 Symbolic Z-matrix:
 Charge =  0 Multiplicity = 1
 C                     0.00976   0.00468   0.0399 
 C                     1.53762  -0.04442   0.05212 
 C                     2.08255   1.25515   0.03278 
 C                     0.978     2.22309   0.00747 
 C                    -0.23896   1.51251   0.01131 
 C                    -1.44928   2.19661  -0.00993 
 C                    -1.44228   3.59641  -0.03495 
 C                    -0.23374   4.30058  -0.03862 
 C                     0.9853    3.61916  -0.01755 
 H                     1.92176   4.17143  -0.02068 
 H                    -0.24329   5.38719  -0.05813 
 H                    -2.38324   4.13996  -0.05169 
 H                    -2.39456   1.65842  -0.00744 
 C                     3.46572   1.44614   0.03935 
 C                     4.30154   0.32743   0.06541 
 C                     3.76206  -0.96297   0.08471 
 C                     2.37513  -1.15407   0.07812 
 H                     1.96617  -2.16185   0.09321 
 H                     4.42468  -1.82418   0.10491 
 H                     5.38017   0.46062   0.07078 
 H                     3.88965   2.44711   0.02446 
 C                    -0.58466  -0.64101   1.312 
 H                    -0.18958  -0.16733   2.2163 
 H                    -1.67634  -0.54198   1.32268 
 H                    -0.34382  -1.70967   1.35207 
 C                    -0.56537  -0.68566  -1.21755 
 H                    -0.3249   -1.75522  -1.21604 
 H                    -1.65668  -0.5866   -1.24882 
 H                    -0.15575  -0.24451  -2.13179 
 
 ITRead=  0  0  0  0  0  0  0  0  0  0  0  0  0  0  0  0  0  0  0  0
 ITRead=  0  0  0  0  0  0  0  0  0
 MicOpt= -1 -1 -1 -1 -1 -1 -1 -1 -1 -1 -1 -1 -1 -1 -1 -1 -1 -1 -1 -1
 MicOpt= -1 -1 -1 -1 -1 -1 -1 -1 -1
 NAtoms=     29 NQM=       29 NQMF=       0 NMMI=      0 NMMIF=      0
                NMic=       0 NMicF=      0.
                    Isotopes and Nuclear Properties:
 (Nuclear quadrupole moments (NQMom) in fm**2, nuclear magnetic moments (NMagM)
  in nuclear magnetons)

  Atom         1           2           3           4           5           6           7           8           9          10
 IAtWgt=          12          12          12          12          12          12          12          12          12           1
 AtmWgt=  12.0000000  12.0000000  12.0000000  12.0000000  12.0000000  12.0000000  12.0000000  12.0000000  12.0000000   1.0078250
 NucSpn=           0           0           0           0           0           0           0           0           0           1
 AtZEff=  -0.0000000  -0.0000000  -0.0000000  -0.0000000  -0.0000000  -0.0000000  -0.0000000  -0.0000000  -0.0000000  -0.0000000
 NQMom=    0.0000000   0.0000000   0.0000000   0.0000000   0.0000000   0.0000000   0.0000000   0.0000000   0.0000000   0.0000000
 NMagM=    0.0000000   0.0000000   0.0000000   0.0000000   0.0000000   0.0000000   0.0000000   0.0000000   0.0000000   2.7928460
 AtZNuc=   6.0000000   6.0000000   6.0000000   6.0000000   6.0000000   6.0000000   6.0000000   6.0000000   6.0000000   1.0000000

  Atom        11          12          13          14          15          16          17          18          19          20
 IAtWgt=           1           1           1          12          12          12          12           1           1           1
 AtmWgt=   1.0078250   1.0078250   1.0078250  12.0000000  12.0000000  12.0000000  12.0000000   1.0078250   1.0078250   1.0078250
 NucSpn=           1           1           1           0           0           0           0           1           1           1
 AtZEff=  -0.0000000  -0.0000000  -0.0000000  -0.0000000  -0.0000000  -0.0000000  -0.0000000  -0.0000000  -0.0000000  -0.0000000
 NQMom=    0.0000000   0.0000000   0.0000000   0.0000000   0.0000000   0.0000000   0.0000000   0.0000000   0.0000000   0.0000000
 NMagM=    2.7928460   2.7928460   2.7928460   0.0000000   0.0000000   0.0000000   0.0000000   2.7928460   2.7928460   2.7928460
 AtZNuc=   1.0000000   1.0000000   1.0000000   6.0000000   6.0000000   6.0000000   6.0000000   1.0000000   1.0000000   1.0000000

  Atom        21          22          23          24          25          26          27          28          29
 IAtWgt=           1          12           1           1           1          12           1           1           1
 AtmWgt=   1.0078250  12.0000000   1.0078250   1.0078250   1.0078250  12.0000000   1.0078250   1.0078250   1.0078250
 NucSpn=           1           0           1           1           1           0           1           1           1
 AtZEff=  -0.0000000  -0.0000000  -0.0000000  -0.0000000  -0.0000000  -0.0000000  -0.0000000  -0.0000000  -0.0000000
 NQMom=    0.0000000   0.0000000   0.0000000   0.0000000   0.0000000   0.0000000   0.0000000   0.0000000   0.0000000
 NMagM=    2.7928460   0.0000000   2.7928460   2.7928460   2.7928460   0.0000000   2.7928460   2.7928460   2.7928460
 AtZNuc=   1.0000000   6.0000000   1.0000000   1.0000000   1.0000000   6.0000000   1.0000000   1.0000000   1.0000000
 Leave Link  101 at Wed Mar 11 11:26:36 2026, MaxMem=   104857600 cpu:               0.0 elap:               0.0
 (Enter /sw/cluster/pub/apps//g16/l103.exe)

 GradGradGradGradGradGradGradGradGradGradGradGradGradGradGradGradGradGrad
 Berny optimization.
 Initialization pass.
                           ----------------------------
                           !    Initial Parameters    !
                           ! (Angstroms and Degrees)  !
 --------------------------                            --------------------------
 ! Name  Definition              Value          Derivative Info.                !
 --------------------------------------------------------------------------------
 ! R1    R(1,2)                  1.5287         estimate D2E/DX2                !
 ! R2    R(1,5)                  1.5285         estimate D2E/DX2                !
 ! R3    R(1,22)                 1.5455         estimate D2E/DX2                !
 ! R4    R(1,26)                 1.5455         estimate D2E/DX2                !
 ! R5    R(2,3)                  1.4093         estimate D2E/DX2                !
 ! R6    R(2,17)                 1.3905         estimate D2E/DX2                !
 ! R7    R(3,4)                  1.4689         estimate D2E/DX2                !
 ! R8    R(3,14)                 1.3963         estimate D2E/DX2                !
 ! R9    R(4,5)                  1.4092         estimate D2E/DX2                !
 ! R10   R(4,9)                  1.3963         estimate D2E/DX2                !
 ! R11   R(5,6)                  1.3904         estimate D2E/DX2                !
 ! R12   R(6,7)                  1.4            estimate D2E/DX2                !
 ! R13   R(6,13)                 1.0878         estimate D2E/DX2                !
 ! R14   R(7,8)                  1.3987         estimate D2E/DX2                !
 ! R15   R(7,12)                 1.0868         estimate D2E/DX2                !
 ! R16   R(8,9)                  1.3967         estimate D2E/DX2                !
 ! R17   R(8,11)                 1.0868         estimate D2E/DX2                !
 ! R18   R(9,10)                 1.0872         estimate D2E/DX2                !
 ! R19   R(14,15)                1.3967         estimate D2E/DX2                !
 ! R20   R(14,21)                1.0871         estimate D2E/DX2                !
 ! R21   R(15,16)                1.3988         estimate D2E/DX2                !
 ! R22   R(15,20)                1.0868         estimate D2E/DX2                !
 ! R23   R(16,17)                1.4            estimate D2E/DX2                !
 ! R24   R(16,19)                1.0868         estimate D2E/DX2                !
 ! R25   R(17,18)                1.0877         estimate D2E/DX2                !
 ! R26   R(22,23)                1.0946         estimate D2E/DX2                !
 ! R27   R(22,24)                1.0962         estimate D2E/DX2                !
 ! R28   R(22,25)                1.0962         estimate D2E/DX2                !
 ! R29   R(26,27)                1.0963         estimate D2E/DX2                !
 ! R30   R(26,28)                1.0962         estimate D2E/DX2                !
 ! R31   R(26,29)                1.0946         estimate D2E/DX2                !
 ! A1    A(2,1,5)              101.2135         estimate D2E/DX2                !
 ! A2    A(2,1,22)             111.371          estimate D2E/DX2                !
 ! A3    A(2,1,26)             111.3517         estimate D2E/DX2                !
 ! A4    A(5,1,22)             111.4048         estimate D2E/DX2                !
 ! A5    A(5,1,26)             111.3999         estimate D2E/DX2                !
 ! A6    A(22,1,26)            109.8749         estimate D2E/DX2                !
 ! A7    A(1,2,3)              110.8991         estimate D2E/DX2                !
 ! A8    A(1,2,17)             128.8858         estimate D2E/DX2                !
 ! A9    A(3,2,17)             120.2151         estimate D2E/DX2                !
 ! A10   A(2,3,4)              108.4892         estimate D2E/DX2                !
 ! A11   A(2,3,14)             120.603          estimate D2E/DX2                !
 ! A12   A(4,3,14)             130.9078         estimate D2E/DX2                !
 ! A13   A(3,4,5)              108.4854         estimate D2E/DX2                !
 ! A14   A(3,4,9)              130.9374         estimate D2E/DX2                !
 ! A15   A(5,4,9)              120.5772         estimate D2E/DX2                !
 ! A16   A(1,5,4)              110.9129         estimate D2E/DX2                !
 ! A17   A(1,5,6)              128.8498         estimate D2E/DX2                !
 ! A18   A(4,5,6)              120.2373         estimate D2E/DX2                !
 ! A19   A(5,6,7)              119.1983         estimate D2E/DX2                !
 ! A20   A(5,6,13)             120.863          estimate D2E/DX2                !
 ! A21   A(7,6,13)             119.9387         estimate D2E/DX2                !
 ! A22   A(6,7,8)              120.5117         estimate D2E/DX2                !
 ! A23   A(6,7,12)             119.736          estimate D2E/DX2                !
 ! A24   A(8,7,12)             119.7522         estimate D2E/DX2                !
 ! A25   A(7,8,9)              120.5617         estimate D2E/DX2                !
 ! A26   A(7,8,11)             119.7218         estimate D2E/DX2                !
 ! A27   A(9,8,11)             119.7165         estimate D2E/DX2                !
 ! A28   A(4,9,8)              118.9138         estimate D2E/DX2                !
 ! A29   A(4,9,10)             120.8268         estimate D2E/DX2                !
 ! A30   A(8,9,10)             120.2594         estimate D2E/DX2                !
 ! A31   A(3,14,15)            118.9025         estimate D2E/DX2                !
 ! A32   A(3,14,21)            120.8075         estimate D2E/DX2                !
 ! A33   A(15,14,21)           120.29           estimate D2E/DX2                !
 ! A34   A(14,15,16)           120.5553         estimate D2E/DX2                !
 ! A35   A(14,15,20)           119.725          estimate D2E/DX2                !
 ! A36   A(16,15,20)           119.7197         estimate D2E/DX2                !
 ! A37   A(15,16,17)           120.5257         estimate D2E/DX2                !
 ! A38   A(15,16,19)           119.7451         estimate D2E/DX2                !
 ! A39   A(17,16,19)           119.7292         estimate D2E/DX2                !
 ! A40   A(2,17,16)            119.1984         estimate D2E/DX2                !
 ! A41   A(2,17,18)            120.8768         estimate D2E/DX2                !
 ! A42   A(16,17,18)           119.9248         estimate D2E/DX2                !
 ! A43   A(1,22,23)            111.1243         estimate D2E/DX2                !
 ! A44   A(1,22,24)            110.6894         estimate D2E/DX2                !
 ! A45   A(1,22,25)            110.6637         estimate D2E/DX2                !
 ! A46   A(23,22,24)           108.1974         estimate D2E/DX2                !
 ! A47   A(23,22,25)           108.2021         estimate D2E/DX2                !
 ! A48   A(24,22,25)           107.8485         estimate D2E/DX2                !
 ! A49   A(1,26,27)            110.6735         estimate D2E/DX2                !
 ! A50   A(1,26,28)            110.6897         estimate D2E/DX2                !
 ! A51   A(1,26,29)            111.1168         estimate D2E/DX2                !
 ! A52   A(27,26,28)           107.8525         estimate D2E/DX2                !
 ! A53   A(27,26,29)           108.1958         estimate D2E/DX2                !
 ! A54   A(28,26,29)           108.197          estimate D2E/DX2                !
 ! D1    D(5,1,2,3)             -0.015          estimate D2E/DX2                !
 ! D2    D(5,1,2,17)           179.9944         estimate D2E/DX2                !
 ! D3    D(22,1,2,3)          -118.5117         estimate D2E/DX2                !
 ! D4    D(22,1,2,17)           61.4978         estimate D2E/DX2                !
 ! D5    D(26,1,2,3)           118.4674         estimate D2E/DX2                !
 ! D6    D(26,1,2,17)          -61.5231         estimate D2E/DX2                !
 ! D7    D(2,1,5,4)              0.0126         estimate D2E/DX2                !
 ! D8    D(2,1,5,6)            179.9938         estimate D2E/DX2                !
 ! D9    D(22,1,5,4)           118.4848         estimate D2E/DX2                !
 ! D10   D(22,1,5,6)           -61.534          estimate D2E/DX2                !
 ! D11   D(26,1,5,4)          -118.435          estimate D2E/DX2                !
 ! D12   D(26,1,5,6)            61.5461         estimate D2E/DX2                !
 ! D13   D(2,1,22,23)           56.0788         estimate D2E/DX2                !
 ! D14   D(2,1,22,24)          176.3291         estimate D2E/DX2                !
 ! D15   D(2,1,22,25)          -64.1602         estimate D2E/DX2                !
 ! D16   D(5,1,22,23)          -56.1116         estimate D2E/DX2                !
 ! D17   D(5,1,22,24)           64.1387         estimate D2E/DX2                !
 ! D18   D(5,1,22,25)         -176.3506         estimate D2E/DX2                !
 ! D19   D(26,1,22,23)         179.9409         estimate D2E/DX2                !
 ! D20   D(26,1,22,24)         -59.8089         estimate D2E/DX2                !
 ! D21   D(26,1,22,25)          59.7019         estimate D2E/DX2                !
 ! D22   D(2,1,26,27)           64.2096         estimate D2E/DX2                !
 ! D23   D(2,1,26,28)         -176.268          estimate D2E/DX2                !
 ! D24   D(2,1,26,29)          -56.023          estimate D2E/DX2                !
 ! D25   D(5,1,26,27)          176.3859         estimate D2E/DX2                !
 ! D26   D(5,1,26,28)          -64.0917         estimate D2E/DX2                !
 ! D27   D(5,1,26,29)           56.1532         estimate D2E/DX2                !
 ! D28   D(22,1,26,27)         -59.6637         estimate D2E/DX2                !
 ! D29   D(22,1,26,28)          59.8587         estimate D2E/DX2                !
 ! D30   D(22,1,26,29)        -179.8964         estimate D2E/DX2                !
 ! D31   D(1,2,3,4)              0.0124         estimate D2E/DX2                !
 ! D32   D(1,2,3,14)          -179.9878         estimate D2E/DX2                !
 ! D33   D(17,2,3,4)          -179.9962         estimate D2E/DX2                !
 ! D34   D(17,2,3,14)            0.0036         estimate D2E/DX2                !
 ! D35   D(1,2,17,16)          179.9854         estimate D2E/DX2                !
 ! D36   D(1,2,17,18)           -0.0099         estimate D2E/DX2                !
 ! D37   D(3,2,17,16)           -0.0043         estimate D2E/DX2                !
 ! D38   D(3,2,17,18)         -179.9996         estimate D2E/DX2                !
 ! D39   D(2,3,4,5)             -0.0039         estimate D2E/DX2                !
 ! D40   D(2,3,4,9)           -179.9964         estimate D2E/DX2                !
 ! D41   D(14,3,4,5)           179.9964         estimate D2E/DX2                !
 ! D42   D(14,3,4,9)             0.0038         estimate D2E/DX2                !
 ! D43   D(2,3,14,15)            0.0011         estimate D2E/DX2                !
 ! D44   D(2,3,14,21)          179.9985         estimate D2E/DX2                !
 ! D45   D(4,3,14,15)         -179.9992         estimate D2E/DX2                !
 ! D46   D(4,3,14,21)           -0.0017         estimate D2E/DX2                !
 ! D47   D(3,4,5,1)             -0.0061         estimate D2E/DX2                !
 ! D48   D(3,4,5,6)           -179.9891         estimate D2E/DX2                !
 ! D49   D(9,4,5,1)            179.9873         estimate D2E/DX2                !
 ! D50   D(9,4,5,6)              0.0043         estimate D2E/DX2                !
 ! D51   D(3,4,9,8)            179.9962         estimate D2E/DX2                !
 ! D52   D(3,4,9,10)            -0.0042         estimate D2E/DX2                !
 ! D53   D(5,4,9,8)              0.0045         estimate D2E/DX2                !
 ! D54   D(5,4,9,10)          -179.996          estimate D2E/DX2                !
 ! D55   D(1,5,6,7)           -179.9871         estimate D2E/DX2                !
 ! D56   D(1,5,6,13)             0.0049         estimate D2E/DX2                !
 ! D57   D(4,5,6,7)             -0.0075         estimate D2E/DX2                !
 ! D58   D(4,5,6,13)           179.9845         estimate D2E/DX2                !
 ! D59   D(5,6,7,8)              0.002          estimate D2E/DX2                !
 ! D60   D(5,6,7,12)           179.9989         estimate D2E/DX2                !
 ! D61   D(13,6,7,8)          -179.9901         estimate D2E/DX2                !
 ! D62   D(13,6,7,12)            0.0068         estimate D2E/DX2                !
 ! D63   D(6,7,8,9)              0.0069         estimate D2E/DX2                !
 ! D64   D(6,7,8,11)          -179.9985         estimate D2E/DX2                !
 ! D65   D(12,7,8,9)          -179.9901         estimate D2E/DX2                !
 ! D66   D(12,7,8,11)            0.0046         estimate D2E/DX2                !
 ! D67   D(7,8,9,4)             -0.01           estimate D2E/DX2                !
 ! D68   D(7,8,9,10)           179.9904         estimate D2E/DX2                !
 ! D69   D(11,8,9,4)           179.9953         estimate D2E/DX2                !
 ! D70   D(11,8,9,10)           -0.0042         estimate D2E/DX2                !
 ! D71   D(3,14,15,16)          -0.005          estimate D2E/DX2                !
 ! D72   D(3,14,15,20)         179.998          estimate D2E/DX2                !
 ! D73   D(21,14,15,16)        179.9975         estimate D2E/DX2                !
 ! D74   D(21,14,15,20)          0.0005         estimate D2E/DX2                !
 ! D75   D(14,15,16,17)          0.0043         estimate D2E/DX2                !
 ! D76   D(14,15,16,19)       -179.9998         estimate D2E/DX2                !
 ! D77   D(20,15,16,17)       -179.9987         estimate D2E/DX2                !
 ! D78   D(20,15,16,19)         -0.0028         estimate D2E/DX2                !
 ! D79   D(15,16,17,2)           0.0004         estimate D2E/DX2                !
 ! D80   D(15,16,17,18)        179.9958         estimate D2E/DX2                !
 ! D81   D(19,16,17,2)        -179.9955         estimate D2E/DX2                !
 ! D82   D(19,16,17,18)         -0.0001         estimate D2E/DX2                !
 --------------------------------------------------------------------------------
 Trust Radius=3.00D-01 FncErr=1.00D-07 GrdErr=1.00D-06 EigMax=2.50D+02 EigMin=1.00D-04
 Number of steps in this run=    174 maximum allowed number of steps=    174.
 GradGradGradGradGradGradGradGradGradGradGradGradGradGradGradGradGradGrad

 Leave Link  103 at Wed Mar 11 11:26:36 2026, MaxMem=   104857600 cpu:               0.0 elap:               0.0
 (Enter /sw/cluster/pub/apps//g16/l202.exe)
                          Input orientation:                          
 ---------------------------------------------------------------------
 Center     Atomic      Atomic             Coordinates (Angstroms)
 Number     Number       Type             X           Y           Z
 ---------------------------------------------------------------------
      1          6           0        0.009757    0.004675    0.039896
      2          6           0        1.537621   -0.044423    0.052119
      3          6           0        2.082553    1.255147    0.032779
      4          6           0        0.978003    2.223085    0.007465
      5          6           0       -0.238959    1.512514    0.011312
      6          6           0       -1.449284    2.196606   -0.009929
      7          6           0       -1.442284    3.596408   -0.034947
      8          6           0       -0.233743    4.300575   -0.038624
      9          6           0        0.985297    3.619162   -0.017553
     10          1           0        1.921761    4.171435   -0.020677
     11          1           0       -0.243293    5.387194   -0.058130
     12          1           0       -2.383239    4.139964   -0.051688
     13          1           0       -2.394560    1.658417   -0.007441
     14          6           0        3.465719    1.446136    0.039353
     15          6           0        4.301536    0.327427    0.065408
     16          6           0        3.762060   -0.962970    0.084706
     17          6           0        2.375132   -1.154071    0.078123
     18          1           0        1.966173   -2.161849    0.093214
     19          1           0        4.424676   -1.824180    0.104905
     20          1           0        5.380166    0.460619    0.070783
     21          1           0        3.889652    2.447112    0.024463
     22          6           0       -0.584656   -0.641007    1.312001
     23          1           0       -0.189582   -0.167328    2.216301
     24          1           0       -1.676341   -0.541982    1.322677
     25          1           0       -0.343820   -1.709673    1.352070
     26          6           0       -0.565371   -0.685656   -1.217553
     27          1           0       -0.324895   -1.755220   -1.216038
     28          1           0       -1.656675   -0.586603   -1.248819
     29          1           0       -0.155754   -0.244505   -2.131788
 ---------------------------------------------------------------------
                    Distance matrix (angstroms):
                    1          2          3          4          5
     1  C    0.000000
     2  C    1.528702   0.000000
     3  C    2.420788   1.409329   0.000000
     4  C    2.420722   2.335971   1.468869   0.000000
     5  C    1.528481   2.362616   2.335833   1.409228   0.000000
     6  C    2.633599   3.734657   3.655413   2.427494   1.390439
     7  C    3.874864   4.705642   4.232088   2.783093   2.406812
     8  C    4.303512   4.693077   3.826873   2.405497   2.788513
     9  C    3.744262   3.705640   2.606736   1.396320   2.436719
    10  H    4.584901   4.233949   2.921206   2.165072   3.426309
    11  H    5.389356   5.717191   4.742535   3.392264   3.875305
    12  H    4.778643   5.735243   5.317199   3.869867   3.391961
    13  H    2.918535   4.285471   4.495418   3.419540   2.160615
    14  C    3.744527   2.437107   1.396305   2.606415   3.705379
    15  C    4.303973   2.788848   2.405330   3.826584   4.692915
    16  C    3.875322   2.406848   2.782711   4.231771   4.705482
    17  C    2.634227   1.390475   2.427342   3.655427   3.734784
    18  H    2.919629   2.160750   3.419511   4.495718   4.286054
    19  H    4.779168   3.391962   3.869496   5.316898   5.735135
    20  H    5.389817   3.875638   3.392193   4.742292   5.717043
    21  H    4.584683   3.426450   2.164823   2.920304   4.233093
    22  C    1.545472   2.539148   3.513661   3.513793   2.539478
    23  H    2.192273   2.771646   3.457427   3.457786   2.772415
    24  H    2.187987   3.491623   4.361513   4.052273   2.829611
    25  H    2.187649   2.828913   4.051910   4.361395   3.491578
    26  C    1.545480   2.538862   3.513054   3.513324   2.539410
    27  H    2.187828   2.829137   4.051871   4.361355   3.491684
    28  H    2.188011   3.491407   4.360775   4.051435   2.829159
    29  H    2.192190   2.770740   3.456056   3.456994   2.772529
                    6          7          8          9         10
     6  C    0.000000
     7  C    1.400043   0.000000
     8  C    2.430031   1.398727   0.000000
     9  C    2.819736   2.427750   1.396720   0.000000
    10  H    3.906918   3.412867   2.159444   1.087189   0.000000
    11  H    3.411245   2.155233   1.086836   2.153373   2.483331
    12  H    2.156538   1.086798   2.155528   3.408729   4.305227
    13  H    1.087750   2.159490   3.413371   3.907436   4.994603
    14  C    4.972212   5.358888   4.673320   3.298147   3.132837
    15  C    6.047432   6.609673   6.030380   4.673312   4.521851
    16  C    6.095079   6.920075   6.609581   5.358806   5.455265
    17  C    5.085366   6.095285   6.047563   4.972379   5.345682
    18  H    5.538241   6.692647   6.827879   5.864680   6.334464
    19  H    7.119221   7.988964   7.696369   6.440054   6.498289
    20  H    7.047095   7.509339   6.802441   5.412862   5.073370
    21  H    5.344920   5.454718   4.521249   3.132211   2.616854
    22  C    3.247634   4.528298   5.134838   4.730910   5.587285
    23  H    3.482978   4.561040   5.004877   4.550599   5.318525
    24  H    3.054056   4.361674   5.233029   5.118169   6.080069
    25  H    4.282068   5.593294   6.170027   5.660292   6.450172
    26  C    3.247629   4.528091   5.134428   4.730331   5.586562
    27  H    4.282041   5.593162   6.169868   5.660119   6.449930
    28  H    3.053541   4.360852   5.231999   5.117078   6.078854
    29  H    3.483465   4.561197   5.004515   4.549715   5.317272
                   11         12         13         14         15
    11  H    0.000000
    12  H    2.476892   0.000000
    13  H    4.305148   2.481967   0.000000
    14  C    5.412782   6.440133   5.864309   0.000000
    15  C    6.802351   7.696452   6.827484   1.396703   0.000000
    16  C    7.509184   7.988945   6.692095   2.427688   1.398761
    17  C    7.047188   7.119393   5.537813   2.819922   2.430233
    18  H    7.867191   7.658409   5.798324   3.907569   3.413384
    19  H    8.591882   9.052251   7.657877   3.408645   2.155490
    20  H    7.477369   8.592033   7.866842   2.153448   1.086836
    21  H    5.072685   6.497746   6.333591   1.087149   2.159720
    22  C    6.191365   5.286987   3.209989   4.730892   5.134855
    23  H    6.002386   5.339351   3.624955   4.550120   5.004125
    24  H    6.254229   4.930436   2.669608   5.660416   6.170220
    25  H    7.236317   6.352009   4.171071   5.118100   5.233030
    26  C    6.190921   5.286823   3.210137   4.730120   5.134112
    27  H    7.236124   6.351825   4.170988   5.117953   5.232914
    28  H    6.253130   4.929650   2.669384   5.659535   6.169516
    29  H    6.001979   5.339670   3.625771   4.548317   5.002221
                   16         17         18         19         20
    16  C    0.000000
    17  C    1.400047   0.000000
    18  H    2.159304   1.087700   0.000000
    19  H    1.086808   2.156477   2.481611   0.000000
    20  H    2.155242   3.411379   4.305019   2.476779   0.000000
    21  H    3.413000   3.907067   4.994699   4.305422   2.483935
    22  C    4.528118   3.247466   3.210161   5.286812   6.191389
    23  H    4.559848   3.481842   3.623933   5.338027   6.001638
    24  H    5.593390   4.282289   4.171745   6.352118   7.236487
    25  H    4.361425   3.053577   2.669316   4.930222   6.254269
    26  C    4.527631   3.247268   3.210291   5.286369   6.190571
    27  H    4.361513   3.053912   2.669921   4.930322   6.254084
    28  H    5.593088   4.282320   4.172227   6.351928   7.235686
    29  H    4.558323   3.480862   3.623454   5.336526   5.999577
                   21         22         23         24         25
    21  H    0.000000
    22  C    5.586919   0.000000
    23  H    5.317857   1.094630   0.000000
    24  H    6.449831   1.096219   1.774650   0.000000
    25  H    6.079777   1.096200   1.774687   1.771998   0.000000
    26  C    5.586060   2.530022   3.493027   2.776268   2.775006
    27  H    6.079543   2.774874   3.784265   3.121446   2.568582
    28  H    6.448753   2.776686   3.786187   2.571958   3.122419
    29  H    5.315969   3.492972   4.348905   3.786028   3.784092
                   26         27         28         29
    26  C    0.000000
    27  H    1.096266   0.000000
    28  H    1.096236   1.772111   0.000000
    29  H    1.094635   1.774674   1.774663   0.000000
 Stoichiometry    C15H14
 Framework group  C1[X(C15H14)]
 Deg. of freedom    81
 Full point group                 C1      NOp   1
 Largest Abelian subgroup         C1      NOp   1
 Largest concise Abelian subgroup C1      NOp   1
                         Standard orientation:                         
 ---------------------------------------------------------------------
 Center     Atomic      Atomic             Coordinates (Angstroms)
 Number     Number       Type             X           Y           Z
 ---------------------------------------------------------------------
      1          6           0       -0.000255    1.416281   -0.000029
      2          6           0        1.181301    0.446305   -0.000200
      3          6           0        0.734475   -0.890315   -0.000099
      4          6           0       -0.734394   -0.890434   -0.000161
      5          6           0       -1.181315    0.446048   -0.000211
      6          6           0       -2.542631    0.729135   -0.000047
      7          6           0       -3.460138   -0.328363    0.000006
      8          6           0       -3.015327   -1.654477   -0.000062
      9          6           0       -1.649225   -1.945324   -0.000040
     10          1           0       -1.308930   -2.977884    0.000064
     11          1           0       -3.738826   -2.465502   -0.000045
     12          1           0       -4.526202   -0.117091    0.000151
     13          1           0       -2.898844    1.756906    0.000169
     14          6           0        1.648922   -1.945519    0.000031
     15          6           0        3.015053   -1.654892    0.000081
     16          6           0        3.459938   -0.328766   -0.000102
     17          6           0        2.542735    0.729001   -0.000247
     18          1           0        2.899480    1.756535   -0.000320
     19          1           0        4.526048   -0.117677   -0.000064
     20          1           0        3.738543   -2.465924    0.000215
     21          1           0        1.307924   -2.977805    0.000133
     22          6           0        0.000152    2.304579   -1.264707
     23          1           0        0.000770    1.695770   -2.174413
     24          1           0       -0.885888    2.949725   -1.285133
     25          1           0        0.886110    2.949841   -1.283912
     26          6           0        0.000374    2.303644    1.265315
     27          1           0        0.885987    2.949486    1.284669
     28          1           0       -0.886122    2.948156    1.286825
     29          1           0        0.001946    1.694038    2.174492
 ---------------------------------------------------------------------
 Rotational constants (GHZ):           1.0556965           0.5493218           0.3919087
 Leave Link  202 at Wed Mar 11 11:26:36 2026, MaxMem=   104857600 cpu:               0.0 elap:               0.0
 (Enter /sw/cluster/pub/apps//g16/l301.exe)
 Standard basis: 6-311G(d,p) (5D, 7F)
 Ernie: Thresh=  0.10000D-02 Tol=  0.10000D-05 Strict=F.
 There are   369 symmetry adapted cartesian basis functions of A   symmetry.
 There are   354 symmetry adapted basis functions of A   symmetry.
   354 basis functions,   592 primitive gaussians,   369 cartesian basis functions
    52 alpha electrons       52 beta electrons
       nuclear repulsion energy       926.0282672228 Hartrees.
 IExCor=  402 DFT=T Ex+Corr=B3LYP ExCW=0 ScaHFX=  0.200000
 ScaDFX=  0.800000  0.720000  1.000000  0.810000 ScalE2=  1.000000  1.000000
 IRadAn=      5 IRanWt=     -1 IRanGd=            0 ICorTp=0 IEmpDi=  4
 NAtoms=   29 NActive=   29 NUniq=   29 SFac= 1.00D+00 NAtFMM=   60 NAOKFM=F Big=F
 Integral buffers will be    131072 words long.
 Raffenetti 2 integral format.
 Two-electron integral symmetry is turned on.
 Leave Link  301 at Wed Mar 11 11:26:36 2026, MaxMem=   104857600 cpu:               0.0 elap:               0.0
 (Enter /sw/cluster/pub/apps//g16/l302.exe)
 NPDir=0 NMtPBC=     1 NCelOv=     1 NCel=       1 NClECP=     1 NCelD=      1
         NCelK=      1 NCelE2=     1 NClLst=     1 CellRange=     0.0.
 One-electron integrals computed using PRISM.
 One-electron integral symmetry used in STVInt
 NBasis=   354 RedAO= T EigKep=  1.19D-04  NBF=   354
 NBsUse=   354 1.00D-06 EigRej= -1.00D+00 NBFU=   354
 Precomputing XC quadrature grid using
 IXCGrd= 4 IRadAn=           5 IRanWt=          -1 IRanGd=           0 AccXCQ= 0.00D+00.
 Generated NRdTot=       0 NPtTot=           0 NUsed=           0 NTot=          32
 NSgBfM=   369   369   369   369   369 MxSgAt=    29 MxSgA2=    29.
 Leave Link  302 at Wed Mar 11 11:26:37 2026, MaxMem=   104857600 cpu:               0.4 elap:               0.4
 (Enter /sw/cluster/pub/apps//g16/l303.exe)
 DipDrv:  MaxL=1.
 Leave Link  303 at Wed Mar 11 11:26:37 2026, MaxMem=   104857600 cpu:               0.0 elap:               0.0
 (Enter /sw/cluster/pub/apps//g16/l401.exe)
 ExpMin= 1.03D-01 ExpMax= 4.56D+03 ExpMxC= 6.82D+02 IAcc=3 IRadAn=         5 AccDes= 0.00D+00
 Harris functional with IExCor=  402 and IRadAn=       5 diagonalized for initial guess.
 HarFok:  IExCor=  402 AccDes= 0.00D+00 IRadAn=         5 IDoV= 1 UseB2=F ITyADJ=14
 ICtDFT=  3500011 ScaDFX=  1.000000  1.000000  1.000000  1.000000
 FoFCou: FMM=F IPFlag=           0 FMFlag=      100000 FMFlg1=           0
         NFxFlg=           0 DoJE=T BraDBF=F KetDBF=T FulRan=T
         wScrn=  0.000000 ICntrl=       500 IOpCl=  0 I1Cent=   200000004 NGrid=           0
         NMat0=    1 NMatS0=      1 NMatT0=    0 NMatD0=    1 NMtDS0=    0 NMtDT0=    0
 Petite list used in FoFCou.
 Harris En= -580.249617221327    
 JPrj=0 DoOrth=F DoCkMO=F.
 Leave Link  401 at Wed Mar 11 11:26:42 2026, MaxMem=   104857600 cpu:               4.8 elap:               4.9
 (Enter /sw/cluster/pub/apps//g16/l502.exe)
 Integral symmetry usage will be decided dynamically.
 Closed shell SCF:
 Using DIIS extrapolation, IDIIS=  1040.
 NGot=   104857600 LenX=   104579294 LenY=   104442692
 Requested convergence on RMS density matrix=1.00D-08 within 128 cycles.
 Requested convergence on MAX density matrix=1.00D-06.
 Requested convergence on             energy=1.00D-06.
 No special actions if energy rises.
 Fock matrices will be formed incrementally for  20 cycles.
 Integral accuracy reduced to 1.0D-05 until final iterations.

 Cycle   1  Pass 0  IDiag  1:
 FoFJK:  IHMeth= 1 ICntrl=       0 DoSepK=F KAlg= 0 I1Cent=           0 FoldK=F
 IRaf= 870000000 NMat=       1 IRICut=       1 DoRegI=T DoRafI=F ISym2E= 0 IDoP0=0 IntGTp=1.
 FoFCou: FMM=F IPFlag=           0 FMFlag=      100000 FMFlg1=           0
         NFxFlg=           0 DoJE=F BraDBF=F KetDBF=F FulRan=T
         wScrn=  0.000000 ICntrl=         0 IOpCl=  0 I1Cent=           0 NGrid=           0
         NMat0=    1 NMatS0=      1 NMatT0=    0 NMatD0=    1 NMtDS0=    0 NMtDT0=    0
 Symmetry not used in FoFCou.
 E= -579.797099851821    
 DIIS: error= 4.42D-02 at cycle   1 NSaved=   1.
 NSaved= 1 IEnMin= 1 EnMin= -579.797099851821     IErMin= 1 ErrMin= 4.42D-02
 ErrMax= 4.42D-02  0.00D+00 EMaxC= 1.00D-01 BMatC= 3.93D-01 BMatP= 3.93D-01
 IDIUse=3 WtCom= 5.58D-01 WtEn= 4.42D-01
 Coeff-Com:  0.100D+01
 Coeff-En:   0.100D+01
 Coeff:      0.100D+01
 Gap=     0.181 Goal=   None    Shift=    0.000
 GapD=    0.181 DampG=1.000 DampE=0.500 DampFc=0.5000 IDamp=-1.
 Damping current iteration by 5.00D-01
 RMSDP=3.05D-03 MaxDP=1.24D-01              OVMax= 1.71D-01

 Cycle   2  Pass 0  IDiag  1:
 RMSU=  1.47D-03    CP:  9.59D-01
 E= -579.981084819012     Delta-E=       -0.183984967191 Rises=F Damp=T
 DIIS: error= 6.35D-03 at cycle   2 NSaved=   2.
 NSaved= 2 IEnMin= 2 EnMin= -579.981084819012     IErMin= 2 ErrMin= 6.35D-03
 ErrMax= 6.35D-03  0.00D+00 EMaxC= 1.00D-01 BMatC= 1.91D-02 BMatP= 3.93D-01
 IDIUse=3 WtCom= 9.37D-01 WtEn= 6.35D-02
 Coeff-Com: -0.119D-01 0.101D+01
 Coeff-En:   0.253D-01 0.975D+00
 Coeff:     -0.950D-02 0.101D+01
 Gap=     0.186 Goal=   None    Shift=    0.000
 RMSDP=7.67D-04 MaxDP=2.45D-02 DE=-1.84D-01 OVMax= 1.02D-01

 Cycle   3  Pass 0  IDiag  1:
 RMSU=  7.46D-04    CP:  9.61D-01  8.79D-01
 E= -580.182739197339     Delta-E=       -0.201654378327 Rises=F Damp=F
 DIIS: error= 4.64D-03 at cycle   3 NSaved=   3.
 NSaved= 3 IEnMin= 3 EnMin= -580.182739197339     IErMin= 3 ErrMin= 4.64D-03
 ErrMax= 4.64D-03  0.00D+00 EMaxC= 1.00D-01 BMatC= 5.56D-03 BMatP= 1.91D-02
 IDIUse=3 WtCom= 9.54D-01 WtEn= 4.64D-02
 Coeff-Com: -0.578D-01 0.324D+00 0.734D+00
 Coeff-En:   0.000D+00 0.000D+00 0.100D+01
 Coeff:     -0.551D-01 0.309D+00 0.747D+00
 Gap=     0.180 Goal=   None    Shift=    0.000
 RMSDP=3.56D-04 MaxDP=1.97D-02 DE=-2.02D-01 OVMax= 3.00D-02

 Cycle   4  Pass 0  IDiag  1:
 RMSU=  2.46D-04    CP:  9.56D-01  9.69D-01  7.12D-01
 E= -580.186161251034     Delta-E=       -0.003422053695 Rises=F Damp=F
 DIIS: error= 5.03D-03 at cycle   4 NSaved=   4.
 NSaved= 4 IEnMin= 4 EnMin= -580.186161251034     IErMin= 3 ErrMin= 4.64D-03
 ErrMax= 5.03D-03  0.00D+00 EMaxC= 1.00D-01 BMatC= 2.05D-03 BMatP= 5.56D-03
 IDIUse=3 WtCom= 9.50D-01 WtEn= 5.03D-02
 Coeff-Com: -0.343D-01 0.141D+00 0.449D+00 0.444D+00
 Coeff-En:   0.000D+00 0.000D+00 0.263D+00 0.737D+00
 Coeff:     -0.326D-01 0.134D+00 0.440D+00 0.459D+00
 Gap=     0.181 Goal=   None    Shift=    0.000
 RMSDP=1.67D-04 MaxDP=4.12D-03 DE=-3.42D-03 OVMax= 2.20D-02

 Cycle   5  Pass 0  IDiag  1:
 RMSU=  1.01D-04    CP:  9.56D-01  9.63D-01  7.71D-01  4.91D-01
 E= -580.188148745797     Delta-E=       -0.001987494763 Rises=F Damp=F
 DIIS: error= 1.91D-03 at cycle   5 NSaved=   5.
 NSaved= 5 IEnMin= 5 EnMin= -580.188148745797     IErMin= 5 ErrMin= 1.91D-03
 ErrMax= 1.91D-03  0.00D+00 EMaxC= 1.00D-01 BMatC= 2.61D-04 BMatP= 2.05D-03
 IDIUse=3 WtCom= 9.81D-01 WtEn= 1.91D-02
 Coeff-Com: -0.953D-02 0.224D-01 0.129D+00 0.286D+00 0.572D+00
 Coeff-En:   0.000D+00 0.000D+00 0.000D+00 0.132D+00 0.868D+00
 Coeff:     -0.935D-02 0.220D-01 0.126D+00 0.283D+00 0.578D+00
 Gap=     0.181 Goal=   None    Shift=    0.000
 RMSDP=4.73D-05 MaxDP=1.07D-03 DE=-1.99D-03 OVMax= 6.75D-03

 Cycle   6  Pass 0  IDiag  1:
 RMSU=  1.84D-05    CP:  9.56D-01  9.65D-01  7.69D-01  6.01D-01  6.63D-01
 E= -580.188426030834     Delta-E=       -0.000277285038 Rises=F Damp=F
 DIIS: error= 3.10D-04 at cycle   6 NSaved=   6.
 NSaved= 6 IEnMin= 6 EnMin= -580.188426030834     IErMin= 6 ErrMin= 3.10D-04
 ErrMax= 3.10D-04  0.00D+00 EMaxC= 1.00D-01 BMatC= 1.29D-05 BMatP= 2.61D-04
 IDIUse=3 WtCom= 9.97D-01 WtEn= 3.10D-03
 Coeff-Com: -0.408D-02 0.756D-02 0.561D-01 0.145D+00 0.332D+00 0.463D+00
 Coeff-En:   0.000D+00 0.000D+00 0.000D+00 0.000D+00 0.000D+00 0.100D+01
 Coeff:     -0.407D-02 0.754D-02 0.559D-01 0.145D+00 0.331D+00 0.465D+00
 Gap=     0.181 Goal=   None    Shift=    0.000
 RMSDP=1.02D-05 MaxDP=3.91D-04 DE=-2.77D-04 OVMax= 1.09D-03

 Cycle   7  Pass 0  IDiag  1:
 RMSU=  5.27D-06    CP:  9.56D-01  9.65D-01  7.73D-01  6.00D-01  6.74D-01
                    CP:  5.54D-01
 E= -580.188439362623     Delta-E=       -0.000013331789 Rises=F Damp=F
 DIIS: error= 5.80D-05 at cycle   7 NSaved=   7.
 NSaved= 7 IEnMin= 7 EnMin= -580.188439362623     IErMin= 7 ErrMin= 5.80D-05
 ErrMax= 5.80D-05  0.00D+00 EMaxC= 1.00D-01 BMatC= 4.59D-07 BMatP= 1.29D-05
 IDIUse=1 WtCom= 1.00D+00 WtEn= 0.00D+00
 Coeff-Com: -0.688D-03 0.700D-03 0.107D-01 0.333D-01 0.831D-01 0.202D+00
 Coeff-Com:  0.671D+00
 Coeff:     -0.688D-03 0.700D-03 0.107D-01 0.333D-01 0.831D-01 0.202D+00
 Coeff:      0.671D+00
 Gap=     0.181 Goal=   None    Shift=    0.000
 RMSDP=2.09D-06 MaxDP=6.31D-05 DE=-1.33D-05 OVMax= 2.25D-04

 Initial convergence to 1.0D-05 achieved.  Increase integral accuracy.
 Cycle   8  Pass 1  IDiag  1:
 E= -580.188440430749     Delta-E=       -0.000001068126 Rises=F Damp=F
 DIIS: error= 7.23D-05 at cycle   1 NSaved=   1.
 NSaved= 1 IEnMin= 1 EnMin= -580.188440430749     IErMin= 1 ErrMin= 7.23D-05
 ErrMax= 7.23D-05  0.00D+00 EMaxC= 1.00D-01 BMatC= 3.95D-07 BMatP= 3.95D-07
 IDIUse=1 WtCom= 1.00D+00 WtEn= 0.00D+00
 Coeff-Com:  0.100D+01
 Coeff:      0.100D+01
 Gap=     0.181 Goal=   None    Shift=    0.000
 RMSDP=2.09D-06 MaxDP=6.31D-05 DE=-1.07D-06 OVMax= 2.29D-04

 Cycle   9  Pass 1  IDiag  1:
 RMSU=  4.17D-05    CP:  1.00D+00
 E= -580.188440464382     Delta-E=       -0.000000033633 Rises=F Damp=F
 DIIS: error= 5.34D-05 at cycle   2 NSaved=   2.
 NSaved= 2 IEnMin= 2 EnMin= -580.188440464382     IErMin= 2 ErrMin= 5.34D-05
 ErrMax= 5.34D-05  0.00D+00 EMaxC= 1.00D-01 BMatC= 2.41D-07 BMatP= 3.95D-07
 IDIUse=1 WtCom= 1.00D+00 WtEn= 0.00D+00
 Coeff-Com:  0.412D+00 0.588D+00
 Coeff:      0.412D+00 0.588D+00
 Gap=     0.181 Goal=   None    Shift=    0.000
 RMSDP=2.23D-06 MaxDP=5.85D-05 DE=-3.36D-08 OVMax= 2.93D-04

 Cycle  10  Pass 1  IDiag  1:
 RMSU=  2.22D-06    CP:  1.00D+00  1.00D+00
 E= -580.188440529713     Delta-E=       -0.000000065331 Rises=F Damp=F
 DIIS: error= 4.92D-05 at cycle   3 NSaved=   3.
 NSaved= 3 IEnMin= 3 EnMin= -580.188440529713     IErMin= 3 ErrMin= 4.92D-05
 ErrMax= 4.92D-05  0.00D+00 EMaxC= 1.00D-01 BMatC= 1.78D-07 BMatP= 2.41D-07
 IDIUse=1 WtCom= 1.00D+00 WtEn= 0.00D+00
 Coeff-Com:  0.280D-01 0.455D+00 0.517D+00
 Coeff:      0.280D-01 0.455D+00 0.517D+00
 Gap=     0.181 Goal=   None    Shift=    0.000
 RMSDP=1.27D-06 MaxDP=2.69D-05 DE=-6.53D-08 OVMax= 1.53D-04

 Cycle  11  Pass 1  IDiag  1:
 RMSU=  3.95D-07    CP:  1.00D+00  1.01D+00  4.86D-01
 E= -580.188440719336     Delta-E=       -0.000000189623 Rises=F Damp=F
 DIIS: error= 6.94D-06 at cycle   4 NSaved=   4.
 NSaved= 4 IEnMin= 4 EnMin= -580.188440719336     IErMin= 4 ErrMin= 6.94D-06
 ErrMax= 6.94D-06  0.00D+00 EMaxC= 1.00D-01 BMatC= 8.44D-09 BMatP= 1.78D-07
 IDIUse=1 WtCom= 1.00D+00 WtEn= 0.00D+00
 Coeff-Com: -0.275D-02 0.252D+00 0.317D+00 0.433D+00
 Coeff:     -0.275D-02 0.252D+00 0.317D+00 0.433D+00
 Gap=     0.181 Goal=   None    Shift=    0.000
 RMSDP=2.28D-07 MaxDP=9.96D-06 DE=-1.90D-07 OVMax= 1.77D-05

 Cycle  12  Pass 1  IDiag  1:
 RMSU=  6.52D-08    CP:  1.00D+00  1.01D+00  5.29D-01  5.04D-01
 E= -580.188440727577     Delta-E=       -0.000000008241 Rises=F Damp=F
 DIIS: error= 5.83D-07 at cycle   5 NSaved=   5.
 NSaved= 5 IEnMin= 5 EnMin= -580.188440727577     IErMin= 5 ErrMin= 5.83D-07
 ErrMax= 5.83D-07  0.00D+00 EMaxC= 1.00D-01 BMatC= 5.69D-11 BMatP= 8.44D-09
 IDIUse=1 WtCom= 1.00D+00 WtEn= 0.00D+00
 Coeff-Com: -0.174D-02 0.134D+00 0.168D+00 0.237D+00 0.463D+00
 Coeff:     -0.174D-02 0.134D+00 0.168D+00 0.237D+00 0.463D+00
 Gap=     0.181 Goal=   None    Shift=    0.000
 RMSDP=2.06D-08 MaxDP=6.93D-07 DE=-8.24D-09 OVMax= 1.79D-06

 Cycle  13  Pass 1  IDiag  1:
 RMSU=  1.96D-08    CP:  1.00D+00  1.01D+00  5.30D-01  5.08D-01  9.31D-01
 E= -580.188440727623     Delta-E=       -0.000000000046 Rises=F Damp=F
 DIIS: error= 8.01D-08 at cycle   6 NSaved=   6.
 NSaved= 6 IEnMin= 6 EnMin= -580.188440727623     IErMin= 6 ErrMin= 8.01D-08
 ErrMax= 8.01D-08  0.00D+00 EMaxC= 1.00D-01 BMatC= 1.61D-12 BMatP= 5.69D-11
 IDIUse=1 WtCom= 1.00D+00 WtEn= 0.00D+00
 Coeff-Com: -0.350D-03 0.225D-01 0.279D-01 0.421D-01 0.169D+00 0.739D+00
 Coeff:     -0.350D-03 0.225D-01 0.279D-01 0.421D-01 0.169D+00 0.739D+00
 Gap=     0.181 Goal=   None    Shift=    0.000
 RMSDP=4.05D-09 MaxDP=1.79D-07 DE=-4.57D-11 OVMax= 2.62D-07

 SCF Done:  E(RB3LYP) =  -580.188440728     A.U. after   13 cycles
            NFock= 13  Conv=0.41D-08     -V/T= 2.0048
 KE= 5.774370991583D+02 PE=-3.197376161115D+03 EE= 1.113722354007D+03
 Leave Link  502 at Wed Mar 11 11:28:40 2026, MaxMem=   104857600 cpu:             117.9 elap:             118.1
 (Enter /sw/cluster/pub/apps//g16/l601.exe)
 Copying SCF densities to generalized density rwf, IOpCl= 0 IROHF=0.

 **********************************************************************

            Population analysis using the SCF density.

 **********************************************************************

 Orbital symmetries:
       Occupied  (A) (A) (A) (A) (A) (A) (A) (A) (A) (A) (A) (A)
                 (A) (A) (A) (A) (A) (A) (A) (A) (A) (A) (A) (A)
                 (A) (A) (A) (A) (A) (A) (A) (A) (A) (A) (A) (A)
                 (A) (A) (A) (A) (A) (A) (A) (A) (A) (A) (A) (A)
                 (A) (A) (A) (A)
       Virtual   (A) (A) (A) (A) (A) (A) (A) (A) (A) (A) (A) (A)
                 (A) (A) (A) (A) (A) (A) (A) (A) (A) (A) (A) (A)
                 (A) (A) (A) (A) (A) (A) (A) (A) (A) (A) (A) (A)
                 (A) (A) (A) (A) (A) (A) (A) (A) (A) (A) (A) (A)
                 (A) (A) (A) (A) (A) (A) (A) (A) (A) (A) (A) (A)
                 (A) (A) (A) (A) (A) (A) (A) (A) (A) (A) (A) (A)
                 (A) (A) (A) (A) (A) (A) (A) (A) (A) (A) (A) (A)
                 (A) (A) (A) (A) (A) (A) (A) (A) (A) (A) (A) (A)
                 (A) (A) (A) (A) (A) (A) (A) (A) (A) (A) (A) (A)
                 (A) (A) (A) (A) (A) (A) (A) (A) (A) (A) (A) (A)
                 (A) (A) (A) (A) (A) (A) (A) (A) (A) (A) (A) (A)
                 (A) (A) (A) (A) (A) (A) (A) (A) (A) (A) (A) (A)
                 (A) (A) (A) (A) (A) (A) (A) (A) (A) (A) (A) (A)
                 (A) (A) (A) (A) (A) (A) (A) (A) (A) (A) (A) (A)
                 (A) (A) (A) (A) (A) (A) (A) (A) (A) (A) (A) (A)
                 (A) (A) (A) (A) (A) (A) (A) (A) (A) (A) (A) (A)
                 (A) (A) (A) (A) (A) (A) (A) (A) (A) (A) (A) (A)
                 (A) (A) (A) (A) (A) (A) (A) (A) (A) (A) (A) (A)
                 (A) (A) (A) (A) (A) (A) (A) (A) (A) (A) (A) (A)
                 (A) (A) (A) (A) (A) (A) (A) (A) (A) (A) (A) (A)
                 (A) (A) (A) (A) (A) (A) (A) (A) (A) (A) (A) (A)
                 (A) (A) (A) (A) (A) (A) (A) (A) (A) (A) (A) (A)
                 (A) (A) (A) (A) (A) (A) (A) (A) (A) (A) (A) (A)
                 (A) (A) (A) (A) (A) (A) (A) (A) (A) (A) (A) (A)
                 (A) (A) (A) (A) (A) (A) (A) (A) (A) (A) (A) (A)
                 (A) (A)
 The electronic state is 1-A.
 Alpha  occ. eigenvalues --  -10.19688 -10.17904 -10.17873 -10.17648 -10.17646
 Alpha  occ. eigenvalues --  -10.17531 -10.17530 -10.17513 -10.17512 -10.17455
 Alpha  occ. eigenvalues --  -10.17455 -10.17404 -10.17404 -10.16593 -10.16592
 Alpha  occ. eigenvalues --   -0.89216  -0.84652  -0.81515  -0.77692  -0.74519
 Alpha  occ. eigenvalues --   -0.73481  -0.71631  -0.69056  -0.64694  -0.62435
 Alpha  occ. eigenvalues --   -0.58694  -0.57826  -0.56039  -0.51289  -0.49852
 Alpha  occ. eigenvalues --   -0.47717  -0.45483  -0.45056  -0.43958  -0.43512
 Alpha  occ. eigenvalues --   -0.43211  -0.42186  -0.42116  -0.39539  -0.38587
 Alpha  occ. eigenvalues --   -0.38563  -0.37785  -0.35534  -0.35112  -0.34786
 Alpha  occ. eigenvalues --   -0.34516  -0.32412  -0.32343  -0.28632  -0.25345
 Alpha  occ. eigenvalues --   -0.24973  -0.21993
 Alpha virt. eigenvalues --   -0.03927  -0.01858   0.00012   0.03184   0.03835
 Alpha virt. eigenvalues --    0.05404   0.05424   0.07667   0.07673   0.09647
 Alpha virt. eigenvalues --    0.09727   0.10211   0.10668   0.12430   0.13745
 Alpha virt. eigenvalues --    0.14064   0.14175   0.14739   0.16712   0.17543
 Alpha virt. eigenvalues --    0.19720   0.19953   0.20503   0.23748   0.24293
 Alpha virt. eigenvalues --    0.25000   0.26132   0.26941   0.27506   0.27813
 Alpha virt. eigenvalues --    0.28869   0.30795   0.31341   0.32343   0.35144
 Alpha virt. eigenvalues --    0.36393   0.36507   0.37313   0.39306   0.39484
 Alpha virt. eigenvalues --    0.40338   0.40700   0.40777   0.41706   0.42159
 Alpha virt. eigenvalues --    0.42764   0.43161   0.43691   0.45476   0.45517
 Alpha virt. eigenvalues --    0.46522   0.47366   0.47536   0.47666   0.49661
 Alpha virt. eigenvalues --    0.49811   0.51202   0.52452   0.53023   0.54297
 Alpha virt. eigenvalues --    0.55072   0.55336   0.55568   0.57761   0.58041
 Alpha virt. eigenvalues --    0.58400   0.58920   0.59607   0.60577   0.61041
 Alpha virt. eigenvalues --    0.61753   0.62488   0.62795   0.62848   0.63723
 Alpha virt. eigenvalues --    0.64173   0.64664   0.65670   0.66340   0.67195
 Alpha virt. eigenvalues --    0.69159   0.69962   0.72715   0.72788   0.75101
 Alpha virt. eigenvalues --    0.75569   0.76048   0.76455   0.78942   0.80610
 Alpha virt. eigenvalues --    0.82049   0.83016   0.84550   0.85087   0.86899
 Alpha virt. eigenvalues --    0.88641   0.88854   0.89178   0.94024   0.95831
 Alpha virt. eigenvalues --    0.96281   0.97506   1.01497   1.01962   1.02387
 Alpha virt. eigenvalues --    1.02980   1.04147   1.04979   1.06812   1.07062
 Alpha virt. eigenvalues --    1.07241   1.09343   1.10361   1.10861   1.15163
 Alpha virt. eigenvalues --    1.15862   1.16539   1.18536   1.21007   1.22498
 Alpha virt. eigenvalues --    1.24617   1.28019   1.28440   1.32268   1.38266
 Alpha virt. eigenvalues --    1.40279   1.42988   1.43005   1.44144   1.44800
 Alpha virt. eigenvalues --    1.45718   1.46379   1.47158   1.48111   1.48196
 Alpha virt. eigenvalues --    1.48213   1.49359   1.49736   1.54339   1.55305
 Alpha virt. eigenvalues --    1.55537   1.55981   1.57076   1.57439   1.57829
 Alpha virt. eigenvalues --    1.58450   1.59801   1.60947   1.62213   1.63280
 Alpha virt. eigenvalues --    1.64474   1.65796   1.66355   1.66755   1.68337
 Alpha virt. eigenvalues --    1.70007   1.71361   1.72177   1.73172   1.73851
 Alpha virt. eigenvalues --    1.74584   1.75033   1.76143   1.77903   1.80410
 Alpha virt. eigenvalues --    1.82116   1.82373   1.84101   1.84621   1.86350
 Alpha virt. eigenvalues --    1.87873   1.89327   1.89332   1.90269   1.90344
 Alpha virt. eigenvalues --    1.91408   1.92290   1.93377   1.93975   1.94498
 Alpha virt. eigenvalues --    1.97504   1.99376   2.00377   2.03374   2.06442
 Alpha virt. eigenvalues --    2.06609   2.08828   2.09674   2.09996   2.11181
 Alpha virt. eigenvalues --    2.11359   2.12154   2.18348   2.22115   2.22849
 Alpha virt. eigenvalues --    2.25945   2.26387   2.26517   2.30872   2.32603
 Alpha virt. eigenvalues --    2.33215   2.34757   2.35172   2.38488   2.40572
 Alpha virt. eigenvalues --    2.42014   2.42353   2.43715   2.46542   2.48488
 Alpha virt. eigenvalues --    2.49639   2.51024   2.51916   2.51991   2.52919
 Alpha virt. eigenvalues --    2.56136   2.56288   2.57631   2.58998   2.60413
 Alpha virt. eigenvalues --    2.61694   2.61784   2.62154   2.63521   2.63883
 Alpha virt. eigenvalues --    2.64560   2.65584   2.66160   2.68377   2.69702
 Alpha virt. eigenvalues --    2.71606   2.71703   2.71990   2.72970   2.73261
 Alpha virt. eigenvalues --    2.76653   2.79947   2.80441   2.81231   2.82431
 Alpha virt. eigenvalues --    2.83446   2.86447   2.88539   2.88867   2.91161
 Alpha virt. eigenvalues --    2.91736   2.91754   2.93344   2.98887   3.01162
 Alpha virt. eigenvalues --    3.06622   3.12010   3.13564   3.14266   3.20363
 Alpha virt. eigenvalues --    3.20657   3.24168   3.25136   3.32759   3.37063
 Alpha virt. eigenvalues --    3.39184   3.39954   3.45175   3.46809   3.48035
 Alpha virt. eigenvalues --    3.54514   3.56943   3.62250   3.68038   3.71091
 Alpha virt. eigenvalues --    3.76348   3.77647   3.81257   3.82426   3.85030
 Alpha virt. eigenvalues --    4.01858   4.02405   4.02799   4.05761   4.12835
 Alpha virt. eigenvalues --    4.20430   4.24642   4.32716   4.41173   4.61064
 Alpha virt. eigenvalues --    4.82178   4.86242  23.43378  23.62681  23.80622
 Alpha virt. eigenvalues --   23.91168  23.91496  23.92316  23.93168  23.93782
 Alpha virt. eigenvalues --   23.98547  24.06553  24.07357  24.09300  24.10158
 Alpha virt. eigenvalues --   24.17828  24.18248
          Condensed to atoms (all electrons):
               1          2          3          4          5          6
     1  C    5.255281   0.363201  -0.083010  -0.082909   0.363178  -0.057121
     2  C    0.363201   5.117777   0.539659  -0.050477  -0.126917   0.006845
     3  C   -0.083010   0.539659   4.908354   0.400733  -0.050442   0.013841
     4  C   -0.082909  -0.050477   0.400733   4.908000   0.539626  -0.038837
     5  C    0.363178  -0.126917  -0.050442   0.539626   5.117668   0.508896
     6  C   -0.057121   0.006845   0.013841  -0.038837   0.508896   4.827880
     7  C    0.005852  -0.000903   0.000983  -0.043055  -0.048578   0.514505
     8  C    0.000004  -0.000477   0.010790  -0.040625  -0.049902  -0.050023
     9  C    0.010148   0.007178  -0.070015   0.513802  -0.063046  -0.043685
    10  H   -0.000539  -0.000141  -0.014287  -0.037806   0.009777  -0.000862
    11  H    0.000042   0.000014  -0.000435   0.007406   0.000213   0.007335
    12  H   -0.000383   0.000035  -0.000018  -0.000112   0.008508  -0.040470
    13  H   -0.006781   0.000769  -0.000860   0.008570  -0.044465   0.415594
    14  C    0.010131  -0.063043   0.513814  -0.069975   0.007188  -0.000229
    15  C    0.000005  -0.049909  -0.040630   0.010797  -0.000479  -0.000001
    16  C    0.005843  -0.048630  -0.043035   0.000991  -0.000903  -0.000001
    17  C   -0.057024   0.508864  -0.038855   0.013834   0.006844  -0.000171
    18  H   -0.006771  -0.044459   0.008569  -0.000860   0.000768   0.000016
    19  H   -0.000382   0.008512  -0.000115  -0.000018   0.000035   0.000000
    20  H    0.000042   0.000215   0.007403  -0.000436   0.000014  -0.000000
    21  H   -0.000539   0.009776  -0.037792  -0.014308  -0.000140   0.000035
    22  C    0.360624  -0.072970   0.000967   0.000974  -0.072909  -0.003653
    23  H   -0.030932  -0.005156   0.002027   0.002032  -0.005148   0.000098
    24  H   -0.029844   0.009722  -0.000083  -0.000786  -0.011505   0.003941
    25  H   -0.029843  -0.011514  -0.000786  -0.000084   0.009728  -0.000161
    26  C    0.360560  -0.072974   0.000938   0.000966  -0.072886  -0.003647
    27  H   -0.029835  -0.011498  -0.000786  -0.000084   0.009727  -0.000161
    28  H   -0.029837   0.009721  -0.000081  -0.000788  -0.011519   0.003946
    29  H   -0.030934  -0.005166   0.002030   0.002037  -0.005150   0.000096
               7          8          9         10         11         12
     1  C    0.005852   0.000004   0.010148  -0.000539   0.000042  -0.000383
     2  C   -0.000903  -0.000477   0.007178  -0.000141   0.000014   0.000035
     3  C    0.000983   0.010790  -0.070015  -0.014287  -0.000435  -0.000018
     4  C   -0.043055  -0.040625   0.513802  -0.037806   0.007406  -0.000112
     5  C   -0.048578  -0.049902  -0.063046   0.009777   0.000213   0.008508
     6  C    0.514505  -0.050023  -0.043685  -0.000862   0.007335  -0.040470
     7  C    4.867284   0.516275  -0.060546   0.007565  -0.042754   0.412309
     8  C    0.516275   4.868429   0.509981  -0.045817   0.411684  -0.044194
     9  C   -0.060546   0.509981   4.853089   0.414408  -0.039219   0.007775
    10  H    0.007565  -0.045817   0.414408   0.589681  -0.007608  -0.000328
    11  H   -0.042754   0.411684  -0.039219  -0.007608   0.580093  -0.007978
    12  H    0.412309  -0.044194   0.007775  -0.000328  -0.007978   0.581307
    13  H   -0.042546   0.007397  -0.000262   0.000087  -0.000360  -0.007656
    14  C    0.000097  -0.000073  -0.002230   0.002820   0.000005  -0.000002
    15  C    0.000000  -0.000002  -0.000073   0.000106  -0.000000   0.000000
    16  C    0.000000   0.000000   0.000097  -0.000008  -0.000000   0.000000
    17  C   -0.000001  -0.000001  -0.000228   0.000035  -0.000000   0.000000
    18  H   -0.000001   0.000000  -0.000002   0.000001   0.000000  -0.000000
    19  H    0.000000   0.000000  -0.000002  -0.000001  -0.000000  -0.000000
    20  H   -0.000000  -0.000000   0.000005   0.000009   0.000000  -0.000000
    21  H   -0.000008   0.000107   0.002820   0.000949   0.000009  -0.000001
    22  C   -0.000108   0.000035  -0.000263   0.000017   0.000000   0.000003
    23  H   -0.000084  -0.000027  -0.000116   0.000003  -0.000001   0.000004
    24  H    0.000061   0.000001  -0.000029   0.000001  -0.000000   0.000011
    25  H    0.000020  -0.000002   0.000024  -0.000002   0.000000  -0.000001
    26  C   -0.000108   0.000035  -0.000263   0.000017   0.000000   0.000003
    27  H    0.000020  -0.000002   0.000024  -0.000002   0.000000  -0.000001
    28  H    0.000061   0.000001  -0.000030   0.000001  -0.000000   0.000011
    29  H   -0.000084  -0.000027  -0.000116   0.000003  -0.000001   0.000004
              13         14         15         16         17         18
     1  C   -0.006781   0.010131   0.000005   0.005843  -0.057024  -0.006771
     2  C    0.000769  -0.063043  -0.049909  -0.048630   0.508864  -0.044459
     3  C   -0.000860   0.513814  -0.040630  -0.043035  -0.038855   0.008569
     4  C    0.008570  -0.069975   0.010797   0.000991   0.013834  -0.000860
     5  C   -0.044465   0.007188  -0.000479  -0.000903   0.006844   0.000768
     6  C    0.415594  -0.000229  -0.000001  -0.000001  -0.000171   0.000016
     7  C   -0.042546   0.000097   0.000000   0.000000  -0.000001  -0.000001
     8  C    0.007397  -0.000073  -0.000002   0.000000  -0.000001   0.000000
     9  C   -0.000262  -0.002230  -0.000073   0.000097  -0.000228  -0.000002
    10  H    0.000087   0.002820   0.000106  -0.000008   0.000035   0.000001
    11  H   -0.000360   0.000005  -0.000000  -0.000000  -0.000000   0.000000
    12  H   -0.007656  -0.000002   0.000000   0.000000   0.000000  -0.000000
    13  H    0.587785  -0.000002   0.000000  -0.000001   0.000016   0.000004
    14  C   -0.000002   4.852909   0.509944  -0.060613  -0.043648  -0.000260
    15  C    0.000000   0.509944   4.868470   0.516313  -0.049981   0.007397
    16  C   -0.000001  -0.060613   0.516313   4.867244   0.514558  -0.042538
    17  C    0.000016  -0.043648  -0.049981   0.514558   4.827850   0.415581
    18  H    0.000004  -0.000260   0.007397  -0.042538   0.415581   0.587772
    19  H   -0.000000   0.007779  -0.044204   0.412309  -0.040474  -0.007662
    20  H    0.000000  -0.039219   0.411674  -0.042741   0.007331  -0.000360
    21  H    0.000001   0.414423  -0.045810   0.007561  -0.000864   0.000087
    22  C    0.000303  -0.000264   0.000035  -0.000108  -0.003643   0.000305
    23  H    0.000112  -0.000117  -0.000027  -0.000084   0.000101   0.000114
    24  H    0.001215   0.000024  -0.000002   0.000020  -0.000162  -0.000192
    25  H   -0.000192  -0.000029   0.000001   0.000061   0.003941   0.001214
    26  C    0.000302  -0.000264   0.000035  -0.000109  -0.003642   0.000305
    27  H   -0.000192  -0.000029   0.000001   0.000061   0.003940   0.001211
    28  H    0.001216   0.000024  -0.000002   0.000020  -0.000161  -0.000192
    29  H    0.000112  -0.000117  -0.000027  -0.000085   0.000101   0.000114
              19         20         21         22         23         24
     1  C   -0.000382   0.000042  -0.000539   0.360624  -0.030932  -0.029844
     2  C    0.008512   0.000215   0.009776  -0.072970  -0.005156   0.009722
     3  C   -0.000115   0.007403  -0.037792   0.000967   0.002027  -0.000083
     4  C   -0.000018  -0.000436  -0.014308   0.000974   0.002032  -0.000786
     5  C    0.000035   0.000014  -0.000140  -0.072909  -0.005148  -0.011505
     6  C    0.000000  -0.000000   0.000035  -0.003653   0.000098   0.003941
     7  C    0.000000  -0.000000  -0.000008  -0.000108  -0.000084   0.000061
     8  C    0.000000  -0.000000   0.000107   0.000035  -0.000027   0.000001
     9  C   -0.000002   0.000005   0.002820  -0.000263  -0.000116  -0.000029
    10  H   -0.000001   0.000009   0.000949   0.000017   0.000003   0.000001
    11  H   -0.000000   0.000000   0.000009   0.000000  -0.000001  -0.000000
    12  H   -0.000000  -0.000000  -0.000001   0.000003   0.000004   0.000011
    13  H   -0.000000   0.000000   0.000001   0.000303   0.000112   0.001215
    14  C    0.007779  -0.039219   0.414423  -0.000264  -0.000117   0.000024
    15  C   -0.044204   0.411674  -0.045810   0.000035  -0.000027  -0.000002
    16  C    0.412309  -0.042741   0.007561  -0.000108  -0.000084   0.000020
    17  C   -0.040474   0.007331  -0.000864  -0.003643   0.000101  -0.000162
    18  H   -0.007662  -0.000360   0.000087   0.000305   0.000114  -0.000192
    19  H    0.581327  -0.007979  -0.000327   0.000003   0.000004  -0.000001
    20  H   -0.007979   0.580079  -0.007596   0.000000  -0.000001   0.000000
    21  H   -0.000327  -0.007596   0.589654   0.000017   0.000003  -0.000002
    22  C    0.000003   0.000000   0.000017   4.880559   0.401552   0.397234
    23  H    0.000004  -0.000001   0.000003   0.401552   0.564287  -0.027064
    24  H   -0.000001   0.000000  -0.000002   0.397234  -0.027064   0.586123
    25  H    0.000011  -0.000000   0.000001   0.397239  -0.027058  -0.029190
    26  C    0.000003   0.000000   0.000017  -0.074227   0.008752  -0.005072
    27  H    0.000010  -0.000000   0.000001  -0.005124  -0.000156  -0.000566
    28  H   -0.000001   0.000000  -0.000002  -0.005065  -0.000159   0.002645
    29  H    0.000004  -0.000001   0.000003   0.008753  -0.000465  -0.000158
              25         26         27         28         29
     1  C   -0.029843   0.360560  -0.029835  -0.029837  -0.030934
     2  C   -0.011514  -0.072974  -0.011498   0.009721  -0.005166
     3  C   -0.000786   0.000938  -0.000786  -0.000081   0.002030
     4  C   -0.000084   0.000966  -0.000084  -0.000788   0.002037
     5  C    0.009728  -0.072886   0.009727  -0.011519  -0.005150
     6  C   -0.000161  -0.003647  -0.000161   0.003946   0.000096
     7  C    0.000020  -0.000108   0.000020   0.000061  -0.000084
     8  C   -0.000002   0.000035  -0.000002   0.000001  -0.000027
     9  C    0.000024  -0.000263   0.000024  -0.000030  -0.000116
    10  H   -0.000002   0.000017  -0.000002   0.000001   0.000003
    11  H    0.000000   0.000000   0.000000  -0.000000  -0.000001
    12  H   -0.000001   0.000003  -0.000001   0.000011   0.000004
    13  H   -0.000192   0.000302  -0.000192   0.001216   0.000112
    14  C   -0.000029  -0.000264  -0.000029   0.000024  -0.000117
    15  C    0.000001   0.000035   0.000001  -0.000002  -0.000027
    16  C    0.000061  -0.000109   0.000061   0.000020  -0.000085
    17  C    0.003941  -0.003642   0.003940  -0.000161   0.000101
    18  H    0.001214   0.000305   0.001211  -0.000192   0.000114
    19  H    0.000011   0.000003   0.000010  -0.000001   0.000004
    20  H   -0.000000   0.000000  -0.000000   0.000000  -0.000001
    21  H    0.000001   0.000017   0.000001  -0.000002   0.000003
    22  C    0.397239  -0.074227  -0.005124  -0.005065   0.008753
    23  H   -0.027058   0.008752  -0.000156  -0.000159  -0.000465
    24  H   -0.029190  -0.005072  -0.000566   0.002645  -0.000158
    25  H    0.586160  -0.005117   0.002653  -0.000567  -0.000156
    26  C   -0.005117   4.880668   0.397224   0.397220   0.401547
    27  H    0.002653   0.397224   0.586174  -0.029184  -0.027071
    28  H   -0.000567   0.397220  -0.029184   0.586119  -0.027054
    29  H   -0.000156   0.401547  -0.027071  -0.027054   0.564295
 Mulliken charges:
               1
     1  C   -0.258227
     2  C   -0.018056
     3  C   -0.028878
     4  C   -0.028606
     5  C   -0.018182
     6  C   -0.064008
     7  C   -0.086256
     8  C   -0.093567
     9  C   -0.039226
    10  H    0.081922
    11  H    0.091555
    12  H    0.091172
    13  H    0.079834
    14  C   -0.039044
    15  C   -0.093633
    16  C   -0.086223
    17  C   -0.064140
    18  H    0.079841
    19  H    0.091166
    20  H    0.091562
    21  H    0.081928
    22  C   -0.210286
    23  H    0.117503
    24  H    0.103660
    25  H    0.103652
    26  C   -0.210285
    27  H    0.103648
    28  H    0.103660
    29  H    0.117512
 Sum of Mulliken charges =  -0.00000
 Mulliken charges with hydrogens summed into heavy atoms:
               1
     1  C   -0.258227
     2  C   -0.018056
     3  C   -0.028878
     4  C   -0.028606
     5  C   -0.018182
     6  C    0.015826
     7  C    0.004916
     8  C   -0.002012
     9  C    0.042695
    14  C    0.042885
    15  C   -0.002070
    16  C    0.004944
    17  C    0.015702
    22  C    0.114529
    26  C    0.114535
 Electronic spatial extent (au):  <R**2>=           2919.5360
 Charge=              0.0000 electrons
 Dipole moment (field-independent basis, Debye):
    X=              0.0000    Y=              0.4411    Z=              0.0007  Tot=              0.4411
 Quadrupole moment (field-independent basis, Debye-Ang):
   XX=            -81.9255   YY=            -80.7727   ZZ=            -94.6056
   XY=              0.0010   XZ=             -0.0003   YZ=             -0.0005
 Traceless Quadrupole moment (field-independent basis, Debye-Ang):
   XX=              3.8425   YY=              4.9952   ZZ=             -8.8377
   XY=              0.0010   XZ=             -0.0003   YZ=             -0.0005
 Octapole moment (field-independent basis, Debye-Ang**2):
  XXX=             -0.0043  YYY=            -12.2464  ZZZ=              0.0004  XYY=             -0.0013
  XXY=             -1.5354  XXZ=              0.0062  XZZ=              0.0008  YZZ=              4.9679
  YYZ=              0.0034  XYZ=             -0.0027
 Hexadecapole moment (field-independent basis, Debye-Ang**3):
 XXXX=          -2274.2551 YYYY=          -1276.9068 ZZZZ=           -281.1335 XXXY=             -0.0011
 XXXZ=             -0.0123 YYYX=              0.0154 YYYZ=             -0.0028 ZZZX=              0.0043
 ZZZY=             -0.0056 XXYY=           -584.6669 XXZZ=           -514.5319 YYZZ=           -288.8350
 XXYZ=             -0.0013 YYXZ=              0.0001 ZZXY=             -0.0044
 N-N= 9.260282672228D+02 E-N=-3.197376156090D+03  KE= 5.774370991583D+02
 No NMR shielding tensors so no spin-rotation constants.
 Leave Link  601 at Wed Mar 11 11:28:40 2026, MaxMem=   104857600 cpu:               0.1 elap:               0.1
 (Enter /sw/cluster/pub/apps//g16/l701.exe)
 ... and contract with generalized density number  0.
 Compute integral first derivatives.
 Leave Link  701 at Wed Mar 11 11:28:40 2026, MaxMem=   104857600 cpu:               0.1 elap:               0.1
 (Enter /sw/cluster/pub/apps//g16/l702.exe)
 L702 exits ... SP integral derivatives will be done elsewhere.
 Leave Link  702 at Wed Mar 11 11:28:40 2026, MaxMem=   104857600 cpu:               0.0 elap:               0.0
 (Enter /sw/cluster/pub/apps//g16/l703.exe)
 Integral derivatives from FoFJK, PRISM(SPDF).
 Compute integral first derivatives, UseDBF=F ICtDFT=           0.
 Calling FoFJK, ICntrl=      2127 FMM=F ISym2X=0 I1Cent= 0 IOpClX= 0 NMat=1 NMatS=1 NMatT=0.
 FoFJK:  IHMeth= 1 ICntrl=    2127 DoSepK=F KAlg= 0 I1Cent=           0 FoldK=F
 IRaf=         0 NMat=       1 IRICut=       1 DoRegI=T DoRafI=F ISym2E= 0 IDoP0=0 IntGTp=1.
 FoFCou: FMM=F IPFlag=           0 FMFlag=      100000 FMFlg1=         800
         NFxFlg=           0 DoJE=F BraDBF=F KetDBF=F FulRan=T
         wScrn=  0.000000 ICntrl=      2127 IOpCl=  0 I1Cent=           0 NGrid=           0
         NMat0=    1 NMatS0=      1 NMatT0=    0 NMatD0=    1 NMtDS0=    0 NMtDT0=    0
 Symmetry not used in FoFCou.
 Leave Link  703 at Wed Mar 11 11:29:22 2026, MaxMem=   104857600 cpu:              42.0 elap:              42.1
 (Enter /sw/cluster/pub/apps//g16/l716.exe)
 Dipole        = 9.70480566D-06 1.73550479D-01 2.69666526D-04
 ***** Axes restored to original set *****
 -------------------------------------------------------------------
 Center     Atomic                   Forces (Hartrees/Bohr)
 Number     Number              X              Y              Z
 -------------------------------------------------------------------
      1        6          -0.000220682   -0.000515778    0.000014474
      2        6           0.001845922    0.000598464    0.000012969
      3        6           0.000240477   -0.001263918    0.000031758
      4        6          -0.001336597    0.000102802   -0.000016152
      5        6           0.000210465    0.001827048   -0.000053653
      6        6           0.000467246    0.000324402   -0.000006261
      7        6           0.000647078   -0.000314164    0.000014102
      8        6           0.000070541   -0.000712513    0.000006485
      9        6          -0.000781166    0.000049184    0.000002495
     10        1          -0.001565142   -0.000797319    0.000005279
     11        1          -0.000094360   -0.001725567    0.000028165
     12        1           0.001532281   -0.000792045    0.000028171
     13        1           0.001432877    0.000995804   -0.000000828
     14        6           0.000092582   -0.000837048    0.000012083
     15        6          -0.000718843   -0.000042284    0.000001871
     16        6          -0.000357814    0.000608026   -0.000017560
     17        6           0.000236427    0.000540986   -0.000012543
     18        1           0.000766630    0.001527888   -0.000020601
     19        1          -0.000990740    0.001416789   -0.000030524
     20        1          -0.001699047   -0.000317404   -0.000006691
     21        1          -0.000536161   -0.001653268    0.000026162
     22        6          -0.000428619   -0.000423652    0.001124513
     23        1          -0.000507322   -0.000611931   -0.001427797
     24        1           0.001639936   -0.000093800   -0.000087497
     25        1          -0.000311260    0.001604348   -0.000101743
     26        6          -0.000425064   -0.000481580   -0.001138403
     27        1          -0.000318355    0.001647784    0.000055768
     28        1           0.001648724   -0.000101691    0.000117662
     29        1          -0.000540014   -0.000559563    0.001438295
 -------------------------------------------------------------------
 Cartesian Forces:  Max     0.001845922 RMS     0.000820744
 Leave Link  716 at Wed Mar 11 11:29:22 2026, MaxMem=   104857600 cpu:               0.0 elap:               0.0
 (Enter /sw/cluster/pub/apps//g16/l103.exe)

 GradGradGradGradGradGradGradGradGradGradGradGradGradGradGradGradGradGrad
 Berny optimization.
 FormGI is forming the generalized inverse of G from B-inverse, IUseBI=4.
 Internal  Forces:  Max     0.002630614 RMS     0.000806055
 Search for a local minimum.
 Step number   1 out of a maximum of  174
 All quantities printed in internal units (Hartrees-Bohrs-Radians)
 RMS Force = .80605D-03 SwitMx=.10000D-02 MixMth= 2
 Mixed Optimization -- En-DIIS/RFO-DIIS
 Second derivative matrix not updated -- first step.
 ITU=  0
     Eigenvalues ---    0.00230   0.00230   0.00755   0.01247   0.01447
     Eigenvalues ---    0.01649   0.01717   0.01880   0.02096   0.02097
     Eigenvalues ---    0.02113   0.02113   0.02118   0.02119   0.02135
     Eigenvalues ---    0.02135   0.02145   0.02146   0.02160   0.02161
     Eigenvalues ---    0.04412   0.05430   0.05430   0.05498   0.05499
     Eigenvalues ---    0.05969   0.08008   0.11622   0.16000   0.16000
     Eigenvalues ---    0.16000   0.16000   0.16000   0.16000   0.16000
     Eigenvalues ---    0.16000   0.16000   0.16000   0.16000   0.16000
     Eigenvalues ---    0.16000   0.16000   0.18959   0.22000   0.22000
     Eigenvalues ---    0.22600   0.22628   0.24494   0.24596   0.25000
     Eigenvalues ---    0.28039   0.28040   0.28507   0.29046   0.34098
     Eigenvalues ---    0.34102   0.34104   0.34106   0.34282   0.34283
     Eigenvalues ---    0.34531   0.35074   0.35080   0.35140   0.35144
     Eigenvalues ---    0.35181   0.35181   0.35184   0.35185   0.37944
     Eigenvalues ---    0.40615   0.42113   0.42123   0.44326   0.44713
     Eigenvalues ---    0.45815   0.45816   0.46110   0.46111   0.46877
     Eigenvalues ---    0.46883
 RFO step:  Lambda=-2.71611920D-04 EMin= 2.30000000D-03
 Linear search not attempted -- first point.
 Iteration  1 RMS(Cart)=  0.00418021 RMS(Int)=  0.00000184
 Iteration  2 RMS(Cart)=  0.00000288 RMS(Int)=  0.00000019
 Iteration  3 RMS(Cart)=  0.00000000 RMS(Int)=  0.00000019
 ITry= 1 IFail=0 DXMaxC= 1.58D-02 DCOld= 1.00D+10 DXMaxT= 3.00D-01 DXLimC= 3.00D+00 Rises=F
 Variable       Old X    -DE/DX   Delta X   Delta X   Delta X     New X
                                 (Linear)    (Quad)   (Total)
    R1        2.88883  -0.00072   0.00000  -0.00205  -0.00205   2.88678
    R2        2.88841  -0.00067   0.00000  -0.00186  -0.00186   2.88655
    R3        2.92052  -0.00075   0.00000  -0.00269  -0.00269   2.91783
    R4        2.92053  -0.00075   0.00000  -0.00266  -0.00266   2.91787
    R5        2.66325  -0.00238   0.00000  -0.00545  -0.00545   2.65780
    R6        2.62762  -0.00217   0.00000  -0.00456  -0.00456   2.62306
    R7        2.77576  -0.00057   0.00000  -0.00199  -0.00199   2.77377
    R8        2.63863  -0.00186   0.00000  -0.00401  -0.00401   2.63463
    R9        2.66305  -0.00232   0.00000  -0.00527  -0.00527   2.65778
   R10        2.63866  -0.00188   0.00000  -0.00403  -0.00403   2.63463
   R11        2.62755  -0.00214   0.00000  -0.00449  -0.00449   2.62306
   R12        2.64570  -0.00242   0.00000  -0.00532  -0.00532   2.64038
   R13        2.05555  -0.00174   0.00000  -0.00495  -0.00495   2.05060
   R14        2.64321  -0.00259   0.00000  -0.00572  -0.00572   2.63749
   R15        2.05375  -0.00172   0.00000  -0.00489  -0.00489   2.04886
   R16        2.63942  -0.00248   0.00000  -0.00542  -0.00542   2.63400
   R17        2.05382  -0.00172   0.00000  -0.00490  -0.00490   2.04892
   R18        2.05449  -0.00175   0.00000  -0.00499  -0.00499   2.04950
   R19        2.63939  -0.00247   0.00000  -0.00540  -0.00540   2.63399
   R20        2.05441  -0.00173   0.00000  -0.00492  -0.00492   2.04949
   R21        2.64327  -0.00263   0.00000  -0.00580  -0.00580   2.63747
   R22        2.05382  -0.00173   0.00000  -0.00490  -0.00490   2.04892
   R23        2.64571  -0.00242   0.00000  -0.00532  -0.00532   2.64038
   R24        2.05377  -0.00173   0.00000  -0.00491  -0.00491   2.04886
   R25        2.05546  -0.00170   0.00000  -0.00485  -0.00485   2.05060
   R26        2.06855  -0.00163   0.00000  -0.00474  -0.00474   2.06381
   R27        2.07155  -0.00164   0.00000  -0.00481  -0.00481   2.06674
   R28        2.07152  -0.00164   0.00000  -0.00479  -0.00479   2.06672
   R29        2.07164  -0.00168   0.00000  -0.00492  -0.00492   2.06673
   R30        2.07159  -0.00165   0.00000  -0.00485  -0.00485   2.06674
   R31        2.06856  -0.00163   0.00000  -0.00475  -0.00475   2.06381
    A1        1.76651  -0.00006   0.00000  -0.00052  -0.00052   1.76598
    A2        1.94379  -0.00005   0.00000  -0.00038  -0.00038   1.94341
    A3        1.94345  -0.00003   0.00000  -0.00018  -0.00018   1.94327
    A4        1.94438  -0.00006   0.00000  -0.00087  -0.00087   1.94351
    A5        1.94430  -0.00007   0.00000  -0.00091  -0.00091   1.94339
    A6        1.91768   0.00023   0.00000   0.00255   0.00255   1.92023
    A7        1.93555  -0.00012   0.00000   0.00006   0.00006   1.93561
    A8        2.24948   0.00001   0.00000  -0.00040  -0.00040   2.24908
    A9        2.09815   0.00011   0.00000   0.00034   0.00034   2.09849
   A10        1.89349   0.00017   0.00000   0.00026   0.00026   1.89376
   A11        2.10492  -0.00032   0.00000  -0.00093  -0.00093   2.10399
   A12        2.28477   0.00015   0.00000   0.00067   0.00067   2.28544
   A13        1.89343   0.00018   0.00000   0.00030   0.00030   1.89372
   A14        2.28529   0.00007   0.00000   0.00034   0.00034   2.28563
   A15        2.10447  -0.00025   0.00000  -0.00064  -0.00064   2.10383
   A16        1.93580  -0.00017   0.00000  -0.00009  -0.00009   1.93570
   A17        2.24885   0.00011   0.00000  -0.00002  -0.00002   2.24883
   A18        2.09854   0.00006   0.00000   0.00012   0.00012   2.09865
   A19        2.08040  -0.00001   0.00000   0.00002   0.00002   2.08042
   A20        2.10946   0.00017   0.00000   0.00099   0.00099   2.11045
   A21        2.09333  -0.00015   0.00000  -0.00101  -0.00101   2.09231
   A22        2.10333   0.00007   0.00000   0.00014   0.00014   2.10346
   A23        2.08979   0.00005   0.00000   0.00045   0.00045   2.09024
   A24        2.09007  -0.00012   0.00000  -0.00059  -0.00059   2.08949
   A25        2.10420   0.00006   0.00000   0.00004   0.00004   2.10424
   A26        2.08954  -0.00014   0.00000  -0.00072  -0.00072   2.08882
   A27        2.08945   0.00008   0.00000   0.00068   0.00068   2.09013
   A28        2.07544   0.00008   0.00000   0.00033   0.00033   2.07576
   A29        2.10883   0.00007   0.00000   0.00053   0.00053   2.10936
   A30        2.09892  -0.00015   0.00000  -0.00086  -0.00086   2.09807
   A31        2.07524   0.00011   0.00000   0.00048   0.00048   2.07572
   A32        2.10849   0.00010   0.00000   0.00073   0.00073   2.10922
   A33        2.09946  -0.00021   0.00000  -0.00121  -0.00121   2.09825
   A34        2.10409   0.00006   0.00000   0.00008   0.00008   2.10416
   A35        2.08960   0.00008   0.00000   0.00065   0.00065   2.09024
   A36        2.08950  -0.00014   0.00000  -0.00072  -0.00072   2.08878
   A37        2.10357   0.00003   0.00000  -0.00001  -0.00001   2.10356
   A38        2.08995  -0.00010   0.00000  -0.00050  -0.00050   2.08945
   A39        2.08967   0.00006   0.00000   0.00051   0.00051   2.09018
   A40        2.08040  -0.00000   0.00000   0.00004   0.00004   2.08045
   A41        2.10970   0.00014   0.00000   0.00085   0.00085   2.11055
   A42        2.09308  -0.00014   0.00000  -0.00089  -0.00089   2.09219
   A43        1.93948  -0.00019   0.00000  -0.00132  -0.00132   1.93817
   A44        1.93189  -0.00008   0.00000  -0.00043  -0.00043   1.93146
   A45        1.93145  -0.00003   0.00000  -0.00008  -0.00008   1.93137
   A46        1.88840   0.00012   0.00000   0.00057   0.00057   1.88897
   A47        1.88848   0.00010   0.00000   0.00055   0.00055   1.88903
   A48        1.88231   0.00008   0.00000   0.00080   0.00080   1.88311
   A49        1.93162  -0.00005   0.00000  -0.00026  -0.00026   1.93136
   A50        1.93190  -0.00007   0.00000  -0.00041  -0.00041   1.93149
   A51        1.93935  -0.00017   0.00000  -0.00120  -0.00120   1.93816
   A52        1.88238   0.00009   0.00000   0.00074   0.00074   1.88312
   A53        1.88837   0.00011   0.00000   0.00063   0.00063   1.88900
   A54        1.88839   0.00011   0.00000   0.00058   0.00058   1.88898
    D1       -0.00026   0.00000   0.00000   0.00024   0.00024  -0.00003
    D2        3.14150   0.00000   0.00000   0.00009   0.00009   3.14159
    D3       -2.06842   0.00012   0.00000   0.00171   0.00171  -2.06671
    D4        1.07334   0.00012   0.00000   0.00156   0.00156   1.07490
    D5        2.06765  -0.00012   0.00000  -0.00119  -0.00119   2.06646
    D6       -1.07378  -0.00012   0.00000  -0.00133  -0.00133  -1.07511
    D7        0.00022  -0.00000   0.00000  -0.00021  -0.00021   0.00001
    D8        3.14148   0.00001   0.00000   0.00014   0.00014  -3.14156
    D9        2.06795  -0.00011   0.00000  -0.00132  -0.00132   2.06663
   D10       -1.07397  -0.00011   0.00000  -0.00097  -0.00097  -1.07494
   D11       -2.06708   0.00010   0.00000   0.00069   0.00069  -2.06639
   D12        1.07418   0.00010   0.00000   0.00104   0.00104   1.07522
   D13        0.97876  -0.00007   0.00000   0.00002   0.00002   0.97878
   D14        3.07752  -0.00010   0.00000  -0.00042  -0.00042   3.07710
   D15       -1.11981  -0.00006   0.00000   0.00025   0.00025  -1.11956
   D16       -0.97933   0.00006   0.00000   0.00139   0.00139  -0.97794
   D17        1.11943   0.00004   0.00000   0.00095   0.00095   1.12038
   D18       -3.07790   0.00007   0.00000   0.00162   0.00162  -3.07628
   D19        3.14056   0.00003   0.00000   0.00134   0.00134  -3.14128
   D20       -1.04386   0.00000   0.00000   0.00090   0.00090  -1.04296
   D21        1.04199   0.00004   0.00000   0.00158   0.00158   1.04357
   D22        1.12067   0.00005   0.00000  -0.00114  -0.00114   1.11953
   D23       -3.07646   0.00008   0.00000  -0.00064  -0.00064  -3.07710
   D24       -0.97779   0.00006   0.00000  -0.00097  -0.00097  -0.97876
   D25        3.07851  -0.00007   0.00000  -0.00242  -0.00242   3.07610
   D26       -1.11861  -0.00005   0.00000  -0.00192  -0.00192  -1.12053
   D27        0.98006  -0.00006   0.00000  -0.00224  -0.00224   0.97781
   D28       -1.04133  -0.00003   0.00000  -0.00235  -0.00235  -1.04368
   D29        1.04473  -0.00000   0.00000  -0.00185  -0.00185   1.04288
   D30       -3.13978  -0.00002   0.00000  -0.00218  -0.00218   3.14122
   D31        0.00022  -0.00000   0.00000  -0.00018  -0.00018   0.00003
   D32       -3.14138  -0.00000   0.00000  -0.00016  -0.00016  -3.14154
   D33       -3.14153  -0.00000   0.00000  -0.00005  -0.00005  -3.14158
   D34        0.00006  -0.00000   0.00000  -0.00003  -0.00003   0.00003
   D35        3.14134   0.00000   0.00000   0.00021   0.00021   3.14155
   D36       -0.00017   0.00000   0.00000   0.00009   0.00009  -0.00008
   D37       -0.00008   0.00000   0.00000   0.00006   0.00006  -0.00002
   D38       -3.14159  -0.00000   0.00000  -0.00006  -0.00006   3.14154
   D39       -0.00007   0.00000   0.00000   0.00004   0.00004  -0.00002
   D40       -3.14153  -0.00000   0.00000  -0.00006  -0.00006  -3.14159
   D41        3.14153   0.00000   0.00000   0.00002   0.00002   3.14155
   D42        0.00007  -0.00000   0.00000  -0.00008  -0.00008  -0.00002
   D43        0.00002  -0.00000   0.00000  -0.00004  -0.00004  -0.00003
   D44        3.14157   0.00000   0.00000   0.00002   0.00002   3.14158
   D45       -3.14158  -0.00000   0.00000  -0.00002  -0.00002   3.14159
   D46       -0.00003   0.00000   0.00000   0.00004   0.00004   0.00001
   D47       -0.00011  -0.00000   0.00000   0.00011   0.00011   0.00001
   D48       -3.14140  -0.00001   0.00000  -0.00020  -0.00020   3.14158
   D49        3.14137   0.00000   0.00000   0.00021   0.00021   3.14158
   D50        0.00008  -0.00000   0.00000  -0.00011  -0.00011  -0.00003
   D51        3.14153   0.00000   0.00000   0.00004   0.00004   3.14157
   D52       -0.00007   0.00000   0.00000   0.00007   0.00007  -0.00000
   D53        0.00008  -0.00000   0.00000  -0.00007  -0.00007   0.00001
   D54       -3.14152  -0.00000   0.00000  -0.00005  -0.00005  -3.14157
   D55       -3.14137  -0.00000   0.00000  -0.00023  -0.00023   3.14159
   D56        0.00009  -0.00000   0.00000  -0.00008  -0.00008   0.00001
   D57       -0.00013   0.00000   0.00000   0.00015   0.00015   0.00002
   D58        3.14132   0.00001   0.00000   0.00030   0.00030  -3.14156
   D59        0.00003  -0.00000   0.00000  -0.00001  -0.00001   0.00002
   D60        3.14157   0.00000   0.00000   0.00004   0.00004  -3.14157
   D61       -3.14142  -0.00000   0.00000  -0.00016  -0.00016  -3.14158
   D62        0.00012  -0.00000   0.00000  -0.00011  -0.00011   0.00001
   D63        0.00012  -0.00000   0.00000  -0.00017  -0.00017  -0.00005
   D64       -3.14157  -0.00000   0.00000  -0.00001  -0.00001  -3.14158
   D65       -3.14142  -0.00000   0.00000  -0.00022  -0.00022   3.14155
   D66        0.00008  -0.00000   0.00000  -0.00007  -0.00007   0.00001
   D67       -0.00017   0.00000   0.00000   0.00021   0.00021   0.00003
   D68        3.14143   0.00000   0.00000   0.00018   0.00018  -3.14158
   D69        3.14151   0.00000   0.00000   0.00005   0.00005   3.14157
   D70       -0.00007   0.00000   0.00000   0.00003   0.00003  -0.00004
   D71       -0.00009   0.00000   0.00000   0.00010   0.00010   0.00001
   D72        3.14156   0.00000   0.00000   0.00005   0.00005  -3.14158
   D73        3.14155   0.00000   0.00000   0.00004   0.00004   3.14159
   D74        0.00001  -0.00000   0.00000  -0.00001  -0.00001  -0.00000
   D75        0.00008  -0.00000   0.00000  -0.00008  -0.00008  -0.00000
   D76       -3.14159   0.00000   0.00000   0.00002   0.00002  -3.14157
   D77       -3.14157  -0.00000   0.00000  -0.00002  -0.00002   3.14159
   D78       -0.00005   0.00000   0.00000   0.00007   0.00007   0.00002
   D79        0.00001  -0.00000   0.00000  -0.00000  -0.00000   0.00001
   D80        3.14152   0.00000   0.00000   0.00012   0.00012  -3.14155
   D81       -3.14151  -0.00000   0.00000  -0.00010  -0.00010   3.14157
   D82       -0.00000   0.00000   0.00000   0.00002   0.00002   0.00002
         Item               Value     Threshold  Converged?
 Maximum Force            0.002631     0.000450     NO 
 RMS     Force            0.000806     0.000300     NO 
 Maximum Displacement     0.015796     0.001800     NO 
 RMS     Displacement     0.004180     0.001200     NO 
 Predicted change in Energy=-1.359082D-04
 Lowest energy point so far.  Saving SCF results.
 GradGradGradGradGradGradGradGradGradGradGradGradGradGradGradGradGradGrad

 Leave Link  103 at Wed Mar 11 11:29:22 2026, MaxMem=   104857600 cpu:               0.0 elap:               0.0
 (Enter /sw/cluster/pub/apps//g16/l202.exe)
                          Input orientation:                          
 ---------------------------------------------------------------------
 Center     Atomic      Atomic             Coordinates (Angstroms)
 Number     Number       Type             X           Y           Z
 ---------------------------------------------------------------------
      1          6           0        0.010579    0.005176    0.039727
      2          6           0        1.537379   -0.043261    0.051889
      3          6           0        2.080738    1.253846    0.032753
      4          6           0        0.976894    2.220987    0.007364
      5          6           0       -0.237805    1.512071    0.011026
      6          6           0       -1.446003    2.195104   -0.010057
      7          6           0       -1.438917    3.592092   -0.034912
      8          6           0       -0.233040    4.294815   -0.038577
      9          6           0        0.983570    3.614936   -0.017456
     10          1           0        1.917228    4.166773   -0.020417
     11          1           0       -0.243424    5.378835   -0.057969
     12          1           0       -2.377349    4.134843   -0.051486
     13          1           0       -2.389584    1.659235   -0.007446
     14          6           0        3.461912    1.443754    0.039525
     15          6           0        4.295909    0.327251    0.065603
     16          6           0        3.757590   -0.960306    0.084623
     17          6           0        2.373448   -1.150977    0.077830
     18          1           0        1.966318   -2.156726    0.092825
     19          1           0        4.419031   -1.819143    0.104850
     20          1           0        5.372063    0.459326    0.071174
     21          1           0        3.886132    2.441781    0.024837
     22          6           0       -0.582382   -0.638271    1.311914
     23          1           0       -0.187326   -0.163151    2.212423
     24          1           0       -1.671531   -0.539481    1.322663
     25          1           0       -0.341217   -1.704202    1.353501
     26          6           0       -0.563465   -0.683162   -1.217580
     27          1           0       -0.321888   -1.749812   -1.217764
     28          1           0       -1.652312   -0.585192   -1.248107
     29          1           0       -0.154897   -0.240133   -2.128366
 ---------------------------------------------------------------------
                    Distance matrix (angstroms):
                    1          2          3          4          5
     1  C    0.000000
     2  C    1.527617   0.000000
     3  C    2.417599   1.406446   0.000000
     4  C    2.417567   2.333012   1.467814   0.000000
     5  C    1.527498   2.360509   2.332980   1.406438   0.000000
     6  C    2.630569   3.730239   3.650438   2.423097   1.388063
     7  C    3.869442   4.699113   4.226103   2.778103   2.402347
     8  C    4.297264   4.686306   3.821799   2.401418   2.783190
     9  C    3.739030   3.700529   2.604044   1.394186   2.431997
    10  H    4.577971   4.227753   2.917997   2.161269   3.419445
    11  H    5.380546   5.708104   4.735556   3.386066   3.867384
    12  H    4.771233   5.726459   5.308651   3.862286   3.385335
    13  H    2.915290   4.280543   4.488845   3.413057   2.156884
    14  C    3.739145   2.432117   1.394186   2.603928   3.700458
    15  C    4.297494   2.783335   2.401383   3.821713   4.686293
    16  C    3.869659   2.402369   2.777947   4.225974   4.699068
    17  C    2.630834   1.388063   2.422990   3.650407   3.730271
    18  H    2.915742   2.156942   3.413019   4.488945   4.280761
    19  H    4.771459   3.385332   3.862133   5.308527   5.726422
    20  H    5.380776   3.867527   3.386083   4.735508   5.708109
    21  H    4.577901   3.419474   2.161180   2.917657   4.227459
    22  C    1.544049   2.536747   3.508357   3.508354   2.536732
    23  H    2.188175   2.767108   3.450066   3.449900   2.766779
    24  H    2.184507   3.486862   4.354240   4.045287   2.825743
    25  H    2.184430   2.825251   4.044785   4.353919   3.486738
    26  C    1.544072   2.536647   3.508154   3.508173   2.536646
    27  H    2.184446   2.825105   4.044548   4.353736   3.486671
    28  H    2.184550   3.486806   4.354116   4.045191   2.825731
    29  H    2.188192   2.766961   3.449706   3.449551   2.766603
                    6          7          8          9         10
     6  C    0.000000
     7  C    1.397228   0.000000
     8  C    2.425052   1.395698   0.000000
     9  C    2.814036   2.422657   1.393851   0.000000
    10  H    3.898578   3.405022   2.154153   1.084551   0.000000
    11  H    3.403621   2.149927   1.084243   2.149068   2.477684
    12  H    2.152141   1.084208   2.150307   3.401064   4.294808
    13  H    1.085130   2.154173   3.405574   3.899106   4.983627
    14  C    4.965341   5.351544   4.667688   3.295369   3.131210
    15  C    6.038555   6.599812   6.021943   4.667694   4.517462
    16  C    6.086291   6.909580   6.599741   5.351489   5.448385
    17  C    5.078600   6.086341   6.038540   4.965356   5.338188
    18  H    5.531088   6.682877   6.817390   5.855769   6.324703
    19  H    7.108164   7.975998   7.683932   6.430129   6.488906
    20  H    7.036017   7.497661   6.792657   5.405978   5.068475
    21  H    5.337951   5.448204   4.517225   3.130965   2.618058
    22  C    3.243679   4.521456   5.126519   4.723261   5.577778
    23  H    3.476356   4.551796   4.994252   4.540627   5.306879
    24  H    3.050403   4.355114   5.224236   5.109272   6.068928
    25  H    4.276029   5.584207   6.159365   5.650470   6.438678
    26  C    3.243671   4.521385   5.126352   4.723056   5.577536
    27  H    4.276044   5.584160   6.159212   5.650264   6.438421
    28  H    3.050471   4.355122   5.224152   5.109153   6.068774
    29  H    3.476286   4.551616   4.993904   4.540221   5.306409
                   11         12         13         14         15
    11  H    0.000000
    12  H    2.470060   0.000000
    13  H    4.294646   2.476030   0.000000
    14  C    5.405911   6.430180   5.855651   0.000000
    15  C    6.792593   7.683999   6.817282   1.393848   0.000000
    16  C    7.497542   7.975997   6.682680   2.422594   1.395690
    17  C    7.035972   7.108212   5.530916   2.814045   2.425111
    18  H    7.854322   7.646705   5.791847   3.899115   3.405565
    19  H    8.577638   9.036878   7.646499   3.401006   2.150280
    20  H    7.466722   8.577754   7.854242   2.149134   1.084243
    21  H    5.068172   6.488719   6.324399   1.084544   2.154256
    22  C    6.180375   5.278577   3.207058   4.723359   5.126719
    23  H    5.989277   5.328625   3.619233   4.540988   4.994869
    24  H    6.242764   4.922984   2.668172   5.650832   6.159688
    25  H    7.222965   6.341472   4.166616   5.108811   5.223831
    26  C    6.180205   5.278553   3.207173   4.723108   5.126501
    27  H    7.222804   6.341474   4.166754   5.108502   5.223531
    28  H    6.242677   4.923038   2.668382   5.650656   6.159523
    29  H    5.988922   5.328521   3.619354   4.540544   4.994507
                   16         17         18         19         20
    16  C    0.000000
    17  C    1.397229   0.000000
    18  H    2.154099   1.085131   0.000000
    19  H    1.084212   2.152112   2.475865   0.000000
    20  H    2.149897   3.403647   4.294566   2.469985   0.000000
    21  H    3.405039   3.898581   4.983631   4.294864   2.477957
    22  C    4.521648   3.243881   3.207453   5.278787   6.180580
    23  H    4.552510   3.477046   3.620112   5.329417   5.989927
    24  H    5.584369   4.276142   4.166764   6.341572   7.223299
    25  H    4.354727   3.050049   2.668107   4.922631   6.242337
    26  C    4.521510   3.243824   3.207547   5.278687   6.180345
    27  H    4.354500   3.049919   2.668166   4.922441   6.242014
    28  H    5.584256   4.276092   4.166809   6.341477   7.223114
    29  H    4.552309   3.476990   3.620299   5.329291   5.989533
                   21         22         23         24         25
    21  H    0.000000
    22  C    5.577715   0.000000
    23  H    5.307001   1.092119   0.000000
    24  H    6.438935   1.093672   1.770921   0.000000
    25  H    6.068360   1.093663   1.770951   1.768406   0.000000
    26  C    5.577435   2.529963   3.489529   2.775119   2.775316
    27  H    6.068027   2.775365   3.781770   3.120930   2.571742
    28  H    6.438735   2.775117   3.781477   2.571248   3.120820
    29  H    5.306492   3.489524   4.341592   3.781453   3.781746
                   26         27         28         29
    26  C    0.000000
    27  H    1.093664   0.000000
    28  H    1.093672   1.768414   0.000000
    29  H    1.092123   1.770935   1.770925   0.000000
 Stoichiometry    C15H14
 Framework group  C1[X(C15H14)]
 Deg. of freedom    81
 Full point group                 C1      NOp   1
 RotChk:  IX=0 Diff= 1.71D-04
 Largest Abelian subgroup         C1      NOp   1
 Largest concise Abelian subgroup C1      NOp   1
                         Standard orientation:                         
 ---------------------------------------------------------------------
 Center     Atomic      Atomic             Coordinates (Angstroms)
 Number     Number       Type             X           Y           Z
 ---------------------------------------------------------------------
      1          6           0       -0.000147    1.414795   -0.000019
      2          6           0        1.180260    0.445129   -0.000047
      3          6           0        0.733998   -0.888640   -0.000025
      4          6           0       -0.733817   -0.888758   -0.000029
      5          6           0       -1.180250    0.444946   -0.000019
      6          6           0       -2.539291    0.727306   -0.000034
      7          6           0       -3.454781   -0.328215   -0.000034
      8          6           0       -3.010902   -1.651446    0.000004
      9          6           0       -1.647612   -1.941722   -0.000013
     10          1           0       -1.309044   -2.972073    0.000003
     11          1           0       -3.733241   -2.460032   -0.000008
     12          1           0       -4.518434   -0.118095   -0.000065
     13          1           0       -2.895849    1.752183   -0.000057
     14          6           0        1.647757   -1.941634    0.000014
     15          6           0        3.011041   -1.651342   -0.000000
     16          6           0        3.454799   -0.328078   -0.000038
     17          6           0        2.539309    0.727445   -0.000065
     18          1           0        2.895998    1.752279   -0.000134
     19          1           0        4.518444   -0.117902   -0.000070
     20          1           0        3.733481   -2.459837    0.000018
     21          1           0        1.309014   -2.971920    0.000040
     22          6           0       -0.000170    2.300359   -1.264876
     23          1           0       -0.000502    1.690376   -2.170771
     24          1           0       -0.884204    2.943929   -1.285424
     25          1           0        0.884203    2.943439   -1.285675
     26          6           0       -0.000125    2.300043    1.265087
     27          1           0        0.884308    2.943036    1.286068
     28          1           0       -0.884106    2.943678    1.285824
     29          1           0       -0.000486    1.689815    2.170821
 ---------------------------------------------------------------------
 Rotational constants (GHZ):           1.0592580           0.5507449           0.3931073
 Leave Link  202 at Wed Mar 11 11:29:22 2026, MaxMem=   104857600 cpu:               0.0 elap:               0.0
 (Enter /sw/cluster/pub/apps//g16/l301.exe)
 Standard basis: 6-311G(d,p) (5D, 7F)
 Ernie: Thresh=  0.10000D-02 Tol=  0.10000D-05 Strict=F.
 There are   369 symmetry adapted cartesian basis functions of A   symmetry.
 There are   354 symmetry adapted basis functions of A   symmetry.
   354 basis functions,   592 primitive gaussians,   369 cartesian basis functions
    52 alpha electrons       52 beta electrons
       nuclear repulsion energy       927.4786592715 Hartrees.
 IExCor=  402 DFT=T Ex+Corr=B3LYP ExCW=0 ScaHFX=  0.200000
 ScaDFX=  0.800000  0.720000  1.000000  0.810000 ScalE2=  1.000000  1.000000
 IRadAn=      5 IRanWt=     -1 IRanGd=            0 ICorTp=0 IEmpDi=  4
 NAtoms=   29 NActive=   29 NUniq=   29 SFac= 1.00D+00 NAtFMM=   60 NAOKFM=F Big=F
 Integral buffers will be    131072 words long.
 Raffenetti 2 integral format.
 Two-electron integral symmetry is turned on.
 Leave Link  301 at Wed Mar 11 11:29:22 2026, MaxMem=   104857600 cpu:               0.0 elap:               0.0
 (Enter /sw/cluster/pub/apps//g16/l302.exe)
 NPDir=0 NMtPBC=     1 NCelOv=     1 NCel=       1 NClECP=     1 NCelD=      1
         NCelK=      1 NCelE2=     1 NClLst=     1 CellRange=     0.0.
 One-electron integrals computed using PRISM.
 One-electron integral symmetry used in STVInt
 NBasis=   354 RedAO= T EigKep=  1.16D-04  NBF=   354
 NBsUse=   354 1.00D-06 EigRej= -1.00D+00 NBFU=   354
 Precomputing XC quadrature grid using
 IXCGrd= 4 IRadAn=           5 IRanWt=          -1 IRanGd=           0 AccXCQ= 0.00D+00.
 Generated NRdTot=       0 NPtTot=           0 NUsed=           0 NTot=          32
 NSgBfM=   369   369   369   369   369 MxSgAt=    29 MxSgA2=    29.
 Leave Link  302 at Wed Mar 11 11:29:23 2026, MaxMem=   104857600 cpu:               0.4 elap:               0.4
 (Enter /sw/cluster/pub/apps//g16/l303.exe)
 DipDrv:  MaxL=1.
 Leave Link  303 at Wed Mar 11 11:29:23 2026, MaxMem=   104857600 cpu:               0.0 elap:               0.0
 (Enter /sw/cluster/pub/apps//g16/l401.exe)
 Initial guess from the checkpoint file:  "f1-6-311Gdp.chk"
 B after Tr=     0.000000    0.000000   -0.000000
         Rot=    1.000000    0.000031    0.000006   -0.000044 Ang=   0.01 deg.
 Guess basis will be translated and rotated to current coordinates.
 JPrj=2 DoOrth=T DoCkMO=T.
 Leave Link  401 at Wed Mar 11 11:29:23 2026, MaxMem=   104857600 cpu:               0.1 elap:               0.1
 (Enter /sw/cluster/pub/apps//g16/l502.exe)
 Integral symmetry usage will be decided dynamically.
 Closed shell SCF:
 Using DIIS extrapolation, IDIIS=  1040.
 NGot=   104857600 LenX=   104579294 LenY=   104442692
 Requested convergence on RMS density matrix=1.00D-08 within 128 cycles.
 Requested convergence on MAX density matrix=1.00D-06.
 Requested convergence on             energy=1.00D-06.
 No special actions if energy rises.
 Fock matrices will be formed incrementally for  20 cycles.

 Cycle   1  Pass 1  IDiag  1:
 FoFJK:  IHMeth= 1 ICntrl=       0 DoSepK=F KAlg= 0 I1Cent=           0 FoldK=F
 IRaf= 870000000 NMat=       1 IRICut=       1 DoRegI=T DoRafI=F ISym2E= 0 IDoP0=0 IntGTp=1.
 FoFCou: FMM=F IPFlag=           0 FMFlag=      100000 FMFlg1=           0
         NFxFlg=           0 DoJE=F BraDBF=F KetDBF=F FulRan=T
         wScrn=  0.000000 ICntrl=         0 IOpCl=  0 I1Cent=           0 NGrid=           0
         NMat0=    1 NMatS0=      1 NMatT0=    0 NMatD0=    1 NMtDS0=    0 NMtDT0=    0
 Symmetry not used in FoFCou.
 E= -580.188535715483    
 DIIS: error= 3.24D-04 at cycle   1 NSaved=   1.
 NSaved= 1 IEnMin= 1 EnMin= -580.188535715483     IErMin= 1 ErrMin= 3.24D-04
 ErrMax= 3.24D-04  0.00D+00 EMaxC= 1.00D-01 BMatC= 3.72D-05 BMatP= 3.72D-05
 IDIUse=3 WtCom= 9.97D-01 WtEn= 3.24D-03
 Coeff-Com:  0.100D+01
 Coeff-En:   0.100D+01
 Coeff:      0.100D+01
 Gap=     0.611 Goal=   None    Shift=    0.000
 RMSDP=2.67D-05 MaxDP=6.46D-04              OVMax= 9.21D-04

 Cycle   2  Pass 1  IDiag  1:
 RMSU=  2.67D-05    CP:  1.00D+00
 E= -580.188561538186     Delta-E=       -0.000025822704 Rises=F Damp=F
 DIIS: error= 1.59D-04 at cycle   2 NSaved=   2.
 NSaved= 2 IEnMin= 2 EnMin= -580.188561538186     IErMin= 2 ErrMin= 1.59D-04
 ErrMax= 1.59D-04  0.00D+00 EMaxC= 1.00D-01 BMatC= 6.06D-06 BMatP= 3.72D-05
 IDIUse=3 WtCom= 9.98D-01 WtEn= 1.59D-03
 Coeff-Com:  0.213D+00 0.787D+00
 Coeff-En:   0.000D+00 0.100D+01
 Coeff:      0.212D+00 0.788D+00
 Gap=     0.181 Goal=   None    Shift=    0.000
 RMSDP=9.79D-06 MaxDP=4.35D-04 DE=-2.58D-05 OVMax= 5.36D-04

 Cycle   3  Pass 1  IDiag  1:
 RMSU=  8.44D-06    CP:  1.00D+00  8.20D-01
 E= -580.188565099246     Delta-E=       -0.000003561059 Rises=F Damp=F
 DIIS: error= 9.37D-05 at cycle   3 NSaved=   3.
 NSaved= 3 IEnMin= 3 EnMin= -580.188565099246     IErMin= 3 ErrMin= 9.37D-05
 ErrMax= 9.37D-05  0.00D+00 EMaxC= 1.00D-01 BMatC= 2.84D-06 BMatP= 6.06D-06
 IDIUse=1 WtCom= 1.00D+00 WtEn= 0.00D+00
 Coeff-Com:  0.125D-01 0.405D+00 0.583D+00
 Coeff:      0.125D-01 0.405D+00 0.583D+00
 Gap=     0.181 Goal=   None    Shift=    0.000
 RMSDP=4.37D-06 MaxDP=1.71D-04 DE=-3.56D-06 OVMax= 3.43D-04

 Cycle   4  Pass 1  IDiag  1:
 RMSU=  2.30D-06    CP:  1.00D+00  8.77D-01  6.02D-01
 E= -580.188567776985     Delta-E=       -0.000002677740 Rises=F Damp=F
 DIIS: error= 5.18D-05 at cycle   4 NSaved=   4.
 NSaved= 4 IEnMin= 4 EnMin= -580.188567776985     IErMin= 4 ErrMin= 5.18D-05
 ErrMax= 5.18D-05  0.00D+00 EMaxC= 1.00D-01 BMatC= 1.87D-07 BMatP= 2.84D-06
 IDIUse=1 WtCom= 1.00D+00 WtEn= 0.00D+00
 Coeff-Com:  0.104D-02 0.212D+00 0.338D+00 0.449D+00
 Coeff:      0.104D-02 0.212D+00 0.338D+00 0.449D+00
 Gap=     0.181 Goal=   None    Shift=    0.000
 RMSDP=1.58D-06 MaxDP=4.28D-05 DE=-2.68D-06 OVMax= 1.90D-04

 Cycle   5  Pass 1  IDiag  1:
 RMSU=  1.22D-06    CP:  1.00D+00  8.83D-01  6.11D-01  5.67D-01
 E= -580.188567949331     Delta-E=       -0.000000172345 Rises=F Damp=F
 DIIS: error= 2.12D-05 at cycle   5 NSaved=   5.
 NSaved= 5 IEnMin= 5 EnMin= -580.188567949331     IErMin= 5 ErrMin= 2.12D-05
 ErrMax= 2.12D-05  0.00D+00 EMaxC= 1.00D-01 BMatC= 2.98D-08 BMatP= 1.87D-07
 IDIUse=1 WtCom= 1.00D+00 WtEn= 0.00D+00
 Coeff-Com: -0.205D-02 0.529D-01 0.954D-01 0.297D+00 0.557D+00
 Coeff:     -0.205D-02 0.529D-01 0.954D-01 0.297D+00 0.557D+00
 Gap=     0.181 Goal=   None    Shift=    0.000
 RMSDP=5.96D-07 MaxDP=1.47D-05 DE=-1.72D-07 OVMax= 5.87D-05

 Cycle   6  Pass 1  IDiag  1:
 RMSU=  2.03D-07    CP:  1.00D+00  8.82D-01  6.17D-01  6.43D-01  5.66D-01
 E= -580.188567982982     Delta-E=       -0.000000033651 Rises=F Damp=F
 DIIS: error= 1.88D-06 at cycle   6 NSaved=   6.
 NSaved= 6 IEnMin= 6 EnMin= -580.188567982982     IErMin= 6 ErrMin= 1.88D-06
 ErrMax= 1.88D-06  0.00D+00 EMaxC= 1.00D-01 BMatC= 8.69D-10 BMatP= 2.98D-08
 IDIUse=1 WtCom= 1.00D+00 WtEn= 0.00D+00
 Coeff-Com: -0.959D-03 0.118D-01 0.239D-01 0.104D+00 0.247D+00 0.614D+00
 Coeff:     -0.959D-03 0.118D-01 0.239D-01 0.104D+00 0.247D+00 0.614D+00
 Gap=     0.181 Goal=   None    Shift=    0.000
 RMSDP=1.06D-07 MaxDP=4.29D-06 DE=-3.37D-08 OVMax= 1.24D-05

 Cycle   7  Pass 1  IDiag  1:
 RMSU=  8.29D-08    CP:  1.00D+00  8.83D-01  6.17D-01  6.47D-01  5.77D-01
                    CP:  6.99D-01
 E= -580.188567983613     Delta-E=       -0.000000000631 Rises=F Damp=F
 DIIS: error= 1.53D-06 at cycle   7 NSaved=   7.
 NSaved= 7 IEnMin= 7 EnMin= -580.188567983613     IErMin= 7 ErrMin= 1.53D-06
 ErrMax= 1.53D-06  0.00D+00 EMaxC= 1.00D-01 BMatC= 2.55D-10 BMatP= 8.69D-10
 IDIUse=1 WtCom= 1.00D+00 WtEn= 0.00D+00
 Coeff-Com: -0.354D-03 0.125D-02 0.368D-02 0.282D-01 0.851D-01 0.379D+00
 Coeff-Com:  0.503D+00
 Coeff:     -0.354D-03 0.125D-02 0.368D-02 0.282D-01 0.851D-01 0.379D+00
 Coeff:      0.503D+00
 Gap=     0.181 Goal=   None    Shift=    0.000
 RMSDP=5.00D-08 MaxDP=1.70D-06 DE=-6.31D-10 OVMax= 6.96D-06

 Cycle   8  Pass 1  IDiag  1:
 RMSU=  2.88D-08    CP:  1.00D+00  8.83D-01  6.18D-01  6.45D-01  5.82D-01
                    CP:  8.08D-01  6.07D-01
 E= -580.188567983847     Delta-E=       -0.000000000234 Rises=F Damp=F
 DIIS: error= 5.86D-07 at cycle   8 NSaved=   8.
 NSaved= 8 IEnMin= 8 EnMin= -580.188567983847     IErMin= 8 ErrMin= 5.86D-07
 ErrMax= 5.86D-07  0.00D+00 EMaxC= 1.00D-01 BMatC= 2.47D-11 BMatP= 2.55D-10
 IDIUse=1 WtCom= 1.00D+00 WtEn= 0.00D+00
 Coeff-Com: -0.140D-03-0.122D-03 0.423D-03 0.875D-02 0.319D-01 0.181D+00
 Coeff-Com:  0.307D+00 0.471D+00
 Coeff:     -0.140D-03-0.122D-03 0.423D-03 0.875D-02 0.319D-01 0.181D+00
 Coeff:      0.307D+00 0.471D+00
 Gap=     0.181 Goal=   None    Shift=    0.000
 RMSDP=1.61D-08 MaxDP=4.57D-07 DE=-2.34D-10 OVMax= 2.25D-06

 Cycle   9  Pass 1  IDiag  1:
 RMSU=  8.11D-09    CP:  1.00D+00  8.83D-01  6.18D-01  6.46D-01  5.85D-01
                    CP:  7.95D-01  6.78D-01  6.14D-01
 E= -580.188567983878     Delta-E=       -0.000000000031 Rises=F Damp=F
 DIIS: error= 1.34D-07 at cycle   9 NSaved=   9.
 NSaved= 9 IEnMin= 9 EnMin= -580.188567983878     IErMin= 9 ErrMin= 1.34D-07
 ErrMax= 1.34D-07  0.00D+00 EMaxC= 1.00D-01 BMatC= 1.40D-12 BMatP= 2.47D-11
 IDIUse=1 WtCom= 1.00D+00 WtEn= 0.00D+00
 Coeff-Com: -0.160D-04-0.269D-03-0.388D-03 0.121D-03 0.301D-02 0.322D-01
 Coeff-Com:  0.721D-01 0.226D+00 0.667D+00
 Coeff:     -0.160D-04-0.269D-03-0.388D-03 0.121D-03 0.301D-02 0.322D-01
 Coeff:      0.721D-01 0.226D+00 0.667D+00
 Gap=     0.181 Goal=   None    Shift=    0.000
 RMSDP=4.05D-09 MaxDP=1.12D-07 DE=-3.09D-11 OVMax= 7.05D-07

 SCF Done:  E(RB3LYP) =  -580.188567984     A.U. after    9 cycles
            NFock=  9  Conv=0.40D-08     -V/T= 2.0045
 KE= 5.775747618620D+02 PE=-3.200393831197D+03 EE= 1.115151842080D+03
 Leave Link  502 at Wed Mar 11 11:31:20 2026, MaxMem=   104857600 cpu:             116.9 elap:             117.1
 (Enter /sw/cluster/pub/apps//g16/l701.exe)
 ... and contract with generalized density number  0.
 Compute integral first derivatives.
 Leave Link  701 at Wed Mar 11 11:31:20 2026, MaxMem=   104857600 cpu:               0.1 elap:               0.1
 (Enter /sw/cluster/pub/apps//g16/l702.exe)
 L702 exits ... SP integral derivatives will be done elsewhere.
 Leave Link  702 at Wed Mar 11 11:31:20 2026, MaxMem=   104857600 cpu:               0.0 elap:               0.0
 (Enter /sw/cluster/pub/apps//g16/l703.exe)
 Integral derivatives from FoFJK, PRISM(SPDF).
 Compute integral first derivatives, UseDBF=F ICtDFT=           0.
 Calling FoFJK, ICntrl=      2127 FMM=F ISym2X=0 I1Cent= 0 IOpClX= 0 NMat=1 NMatS=1 NMatT=0.
 FoFJK:  IHMeth= 1 ICntrl=    2127 DoSepK=F KAlg= 0 I1Cent=           0 FoldK=F
 IRaf=         0 NMat=       1 IRICut=       1 DoRegI=T DoRafI=F ISym2E= 0 IDoP0=0 IntGTp=1.
 FoFCou: FMM=F IPFlag=           0 FMFlag=      100000 FMFlg1=         800
         NFxFlg=           0 DoJE=F BraDBF=F KetDBF=F FulRan=T
         wScrn=  0.000000 ICntrl=      2127 IOpCl=  0 I1Cent=           0 NGrid=           0
         NMat0=    1 NMatS0=      1 NMatT0=    0 NMatD0=    1 NMtDS0=    0 NMtDT0=    0
 Symmetry not used in FoFCou.
 Leave Link  703 at Wed Mar 11 11:32:02 2026, MaxMem=   104857600 cpu:              42.1 elap:              42.2
 (Enter /sw/cluster/pub/apps//g16/l716.exe)
 Dipole        = 4.23164844D-05 1.73051296D-01-8.56884185D-06
 ***** Axes restored to original set *****
 -------------------------------------------------------------------
 Center     Atomic                   Forces (Hartrees/Bohr)
 Number     Number              X              Y              Z
 -------------------------------------------------------------------
      1        6          -0.000144713   -0.000239032   -0.000014104
      2        6           0.000066473    0.000183762    0.000003283
      3        6          -0.000067403   -0.000052201   -0.000000830
      4        6          -0.000079634   -0.000072864   -0.000002532
      5        6           0.000133752    0.000095703    0.000008836
      6        6          -0.000187015   -0.000115061    0.000001289
      7        6          -0.000235472    0.000013390   -0.000003783
      8        6           0.000127107    0.000208626    0.000002358
      9        6           0.000125955    0.000126742   -0.000003903
     10        1           0.000057897    0.000043763    0.000000135
     11        1          -0.000012154    0.000064830   -0.000002415
     12        1          -0.000056669    0.000040450   -0.000001870
     13        1          -0.000067680   -0.000009006   -0.000000524
     14        6           0.000094023    0.000127381    0.000000134
     15        6           0.000184715    0.000156331   -0.000002745
     16        6           0.000052396   -0.000243953    0.000006552
     17        6          -0.000100732   -0.000215769    0.000005080
     18        1          -0.000009184   -0.000065337   -0.000000780
     19        1           0.000046110   -0.000050302    0.000000689
     20        1           0.000064821    0.000003259    0.000000341
     21        1           0.000051158    0.000060189   -0.000000717
     22        6          -0.000058825   -0.000060010    0.000134319
     23        1           0.000025212    0.000020305   -0.000032243
     24        1           0.000013766    0.000004524   -0.000008913
     25        1          -0.000001469    0.000008577   -0.000001982
     26        6          -0.000055525   -0.000070461   -0.000133444
     27        1          -0.000003425    0.000008142    0.000002854
     28        1           0.000013176    0.000006006    0.000010561
     29        1           0.000023340    0.000022015    0.000034353
 -------------------------------------------------------------------
 Cartesian Forces:  Max     0.000243953 RMS     0.000086789
 Leave Link  716 at Wed Mar 11 11:32:02 2026, MaxMem=   104857600 cpu:               0.0 elap:               0.0
 (Enter /sw/cluster/pub/apps//g16/l103.exe)

 GradGradGradGradGradGradGradGradGradGradGradGradGradGradGradGradGradGrad
 Berny optimization.
 Using GEDIIS/GDIIS optimizer.
 FormGI is forming the generalized inverse of G from B-inverse, IUseBI=4.
 Internal  Forces:  Max     0.000337240 RMS     0.000076777
 Search for a local minimum.
 Step number   2 out of a maximum of  174
 All quantities printed in internal units (Hartrees-Bohrs-Radians)
 RMS Force = .76777D-04 SwitMx=.10000D-02 MixMth= 2
 Mixed Optimization -- En-DIIS/RFO-DIIS
 Swapping is turned off.
 Update second derivatives using D2CorX and points    1    2
 DE= -1.27D-04 DEPred=-1.36D-04 R= 9.36D-01
 TightC=F SS=  1.41D+00  RLast= 2.74D-02 DXNew= 5.0454D-01 8.2289D-02
 Trust test= 9.36D-01 RLast= 2.74D-02 DXMaxT set to 3.00D-01
 ITU=  1  0
     Eigenvalues ---    0.00230   0.00230   0.00756   0.01248   0.01447
     Eigenvalues ---    0.01648   0.01717   0.01880   0.02096   0.02097
     Eigenvalues ---    0.02113   0.02113   0.02118   0.02119   0.02135
     Eigenvalues ---    0.02135   0.02145   0.02146   0.02160   0.02161
     Eigenvalues ---    0.04395   0.05440   0.05440   0.05500   0.05501
     Eigenvalues ---    0.05985   0.07992   0.11622   0.15940   0.16000
     Eigenvalues ---    0.16000   0.16000   0.16000   0.16000   0.16000
     Eigenvalues ---    0.16000   0.16000   0.16000   0.16000   0.16000
     Eigenvalues ---    0.16000   0.16003   0.18948   0.22000   0.22000
     Eigenvalues ---    0.22600   0.22630   0.24490   0.24572   0.24998
     Eigenvalues ---    0.28039   0.28085   0.28556   0.29042   0.33556
     Eigenvalues ---    0.34100   0.34103   0.34105   0.34230   0.34283
     Eigenvalues ---    0.34613   0.35076   0.35094   0.35142   0.35157
     Eigenvalues ---    0.35181   0.35183   0.35185   0.35442   0.37934
     Eigenvalues ---    0.40590   0.42098   0.42106   0.44322   0.45047
     Eigenvalues ---    0.45815   0.45834   0.46110   0.46352   0.46882
     Eigenvalues ---    0.49934
 En-DIIS/RFO-DIIS/Sim-DIIS IScMMF=       -3 using points:     2    1
 RFO step:  Lambda=-2.28792001D-06.
 NNeg= 0 NGDIIS= 2 SimSw=  2.50D-03 Rises=F DC= -1.27D-04 SmlDif=  1.00D-05
 NRisDI= 0 DoIntr=F SqrtH=F CThrHd= 10.0 CDAdj=  3.0
 RMS Error=  0.2745756764D-03 NUsed= 2 OKEnD=T EnDIS=F
 InvSVX:  RCond= 8.46D-04 Info=           0 Equed=N FErr=  9.57D-16 BErr=  3.49D-17
 DidBck=F Rises=F RFO-DIIS coefs:    0.94127    0.05873
 Iteration  1 RMS(Cart)=  0.00046976 RMS(Int)=  0.00000010
 Iteration  2 RMS(Cart)=  0.00000010 RMS(Int)=  0.00000001
 ITry= 1 IFail=0 DXMaxC= 1.48D-03 DCOld= 1.00D+10 DXMaxT= 3.00D-01 DXLimC= 3.00D+00 Rises=F
 Variable       Old X    -DE/DX   Delta X   Delta X   Delta X     New X
                                 (Linear)    (Quad)   (Total)
    R1        2.88678   0.00019   0.00012   0.00052   0.00064   2.88741
    R2        2.88655   0.00024   0.00011   0.00069   0.00079   2.88735
    R3        2.91783   0.00009   0.00016   0.00015   0.00030   2.91813
    R4        2.91787   0.00009   0.00016   0.00014   0.00030   2.91817
    R5        2.65780   0.00013   0.00032  -0.00009   0.00023   2.65803
    R6        2.62306   0.00027   0.00027   0.00025   0.00052   2.62358
    R7        2.77377   0.00024   0.00012   0.00047   0.00059   2.77435
    R8        2.63463   0.00028   0.00024   0.00031   0.00054   2.63517
    R9        2.65778   0.00013   0.00031  -0.00007   0.00024   2.65802
   R10        2.63463   0.00028   0.00024   0.00031   0.00054   2.63517
   R11        2.62306   0.00027   0.00026   0.00026   0.00052   2.62358
   R12        2.64038   0.00022   0.00031   0.00012   0.00043   2.64081
   R13        2.05060   0.00006   0.00029  -0.00014   0.00015   2.05075
   R14        2.63749   0.00033   0.00034   0.00032   0.00066   2.63814
   R15        2.04886   0.00007   0.00029  -0.00012   0.00016   2.04902
   R16        2.63400   0.00020   0.00032   0.00007   0.00039   2.63439
   R17        2.04892   0.00006   0.00029  -0.00014   0.00015   2.04907
   R18        2.04950   0.00007   0.00029  -0.00012   0.00017   2.04967
   R19        2.63399   0.00020   0.00032   0.00008   0.00039   2.63438
   R20        2.04949   0.00008   0.00029  -0.00011   0.00018   2.04967
   R21        2.63747   0.00034   0.00034   0.00033   0.00067   2.63814
   R22        2.04892   0.00006   0.00029  -0.00014   0.00015   2.04907
   R23        2.64038   0.00022   0.00031   0.00012   0.00043   2.64081
   R24        2.04886   0.00007   0.00029  -0.00013   0.00016   2.04902
   R25        2.05060   0.00006   0.00029  -0.00014   0.00015   2.05075
   R26        2.06381  -0.00001   0.00028  -0.00032  -0.00004   2.06376
   R27        2.06674  -0.00001   0.00028  -0.00034  -0.00006   2.06668
   R28        2.06672  -0.00001   0.00028  -0.00033  -0.00005   2.06668
   R29        2.06673  -0.00001   0.00029  -0.00033  -0.00005   2.06668
   R30        2.06674  -0.00001   0.00028  -0.00034  -0.00006   2.06668
   R31        2.06381  -0.00001   0.00028  -0.00033  -0.00005   2.06376
    A1        1.76598  -0.00001   0.00003  -0.00021  -0.00018   1.76581
    A2        1.94341  -0.00001   0.00002  -0.00012  -0.00009   1.94332
    A3        1.94327  -0.00001   0.00001  -0.00003  -0.00002   1.94325
    A4        1.94351  -0.00001   0.00005  -0.00018  -0.00013   1.94337
    A5        1.94339  -0.00001   0.00005  -0.00012  -0.00006   1.94332
    A6        1.92023   0.00004  -0.00015   0.00058   0.00043   1.92066
    A7        1.93561   0.00001  -0.00000   0.00011   0.00010   1.93572
    A8        2.24908  -0.00007   0.00002  -0.00032  -0.00030   2.24878
    A9        2.09849   0.00006  -0.00002   0.00022   0.00020   2.09869
   A10        1.89376   0.00000  -0.00002   0.00002   0.00001   1.89376
   A11        2.10399  -0.00002   0.00005  -0.00015  -0.00009   2.10390
   A12        2.28544   0.00002  -0.00004   0.00012   0.00008   2.28552
   A13        1.89372   0.00000  -0.00002   0.00002   0.00001   1.89373
   A14        2.28563  -0.00001  -0.00002  -0.00000  -0.00002   2.28561
   A15        2.10383   0.00001   0.00004  -0.00002   0.00001   2.10384
   A16        1.93570  -0.00000   0.00001   0.00005   0.00006   1.93576
   A17        2.24883  -0.00003   0.00000  -0.00015  -0.00015   2.24868
   A18        2.09865   0.00003  -0.00001   0.00010   0.00009   2.09874
   A19        2.08042  -0.00002  -0.00000  -0.00006  -0.00006   2.08035
   A20        2.11045   0.00004  -0.00006   0.00025   0.00019   2.11064
   A21        2.09231  -0.00002   0.00006  -0.00019  -0.00013   2.09219
   A22        2.10346  -0.00001  -0.00001   0.00000  -0.00001   2.10346
   A23        2.09024   0.00001  -0.00003   0.00007   0.00005   2.09028
   A24        2.08949  -0.00000   0.00003  -0.00007  -0.00004   2.08945
   A25        2.10424  -0.00001  -0.00000  -0.00002  -0.00002   2.10422
   A26        2.08882  -0.00001   0.00004  -0.00011  -0.00006   2.08875
   A27        2.09013   0.00002  -0.00004   0.00012   0.00008   2.09021
   A28        2.07576  -0.00000  -0.00002   0.00001  -0.00001   2.07575
   A29        2.10936   0.00001  -0.00003   0.00009   0.00006   2.10942
   A30        2.09807  -0.00001   0.00005  -0.00010  -0.00005   2.09802
   A31        2.07572   0.00000  -0.00003   0.00004   0.00001   2.07573
   A32        2.10922   0.00002  -0.00004   0.00018   0.00014   2.10936
   A33        2.09825  -0.00003   0.00007  -0.00022  -0.00015   2.09810
   A34        2.10416   0.00000  -0.00000   0.00004   0.00003   2.10419
   A35        2.09024   0.00000  -0.00004   0.00005   0.00002   2.09026
   A36        2.08878  -0.00001   0.00004  -0.00009  -0.00005   2.08873
   A37        2.10356  -0.00002   0.00000  -0.00007  -0.00006   2.10349
   A38        2.08945   0.00001   0.00003  -0.00003  -0.00000   2.08944
   A39        2.09018   0.00002  -0.00003   0.00010   0.00007   2.09025
   A40        2.08045  -0.00003  -0.00000  -0.00008  -0.00009   2.08036
   A41        2.11055   0.00003  -0.00005   0.00019   0.00014   2.11069
   A42        2.09219  -0.00000   0.00005  -0.00011  -0.00006   2.09213
   A43        1.93817  -0.00006   0.00008  -0.00050  -0.00042   1.93774
   A44        1.93146  -0.00000   0.00003  -0.00002   0.00000   1.93146
   A45        1.93137   0.00001   0.00000   0.00008   0.00009   1.93145
   A46        1.88897   0.00003  -0.00003   0.00017   0.00014   1.88911
   A47        1.88903   0.00002  -0.00003   0.00013   0.00010   1.88913
   A48        1.88311   0.00001  -0.00005   0.00016   0.00012   1.88323
   A49        1.93136   0.00001   0.00002   0.00008   0.00010   1.93145
   A50        1.93149  -0.00001   0.00002  -0.00005  -0.00002   1.93147
   A51        1.93816  -0.00006   0.00007  -0.00049  -0.00042   1.93773
   A52        1.88312   0.00001  -0.00004   0.00016   0.00011   1.88324
   A53        1.88900   0.00002  -0.00004   0.00016   0.00012   1.88912
   A54        1.88898   0.00003  -0.00003   0.00017   0.00014   1.88912
    D1       -0.00003  -0.00000  -0.00001  -0.00002  -0.00003  -0.00006
    D2        3.14159  -0.00000  -0.00001  -0.00002  -0.00003   3.14156
    D3       -2.06671   0.00002  -0.00010   0.00036   0.00026  -2.06646
    D4        1.07490   0.00002  -0.00009   0.00036   0.00026   1.07516
    D5        2.06646  -0.00002   0.00007  -0.00029  -0.00022   2.06624
    D6       -1.07511  -0.00002   0.00008  -0.00029  -0.00021  -1.07532
    D7        0.00001   0.00000   0.00001   0.00004   0.00005   0.00007
    D8       -3.14156   0.00000  -0.00001   0.00001   0.00000  -3.14156
    D9        2.06663  -0.00002   0.00008  -0.00029  -0.00021   2.06642
   D10       -1.07494  -0.00002   0.00006  -0.00032  -0.00026  -1.07521
   D11       -2.06639   0.00002  -0.00004   0.00025   0.00020  -2.06619
   D12        1.07522   0.00002  -0.00006   0.00021   0.00015   1.07537
   D13        0.97878  -0.00001  -0.00000  -0.00072  -0.00072   0.97805
   D14        3.07710  -0.00002   0.00002  -0.00085  -0.00083   3.07627
   D15       -1.11956  -0.00001  -0.00001  -0.00061  -0.00063  -1.12018
   D16       -0.97794   0.00001  -0.00008  -0.00029  -0.00038  -0.97832
   D17        1.12038   0.00000  -0.00006  -0.00042  -0.00048   1.11990
   D18       -3.07628   0.00001  -0.00010  -0.00018  -0.00028  -3.07655
   D19       -3.14128  -0.00000  -0.00008  -0.00043  -0.00051   3.14139
   D20       -1.04296  -0.00001  -0.00005  -0.00056  -0.00061  -1.04357
   D21        1.04357   0.00001  -0.00009  -0.00032  -0.00041   1.04316
   D22        1.11953   0.00001   0.00007   0.00062   0.00069   1.12021
   D23       -3.07710   0.00002   0.00004   0.00083   0.00087  -3.07623
   D24       -0.97876   0.00001   0.00006   0.00069   0.00075  -0.97801
   D25        3.07610  -0.00001   0.00014   0.00028   0.00042   3.07652
   D26       -1.12053  -0.00000   0.00011   0.00049   0.00060  -1.11993
   D27        0.97781  -0.00001   0.00013   0.00035   0.00048   0.97830
   D28       -1.04368  -0.00000   0.00014   0.00037   0.00051  -1.04317
   D29        1.04288   0.00001   0.00011   0.00059   0.00070   1.04358
   D30        3.14122  -0.00000   0.00013   0.00045   0.00058  -3.14139
   D31        0.00003   0.00000   0.00001  -0.00001   0.00000   0.00004
   D32       -3.14154   0.00000   0.00001  -0.00002  -0.00001  -3.14156
   D33       -3.14158   0.00000   0.00000  -0.00001  -0.00000  -3.14158
   D34        0.00003  -0.00000   0.00000  -0.00002  -0.00002   0.00001
   D35        3.14155  -0.00000  -0.00001   0.00001   0.00000   3.14155
   D36       -0.00008   0.00000  -0.00001   0.00004   0.00004  -0.00004
   D37       -0.00002  -0.00000  -0.00000   0.00001   0.00001  -0.00001
   D38        3.14154   0.00000   0.00000   0.00004   0.00005   3.14158
   D39       -0.00002   0.00000  -0.00000   0.00003   0.00003   0.00001
   D40       -3.14159  -0.00000   0.00000  -0.00001  -0.00001   3.14158
   D41        3.14155   0.00000  -0.00000   0.00005   0.00005  -3.14159
   D42       -0.00002   0.00000   0.00000   0.00000   0.00001  -0.00001
   D43       -0.00003   0.00000   0.00000   0.00002   0.00002  -0.00000
   D44        3.14158   0.00000  -0.00000   0.00001   0.00001   3.14159
   D45        3.14159  -0.00000   0.00000   0.00000   0.00000   3.14159
   D46        0.00001  -0.00000  -0.00000  -0.00001  -0.00001  -0.00000
   D47        0.00001  -0.00000  -0.00001  -0.00005  -0.00006  -0.00005
   D48        3.14158  -0.00000   0.00001  -0.00002  -0.00001   3.14157
   D49        3.14158  -0.00000  -0.00001  -0.00001  -0.00002   3.14156
   D50       -0.00003   0.00000   0.00001   0.00002   0.00003  -0.00000
   D51        3.14157   0.00000  -0.00000   0.00005   0.00005  -3.14157
   D52       -0.00000   0.00000  -0.00000   0.00002   0.00002   0.00002
   D53        0.00001   0.00000   0.00000  -0.00001  -0.00000   0.00001
   D54       -3.14157  -0.00000   0.00000  -0.00003  -0.00003   3.14159
   D55        3.14159   0.00000   0.00001   0.00003   0.00004  -3.14155
   D56        0.00001   0.00000   0.00000   0.00002   0.00002   0.00003
   D57        0.00002   0.00000  -0.00001  -0.00001  -0.00002   0.00000
   D58       -3.14156  -0.00000  -0.00002  -0.00002  -0.00004   3.14159
   D59        0.00002  -0.00000   0.00000  -0.00003  -0.00003  -0.00001
   D60       -3.14157  -0.00000  -0.00000  -0.00002  -0.00002   3.14159
   D61       -3.14158   0.00000   0.00001  -0.00002  -0.00001  -3.14159
   D62        0.00001   0.00000   0.00001  -0.00001  -0.00000   0.00001
   D63       -0.00005   0.00000   0.00001   0.00005   0.00006   0.00001
   D64       -3.14158  -0.00000   0.00000  -0.00001  -0.00001  -3.14159
   D65        3.14155   0.00000   0.00001   0.00004   0.00005  -3.14159
   D66        0.00001  -0.00000   0.00000  -0.00002  -0.00001  -0.00000
   D67        0.00003  -0.00000  -0.00001  -0.00003  -0.00004  -0.00001
   D68       -3.14158  -0.00000  -0.00001  -0.00000  -0.00002  -3.14159
   D69        3.14157   0.00000  -0.00000   0.00003   0.00002   3.14159
   D70       -0.00004   0.00000  -0.00000   0.00005   0.00005   0.00000
   D71        0.00001  -0.00000  -0.00001  -0.00001  -0.00002  -0.00001
   D72       -3.14158  -0.00000  -0.00000  -0.00001  -0.00002   3.14159
   D73        3.14159  -0.00000  -0.00000  -0.00000  -0.00000   3.14159
   D74       -0.00000  -0.00000   0.00000  -0.00000  -0.00000  -0.00001
   D75       -0.00000   0.00000   0.00000   0.00001   0.00001   0.00001
   D76       -3.14157  -0.00000  -0.00000  -0.00002  -0.00002  -3.14159
   D77        3.14159   0.00000   0.00000   0.00001   0.00001  -3.14159
   D78        0.00002  -0.00000  -0.00000  -0.00002  -0.00002   0.00000
   D79        0.00001  -0.00000   0.00000  -0.00001  -0.00001  -0.00000
   D80       -3.14155  -0.00000  -0.00001  -0.00004  -0.00004   3.14159
   D81        3.14157   0.00000   0.00001   0.00002   0.00002  -3.14159
   D82        0.00002  -0.00000  -0.00000  -0.00001  -0.00001   0.00000
         Item               Value     Threshold  Converged?
 Maximum Force            0.000337     0.000450     YES
 RMS     Force            0.000077     0.000300     YES
 Maximum Displacement     0.001480     0.001800     YES
 RMS     Displacement     0.000470     0.001200     YES
 Predicted change in Energy=-1.143964D-06
 Optimization completed.
    -- Stationary point found.
                           ----------------------------
                           !   Optimized Parameters   !
                           ! (Angstroms and Degrees)  !
 --------------------------                            --------------------------
 ! Name  Definition              Value          Derivative Info.                !
 --------------------------------------------------------------------------------
 ! R1    R(1,2)                  1.5276         -DE/DX =    0.0002              !
 ! R2    R(1,5)                  1.5275         -DE/DX =    0.0002              !
 ! R3    R(1,22)                 1.544          -DE/DX =    0.0001              !
 ! R4    R(1,26)                 1.5441         -DE/DX =    0.0001              !
 ! R5    R(2,3)                  1.4064         -DE/DX =    0.0001              !
 ! R6    R(2,17)                 1.3881         -DE/DX =    0.0003              !
 ! R7    R(3,4)                  1.4678         -DE/DX =    0.0002              !
 ! R8    R(3,14)                 1.3942         -DE/DX =    0.0003              !
 ! R9    R(4,5)                  1.4064         -DE/DX =    0.0001              !
 ! R10   R(4,9)                  1.3942         -DE/DX =    0.0003              !
 ! R11   R(5,6)                  1.3881         -DE/DX =    0.0003              !
 ! R12   R(6,7)                  1.3972         -DE/DX =    0.0002              !
 ! R13   R(6,13)                 1.0851         -DE/DX =    0.0001              !
 ! R14   R(7,8)                  1.3957         -DE/DX =    0.0003              !
 ! R15   R(7,12)                 1.0842         -DE/DX =    0.0001              !
 ! R16   R(8,9)                  1.3939         -DE/DX =    0.0002              !
 ! R17   R(8,11)                 1.0842         -DE/DX =    0.0001              !
 ! R18   R(9,10)                 1.0846         -DE/DX =    0.0001              !
 ! R19   R(14,15)                1.3938         -DE/DX =    0.0002              !
 ! R20   R(14,21)                1.0845         -DE/DX =    0.0001              !
 ! R21   R(15,16)                1.3957         -DE/DX =    0.0003              !
 ! R22   R(15,20)                1.0842         -DE/DX =    0.0001              !
 ! R23   R(16,17)                1.3972         -DE/DX =    0.0002              !
 ! R24   R(16,19)                1.0842         -DE/DX =    0.0001              !
 ! R25   R(17,18)                1.0851         -DE/DX =    0.0001              !
 ! R26   R(22,23)                1.0921         -DE/DX =    0.0                 !
 ! R27   R(22,24)                1.0937         -DE/DX =    0.0                 !
 ! R28   R(22,25)                1.0937         -DE/DX =    0.0                 !
 ! R29   R(26,27)                1.0937         -DE/DX =    0.0                 !
 ! R30   R(26,28)                1.0937         -DE/DX =    0.0                 !
 ! R31   R(26,29)                1.0921         -DE/DX =    0.0                 !
 ! A1    A(2,1,5)              101.1834         -DE/DX =    0.0                 !
 ! A2    A(2,1,22)             111.3492         -DE/DX =    0.0                 !
 ! A3    A(2,1,26)             111.3413         -DE/DX =    0.0                 !
 ! A4    A(5,1,22)             111.3547         -DE/DX =    0.0                 !
 ! A5    A(5,1,26)             111.3478         -DE/DX =    0.0                 !
 ! A6    A(22,1,26)            110.0209         -DE/DX =    0.0                 !
 ! A7    A(1,2,3)              110.9024         -DE/DX =    0.0                 !
 ! A8    A(1,2,17)             128.8628         -DE/DX =   -0.0001              !
 ! A9    A(3,2,17)             120.2348         -DE/DX =    0.0001              !
 ! A10   A(2,3,4)              108.5042         -DE/DX =    0.0                 !
 ! A11   A(2,3,14)             120.5499         -DE/DX =    0.0                 !
 ! A12   A(4,3,14)             130.9459         -DE/DX =    0.0                 !
 ! A13   A(3,4,5)              108.5024         -DE/DX =    0.0                 !
 ! A14   A(3,4,9)              130.9571         -DE/DX =    0.0                 !
 ! A15   A(5,4,9)              120.5405         -DE/DX =    0.0                 !
 ! A16   A(1,5,4)              110.9075         -DE/DX =    0.0                 !
 ! A17   A(1,5,6)              128.8484         -DE/DX =    0.0                 !
 ! A18   A(4,5,6)              120.2441         -DE/DX =    0.0                 !
 ! A19   A(5,6,7)              119.1992         -DE/DX =    0.0                 !
 ! A20   A(5,6,13)             120.92           -DE/DX =    0.0                 !
 ! A21   A(7,6,13)             119.8808         -DE/DX =    0.0                 !
 ! A22   A(6,7,8)              120.5196         -DE/DX =    0.0                 !
 ! A23   A(6,7,12)             119.7616         -DE/DX =    0.0                 !
 ! A24   A(8,7,12)             119.7187         -DE/DX =    0.0                 !
 ! A25   A(7,8,9)              120.5642         -DE/DX =    0.0                 !
 ! A26   A(7,8,11)             119.6803         -DE/DX =    0.0                 !
 ! A27   A(9,8,11)             119.7555         -DE/DX =    0.0                 !
 ! A28   A(4,9,8)              118.9324         -DE/DX =    0.0                 !
 ! A29   A(4,9,10)             120.8573         -DE/DX =    0.0                 !
 ! A30   A(8,9,10)             120.2103         -DE/DX =    0.0                 !
 ! A31   A(3,14,15)            118.9298         -DE/DX =    0.0                 !
 ! A32   A(3,14,21)            120.8493         -DE/DX =    0.0                 !
 ! A33   A(15,14,21)           120.2209         -DE/DX =    0.0                 !
 ! A34   A(14,15,16)           120.5597         -DE/DX =    0.0                 !
 ! A35   A(14,15,20)           119.762          -DE/DX =    0.0                 !
 ! A36   A(16,15,20)           119.6783         -DE/DX =    0.0                 !
 ! A37   A(15,16,17)           120.5249         -DE/DX =    0.0                 !
 ! A38   A(15,16,19)           119.7166         -DE/DX =    0.0                 !
 ! A39   A(17,16,19)           119.7585         -DE/DX =    0.0                 !
 ! A40   A(2,17,16)            119.201          -DE/DX =    0.0                 !
 ! A41   A(2,17,18)            120.9254         -DE/DX =    0.0                 !
 ! A42   A(16,17,18)           119.8736         -DE/DX =    0.0                 !
 ! A43   A(1,22,23)            111.0487         -DE/DX =   -0.0001              !
 ! A44   A(1,22,24)            110.6646         -DE/DX =    0.0                 !
 ! A45   A(1,22,25)            110.6591         -DE/DX =    0.0                 !
 ! A46   A(23,22,24)           108.2303         -DE/DX =    0.0                 !
 ! A47   A(23,22,25)           108.2335         -DE/DX =    0.0                 !
 ! A48   A(24,22,25)           107.8944         -DE/DX =    0.0                 !
 ! A49   A(1,26,27)            110.6586         -DE/DX =    0.0                 !
 ! A50   A(1,26,28)            110.6665         -DE/DX =    0.0                 !
 ! A51   A(1,26,29)            111.0482         -DE/DX =   -0.0001              !
 ! A52   A(27,26,28)           107.8951         -DE/DX =    0.0                 !
 ! A53   A(27,26,29)           108.2318         -DE/DX =    0.0                 !
 ! A54   A(28,26,29)           108.2304         -DE/DX =    0.0                 !
 ! D1    D(5,1,2,3)             -0.0015         -DE/DX =    0.0                 !
 ! D2    D(5,1,2,17)           179.9997         -DE/DX =    0.0                 !
 ! D3    D(22,1,2,3)          -118.4139         -DE/DX =    0.0                 !
 ! D4    D(22,1,2,17)           61.5872         -DE/DX =    0.0                 !
 ! D5    D(26,1,2,3)           118.3994         -DE/DX =    0.0                 !
 ! D6    D(26,1,2,17)          -61.5994         -DE/DX =    0.0                 !
 ! D7    D(2,1,5,4)              0.0006         -DE/DX =    0.0                 !
 ! D8    D(2,1,5,6)           -179.9982         -DE/DX =    0.0                 !
 ! D9    D(22,1,5,4)           118.4091         -DE/DX =    0.0                 !
 ! D10   D(22,1,5,6)           -61.5897         -DE/DX =    0.0                 !
 ! D11   D(26,1,5,4)          -118.3956         -DE/DX =    0.0                 !
 ! D12   D(26,1,5,6)            61.6056         -DE/DX =    0.0                 !
 ! D13   D(2,1,22,23)           56.0798         -DE/DX =    0.0                 !
 ! D14   D(2,1,22,24)          176.305          -DE/DX =    0.0                 !
 ! D15   D(2,1,22,25)          -64.1458         -DE/DX =    0.0                 !
 ! D16   D(5,1,22,23)          -56.0321         -DE/DX =    0.0                 !
 ! D17   D(5,1,22,24)           64.1931         -DE/DX =    0.0                 !
 ! D18   D(5,1,22,25)         -176.2577         -DE/DX =    0.0                 !
 ! D19   D(26,1,22,23)         180.0178         -DE/DX =    0.0                 !
 ! D20   D(26,1,22,24)         -59.757          -DE/DX =    0.0                 !
 ! D21   D(26,1,22,25)          59.7921         -DE/DX =    0.0                 !
 ! D22   D(2,1,26,27)           64.1442         -DE/DX =    0.0                 !
 ! D23   D(2,1,26,28)         -176.3049         -DE/DX =    0.0                 !
 ! D24   D(2,1,26,29)          -56.0787         -DE/DX =    0.0                 !
 ! D25   D(5,1,26,27)          176.2475         -DE/DX =    0.0                 !
 ! D26   D(5,1,26,28)          -64.2016         -DE/DX =    0.0                 !
 ! D27   D(5,1,26,29)           56.0246         -DE/DX =    0.0                 !
 ! D28   D(22,1,26,27)         -59.7984         -DE/DX =    0.0                 !
 ! D29   D(22,1,26,28)          59.7525         -DE/DX =    0.0                 !
 ! D30   D(22,1,26,29)        -180.0212         -DE/DX =    0.0                 !
 ! D31   D(1,2,3,4)              0.0019         -DE/DX =    0.0                 !
 ! D32   D(1,2,3,14)          -179.9972         -DE/DX =    0.0                 !
 ! D33   D(17,2,3,4)          -179.9992         -DE/DX =    0.0                 !
 ! D34   D(17,2,3,14)            0.0017         -DE/DX =    0.0                 !
 ! D35   D(1,2,17,16)          179.9976         -DE/DX =    0.0                 !
 ! D36   D(1,2,17,18)           -0.0045         -DE/DX =    0.0                 !
 ! D37   D(3,2,17,16)           -0.0011         -DE/DX =    0.0                 !
 ! D38   D(3,2,17,18)          179.9968         -DE/DX =    0.0                 !
 ! D39   D(2,3,4,5)             -0.0014         -DE/DX =    0.0                 !
 ! D40   D(2,3,4,9)            180.0            -DE/DX =    0.0                 !
 ! D41   D(14,3,4,5)          -180.0024         -DE/DX =    0.0                 !
 ! D42   D(14,3,4,9)            -0.001          -DE/DX =    0.0                 !
 ! D43   D(2,3,14,15)           -0.0015         -DE/DX =    0.0                 !
 ! D44   D(2,3,14,21)          179.9995         -DE/DX =    0.0                 !
 ! D45   D(4,3,14,15)          179.9996         -DE/DX =    0.0                 !
 ! D46   D(4,3,14,21)            0.0006         -DE/DX =    0.0                 !
 ! D47   D(3,4,5,1)              0.0004         -DE/DX =    0.0                 !
 ! D48   D(3,4,5,6)            179.9993         -DE/DX =    0.0                 !
 ! D49   D(9,4,5,1)            179.9992         -DE/DX =    0.0                 !
 ! D50   D(9,4,5,6)             -0.0019         -DE/DX =    0.0                 !
 ! D51   D(3,4,9,8)           -180.0012         -DE/DX =    0.0                 !
 ! D52   D(3,4,9,10)            -0.0002         -DE/DX =    0.0                 !
 ! D53   D(5,4,9,8)              0.0004         -DE/DX =    0.0                 !
 ! D54   D(5,4,9,10)           180.0014         -DE/DX =    0.0                 !
 ! D55   D(1,5,6,7)           -180.0002         -DE/DX =    0.0                 !
 ! D56   D(1,5,6,13)             0.0005         -DE/DX =    0.0                 !
 ! D57   D(4,5,6,7)              0.0011         -DE/DX =    0.0                 !
 ! D58   D(4,5,6,13)           180.0018         -DE/DX =    0.0                 !
 ! D59   D(5,6,7,8)              0.0011         -DE/DX =    0.0                 !
 ! D60   D(5,6,7,12)           180.0011         -DE/DX =    0.0                 !
 ! D61   D(13,6,7,8)          -179.9996         -DE/DX =    0.0                 !
 ! D62   D(13,6,7,12)            0.0005         -DE/DX =    0.0                 !
 ! D63   D(6,7,8,9)             -0.0027         -DE/DX =    0.0                 !
 ! D64   D(6,7,8,11)          -179.9993         -DE/DX =    0.0                 !
 ! D65   D(12,7,8,9)          -180.0027         -DE/DX =    0.0                 !
 ! D66   D(12,7,8,11)            0.0007         -DE/DX =    0.0                 !
 ! D67   D(7,8,9,4)              0.0019         -DE/DX =    0.0                 !
 ! D68   D(7,8,9,10)          -179.9991         -DE/DX =    0.0                 !
 ! D69   D(11,8,9,4)           179.9985         -DE/DX =    0.0                 !
 ! D70   D(11,8,9,10)           -0.0025         -DE/DX =    0.0                 !
 ! D71   D(3,14,15,16)           0.0007         -DE/DX =    0.0                 !
 ! D72   D(3,14,15,20)         180.0007         -DE/DX =    0.0                 !
 ! D73   D(21,14,15,16)        179.9998         -DE/DX =    0.0                 !
 ! D74   D(21,14,15,20)         -0.0003         -DE/DX =    0.0                 !
 ! D75   D(14,15,16,17)         -0.0001         -DE/DX =    0.0                 !
 ! D76   D(14,15,16,19)       -179.9987         -DE/DX =    0.0                 !
 ! D77   D(20,15,16,17)       -180.0001         -DE/DX =    0.0                 !
 ! D78   D(20,15,16,19)          0.0013         -DE/DX =    0.0                 !
 ! D79   D(15,16,17,2)           0.0003         -DE/DX =    0.0                 !
 ! D80   D(15,16,17,18)        180.0024         -DE/DX =    0.0                 !
 ! D81   D(19,16,17,2)        -180.0011         -DE/DX =    0.0                 !
 ! D82   D(19,16,17,18)          0.001          -DE/DX =    0.0                 !
 --------------------------------------------------------------------------------
 Lowest energy point so far.  Saving SCF results.
 Largest change from initial coordinates is atom   20       0.006 Angstoms.
 GradGradGradGradGradGradGradGradGradGradGradGradGradGradGradGradGradGrad

 Leave Link  103 at Wed Mar 11 11:32:02 2026, MaxMem=   104857600 cpu:               0.0 elap:               0.0
 (Enter /sw/cluster/pub/apps//g16/l202.exe)
                          Input orientation:                          
 ---------------------------------------------------------------------
 Center     Atomic      Atomic             Coordinates (Angstroms)
 Number     Number       Type             X           Y           Z
 ---------------------------------------------------------------------
      1          6           0        0.010579    0.005176    0.039727
      2          6           0        1.537379   -0.043261    0.051889
      3          6           0        2.080738    1.253846    0.032753
      4          6           0        0.976894    2.220987    0.007364
      5          6           0       -0.237805    1.512071    0.011026
      6          6           0       -1.446003    2.195104   -0.010057
      7          6           0       -1.438917    3.592092   -0.034912
      8          6           0       -0.233040    4.294815   -0.038577
      9          6           0        0.983570    3.614936   -0.017456
     10          1           0        1.917228    4.166773   -0.020417
     11          1           0       -0.243424    5.378835   -0.057969
     12          1           0       -2.377349    4.134843   -0.051486
     13          1           0       -2.389584    1.659235   -0.007446
     14          6           0        3.461912    1.443754    0.039525
     15          6           0        4.295909    0.327251    0.065603
     16          6           0        3.757590   -0.960306    0.084623
     17          6           0        2.373448   -1.150977    0.077830
     18          1           0        1.966318   -2.156726    0.092825
     19          1           0        4.419031   -1.819143    0.104850
     20          1           0        5.372063    0.459326    0.071174
     21          1           0        3.886132    2.441781    0.024837
     22          6           0       -0.582382   -0.638271    1.311914
     23          1           0       -0.187326   -0.163151    2.212423
     24          1           0       -1.671531   -0.539481    1.322663
     25          1           0       -0.341217   -1.704202    1.353501
     26          6           0       -0.563465   -0.683162   -1.217580
     27          1           0       -0.321888   -1.749812   -1.217764
     28          1           0       -1.652312   -0.585192   -1.248107
     29          1           0       -0.154897   -0.240133   -2.128366
 ---------------------------------------------------------------------
                    Distance matrix (angstroms):
                    1          2          3          4          5
     1  C    0.000000
     2  C    1.527617   0.000000
     3  C    2.417599   1.406446   0.000000
     4  C    2.417567   2.333012   1.467814   0.000000
     5  C    1.527498   2.360509   2.332980   1.406438   0.000000
     6  C    2.630569   3.730239   3.650438   2.423097   1.388063
     7  C    3.869442   4.699113   4.226103   2.778103   2.402347
     8  C    4.297264   4.686306   3.821799   2.401418   2.783190
     9  C    3.739030   3.700529   2.604044   1.394186   2.431997
    10  H    4.577971   4.227753   2.917997   2.161269   3.419445
    11  H    5.380546   5.708104   4.735556   3.386066   3.867384
    12  H    4.771233   5.726459   5.308651   3.862286   3.385335
    13  H    2.915290   4.280543   4.488845   3.413057   2.156884
    14  C    3.739145   2.432117   1.394186   2.603928   3.700458
    15  C    4.297494   2.783335   2.401383   3.821713   4.686293
    16  C    3.869659   2.402369   2.777947   4.225974   4.699068
    17  C    2.630834   1.388063   2.422990   3.650407   3.730271
    18  H    2.915742   2.156942   3.413019   4.488945   4.280761
    19  H    4.771459   3.385332   3.862133   5.308527   5.726422
    20  H    5.380776   3.867527   3.386083   4.735508   5.708109
    21  H    4.577901   3.419474   2.161180   2.917657   4.227459
    22  C    1.544049   2.536747   3.508357   3.508354   2.536732
    23  H    2.188175   2.767108   3.450066   3.449900   2.766779
    24  H    2.184507   3.486862   4.354240   4.045287   2.825743
    25  H    2.184430   2.825251   4.044785   4.353919   3.486738
    26  C    1.544072   2.536647   3.508154   3.508173   2.536646
    27  H    2.184446   2.825105   4.044548   4.353736   3.486671
    28  H    2.184550   3.486806   4.354116   4.045191   2.825731
    29  H    2.188192   2.766961   3.449706   3.449551   2.766603
                    6          7          8          9         10
     6  C    0.000000
     7  C    1.397228   0.000000
     8  C    2.425052   1.395698   0.000000
     9  C    2.814036   2.422657   1.393851   0.000000
    10  H    3.898578   3.405022   2.154153   1.084551   0.000000
    11  H    3.403621   2.149927   1.084243   2.149068   2.477684
    12  H    2.152141   1.084208   2.150307   3.401064   4.294808
    13  H    1.085130   2.154173   3.405574   3.899106   4.983627
    14  C    4.965341   5.351544   4.667688   3.295369   3.131210
    15  C    6.038555   6.599812   6.021943   4.667694   4.517462
    16  C    6.086291   6.909580   6.599741   5.351489   5.448385
    17  C    5.078600   6.086341   6.038540   4.965356   5.338188
    18  H    5.531088   6.682877   6.817390   5.855769   6.324703
    19  H    7.108164   7.975998   7.683932   6.430129   6.488906
    20  H    7.036017   7.497661   6.792657   5.405978   5.068475
    21  H    5.337951   5.448204   4.517225   3.130965   2.618058
    22  C    3.243679   4.521456   5.126519   4.723261   5.577778
    23  H    3.476356   4.551796   4.994252   4.540627   5.306879
    24  H    3.050403   4.355114   5.224236   5.109272   6.068928
    25  H    4.276029   5.584207   6.159365   5.650470   6.438678
    26  C    3.243671   4.521385   5.126352   4.723056   5.577536
    27  H    4.276044   5.584160   6.159212   5.650264   6.438421
    28  H    3.050471   4.355122   5.224152   5.109153   6.068774
    29  H    3.476286   4.551616   4.993904   4.540221   5.306409
                   11         12         13         14         15
    11  H    0.000000
    12  H    2.470060   0.000000
    13  H    4.294646   2.476030   0.000000
    14  C    5.405911   6.430180   5.855651   0.000000
    15  C    6.792593   7.683999   6.817282   1.393848   0.000000
    16  C    7.497542   7.975997   6.682680   2.422594   1.395690
    17  C    7.035972   7.108212   5.530916   2.814045   2.425111
    18  H    7.854322   7.646705   5.791847   3.899115   3.405565
    19  H    8.577638   9.036878   7.646499   3.401006   2.150280
    20  H    7.466722   8.577754   7.854242   2.149134   1.084243
    21  H    5.068172   6.488719   6.324399   1.084544   2.154256
    22  C    6.180375   5.278577   3.207058   4.723359   5.126719
    23  H    5.989277   5.328625   3.619233   4.540988   4.994869
    24  H    6.242764   4.922984   2.668172   5.650832   6.159688
    25  H    7.222965   6.341472   4.166616   5.108811   5.223831
    26  C    6.180205   5.278553   3.207173   4.723108   5.126501
    27  H    7.222804   6.341474   4.166754   5.108502   5.223531
    28  H    6.242677   4.923038   2.668382   5.650656   6.159523
    29  H    5.988922   5.328521   3.619354   4.540544   4.994507
                   16         17         18         19         20
    16  C    0.000000
    17  C    1.397229   0.000000
    18  H    2.154099   1.085131   0.000000
    19  H    1.084212   2.152112   2.475865   0.000000
    20  H    2.149897   3.403647   4.294566   2.469985   0.000000
    21  H    3.405039   3.898581   4.983631   4.294864   2.477957
    22  C    4.521648   3.243881   3.207453   5.278787   6.180580
    23  H    4.552510   3.477046   3.620112   5.329417   5.989927
    24  H    5.584369   4.276142   4.166764   6.341572   7.223299
    25  H    4.354727   3.050049   2.668107   4.922631   6.242337
    26  C    4.521510   3.243824   3.207547   5.278687   6.180345
    27  H    4.354500   3.049919   2.668166   4.922441   6.242014
    28  H    5.584256   4.276092   4.166809   6.341477   7.223114
    29  H    4.552309   3.476990   3.620299   5.329291   5.989533
                   21         22         23         24         25
    21  H    0.000000
    22  C    5.577715   0.000000
    23  H    5.307001   1.092119   0.000000
    24  H    6.438935   1.093672   1.770921   0.000000
    25  H    6.068360   1.093663   1.770951   1.768406   0.000000
    26  C    5.577435   2.529963   3.489529   2.775119   2.775316
    27  H    6.068027   2.775365   3.781770   3.120930   2.571742
    28  H    6.438735   2.775117   3.781477   2.571248   3.120820
    29  H    5.306492   3.489524   4.341592   3.781453   3.781746
                   26         27         28         29
    26  C    0.000000
    27  H    1.093664   0.000000
    28  H    1.093672   1.768414   0.000000
    29  H    1.092123   1.770935   1.770925   0.000000
 Stoichiometry    C15H14
 Framework group  C1[X(C15H14)]
 Deg. of freedom    81
 Full point group                 C1      NOp   1
 RotChk:  IX=0 Diff= 8.49D-16
 Largest Abelian subgroup         C1      NOp   1
 Largest concise Abelian subgroup C1      NOp   1
                         Standard orientation:                         
 ---------------------------------------------------------------------
 Center     Atomic      Atomic             Coordinates (Angstroms)
 Number     Number       Type             X           Y           Z
 ---------------------------------------------------------------------
      1          6           0       -0.000147    1.414795   -0.000019
      2          6           0        1.180260    0.445129   -0.000047
      3          6           0        0.733998   -0.888640   -0.000025
      4          6           0       -0.733817   -0.888758   -0.000029
      5          6           0       -1.180250    0.444946   -0.000019
      6          6           0       -2.539291    0.727306   -0.000034
      7          6           0       -3.454781   -0.328215   -0.000034
      8          6           0       -3.010902   -1.651446    0.000004
      9          6           0       -1.647612   -1.941722   -0.000013
     10          1           0       -1.309044   -2.972073    0.000003
     11          1           0       -3.733241   -2.460032   -0.000008
     12          1           0       -4.518434   -0.118095   -0.000065
     13          1           0       -2.895849    1.752183   -0.000057
     14          6           0        1.647757   -1.941634    0.000014
     15          6           0        3.011041   -1.651342   -0.000000
     16          6           0        3.454799   -0.328078   -0.000038
     17          6           0        2.539309    0.727445   -0.000065
     18          1           0        2.895998    1.752279   -0.000134
     19          1           0        4.518444   -0.117902   -0.000070
     20          1           0        3.733481   -2.459837    0.000018
     21          1           0        1.309014   -2.971920    0.000040
     22          6           0       -0.000170    2.300359   -1.264876
     23          1           0       -0.000502    1.690376   -2.170771
     24          1           0       -0.884204    2.943929   -1.285424
     25          1           0        0.884203    2.943439   -1.285675
     26          6           0       -0.000125    2.300043    1.265087
     27          1           0        0.884308    2.943036    1.286068
     28          1           0       -0.884106    2.943678    1.285824
     29          1           0       -0.000486    1.689815    2.170821
 ---------------------------------------------------------------------
 Rotational constants (GHZ):           1.0592580           0.5507449           0.3931073
 Leave Link  202 at Wed Mar 11 11:32:02 2026, MaxMem=   104857600 cpu:               0.0 elap:               0.0
 (Enter /sw/cluster/pub/apps//g16/l601.exe)
 Copying SCF densities to generalized density rwf, IOpCl= 0 IROHF=0.

 **********************************************************************

            Population analysis using the SCF density.

 **********************************************************************

 Orbital symmetries:
       Occupied  (A) (A) (A) (A) (A) (A) (A) (A) (A) (A) (A) (A)
                 (A) (A) (A) (A) (A) (A) (A) (A) (A) (A) (A) (A)
                 (A) (A) (A) (A) (A) (A) (A) (A) (A) (A) (A) (A)
                 (A) (A) (A) (A) (A) (A) (A) (A) (A) (A) (A) (A)
                 (A) (A) (A) (A)
       Virtual   (A) (A) (A) (A) (A) (A) (A) (A) (A) (A) (A) (A)
                 (A) (A) (A) (A) (A) (A) (A) (A) (A) (A) (A) (A)
                 (A) (A) (A) (A) (A) (A) (A) (A) (A) (A) (A) (A)
                 (A) (A) (A) (A) (A) (A) (A) (A) (A) (A) (A) (A)
                 (A) (A) (A) (A) (A) (A) (A) (A) (A) (A) (A) (A)
                 (A) (A) (A) (A) (A) (A) (A) (A) (A) (A) (A) (A)
                 (A) (A) (A) (A) (A) (A) (A) (A) (A) (A) (A) (A)
                 (A) (A) (A) (A) (A) (A) (A) (A) (A) (A) (A) (A)
                 (A) (A) (A) (A) (A) (A) (A) (A) (A) (A) (A) (A)
                 (A) (A) (A) (A) (A) (A) (A) (A) (A) (A) (A) (A)
                 (A) (A) (A) (A) (A) (A) (A) (A) (A) (A) (A) (A)
                 (A) (A) (A) (A) (A) (A) (A) (A) (A) (A) (A) (A)
                 (A) (A) (A) (A) (A) (A) (A) (A) (A) (A) (A) (A)
                 (A) (A) (A) (A) (A) (A) (A) (A) (A) (A) (A) (A)
                 (A) (A) (A) (A) (A) (A) (A) (A) (A) (A) (A) (A)
                 (A) (A) (A) (A) (A) (A) (A) (A) (A) (A) (A) (A)
                 (A) (A) (A) (A) (A) (A) (A) (A) (A) (A) (A) (A)
                 (A) (A) (A) (A) (A) (A) (A) (A) (A) (A) (A) (A)
                 (A) (A) (A) (A) (A) (A) (A) (A) (A) (A) (A) (A)
                 (A) (A) (A) (A) (A) (A) (A) (A) (A) (A) (A) (A)
                 (A) (A) (A) (A) (A) (A) (A) (A) (A) (A) (A) (A)
                 (A) (A) (A) (A) (A) (A) (A) (A) (A) (A) (A) (A)
                 (A) (A) (A) (A) (A) (A) (A) (A) (A) (A) (A) (A)
                 (A) (A) (A) (A) (A) (A) (A) (A) (A) (A) (A) (A)
                 (A) (A) (A) (A) (A) (A) (A) (A) (A) (A) (A) (A)
                 (A) (A)
 The electronic state is 1-A.
 Alpha  occ. eigenvalues --  -10.19607 -10.17812 -10.17781 -10.17550 -10.17549
 Alpha  occ. eigenvalues --  -10.17423 -10.17423 -10.17403 -10.17402 -10.17338
 Alpha  occ. eigenvalues --  -10.17338 -10.17285 -10.17284 -10.16493 -10.16493
 Alpha  occ. eigenvalues --   -0.89318  -0.84777  -0.81598  -0.77759  -0.74583
 Alpha  occ. eigenvalues --   -0.73542  -0.71700  -0.69132  -0.64749  -0.62474
 Alpha  occ. eigenvalues --   -0.58733  -0.57890  -0.56097  -0.51345  -0.49919
 Alpha  occ. eigenvalues --   -0.47771  -0.45512  -0.45100  -0.43986  -0.43571
 Alpha  occ. eigenvalues --   -0.43250  -0.42235  -0.42151  -0.39599  -0.38607
 Alpha  occ. eigenvalues --   -0.38577  -0.37846  -0.35607  -0.35120  -0.34814
 Alpha  occ. eigenvalues --   -0.34508  -0.32397  -0.32327  -0.28665  -0.25364
 Alpha  occ. eigenvalues --   -0.24991  -0.22011
 Alpha virt. eigenvalues --   -0.03868  -0.01791   0.00084   0.03262   0.03874
 Alpha virt. eigenvalues --    0.05437   0.05463   0.07705   0.07710   0.09685
 Alpha virt. eigenvalues --    0.09773   0.10259   0.10726   0.12559   0.13787
 Alpha virt. eigenvalues --    0.14128   0.14236   0.14797   0.16795   0.17594
 Alpha virt. eigenvalues --    0.19856   0.20045   0.20533   0.23864   0.24438
 Alpha virt. eigenvalues --    0.25071   0.26172   0.27077   0.27587   0.27952
 Alpha virt. eigenvalues --    0.28975   0.30854   0.31447   0.32477   0.35222
 Alpha virt. eigenvalues --    0.36486   0.36674   0.37342   0.39410   0.39618
 Alpha virt. eigenvalues --    0.40338   0.40764   0.40814   0.41865   0.42170
 Alpha virt. eigenvalues --    0.42927   0.43302   0.43816   0.45552   0.45627
 Alpha virt. eigenvalues --    0.46655   0.47488   0.47670   0.47710   0.49745
 Alpha virt. eigenvalues --    0.49848   0.51421   0.52487   0.53107   0.54409
 Alpha virt. eigenvalues --    0.55215   0.55415   0.55667   0.57832   0.58150
 Alpha virt. eigenvalues --    0.58583   0.58943   0.59703   0.60667   0.61208
 Alpha virt. eigenvalues --    0.61853   0.62553   0.62861   0.62929   0.63815
 Alpha virt. eigenvalues --    0.64345   0.64735   0.65727   0.66388   0.67336
 Alpha virt. eigenvalues --    0.69257   0.70043   0.72776   0.72894   0.75143
 Alpha virt. eigenvalues --    0.75719   0.76269   0.76540   0.79184   0.80742
 Alpha virt. eigenvalues --    0.82283   0.83207   0.84763   0.85274   0.86861
 Alpha virt. eigenvalues --    0.88765   0.89051   0.89330   0.94166   0.95936
 Alpha virt. eigenvalues --    0.96297   0.97594   1.01563   1.02104   1.02434
 Alpha virt. eigenvalues --    1.03139   1.04242   1.05132   1.06867   1.07134
 Alpha virt. eigenvalues --    1.07326   1.09495   1.10484   1.10993   1.15301
 Alpha virt. eigenvalues --    1.15983   1.16654   1.18632   1.21120   1.22528
 Alpha virt. eigenvalues --    1.24591   1.28232   1.28481   1.32337   1.38385
 Alpha virt. eigenvalues --    1.40367   1.43119   1.43243   1.44260   1.44908
 Alpha virt. eigenvalues --    1.45878   1.46629   1.47252   1.48270   1.48310
 Alpha virt. eigenvalues --    1.48388   1.49465   1.49932   1.54515   1.55485
 Alpha virt. eigenvalues --    1.55744   1.56202   1.57234   1.57565   1.58017
 Alpha virt. eigenvalues --    1.58594   1.60032   1.61184   1.62332   1.63499
 Alpha virt. eigenvalues --    1.64709   1.65956   1.66486   1.66900   1.68526
 Alpha virt. eigenvalues --    1.70221   1.71533   1.72413   1.73328   1.74041
 Alpha virt. eigenvalues --    1.74784   1.75209   1.76349   1.78114   1.80673
 Alpha virt. eigenvalues --    1.82458   1.82573   1.84227   1.84968   1.86625
 Alpha virt. eigenvalues --    1.88111   1.89497   1.89570   1.90416   1.90615
 Alpha virt. eigenvalues --    1.91722   1.92539   1.93711   1.94256   1.94668
 Alpha virt. eigenvalues --    1.97794   1.99595   2.00668   2.03646   2.06702
 Alpha virt. eigenvalues --    2.06878   2.09104   2.09995   2.10309   2.11395
 Alpha virt. eigenvalues --    2.11670   2.12488   2.18563   2.22480   2.23118
 Alpha virt. eigenvalues --    2.26373   2.26709   2.26915   2.31115   2.33072
 Alpha virt. eigenvalues --    2.33615   2.35238   2.35625   2.38898   2.41064
 Alpha virt. eigenvalues --    2.42491   2.42746   2.44157   2.47064   2.48907
 Alpha virt. eigenvalues --    2.50097   2.51488   2.51971   2.52467   2.53117
 Alpha virt. eigenvalues --    2.56266   2.56755   2.57799   2.59518   2.60624
 Alpha virt. eigenvalues --    2.61772   2.62010   2.62167   2.63968   2.64077
 Alpha virt. eigenvalues --    2.64936   2.66020   2.66136   2.68502   2.69823
 Alpha virt. eigenvalues --    2.71679   2.72259   2.72464   2.73119   2.73409
 Alpha virt. eigenvalues --    2.76800   2.80580   2.80604   2.81960   2.82577
 Alpha virt. eigenvalues --    2.84009   2.87144   2.89055   2.89100   2.91605
 Alpha virt. eigenvalues --    2.91907   2.92164   2.93610   2.99163   3.01876
 Alpha virt. eigenvalues --    3.06873   3.12272   3.13882   3.14898   3.20792
 Alpha virt. eigenvalues --    3.21204   3.24841   3.25564   3.33311   3.37693
 Alpha virt. eigenvalues --    3.39782   3.40570   3.45827   3.47421   3.48824
 Alpha virt. eigenvalues --    3.55158   3.57567   3.63030   3.69067   3.71772
 Alpha virt. eigenvalues --    3.76913   3.78244   3.81886   3.83090   3.85512
 Alpha virt. eigenvalues --    4.02370   4.02931   4.03225   4.06123   4.13158
 Alpha virt. eigenvalues --    4.20828   4.25223   4.33063   4.41475   4.61441
 Alpha virt. eigenvalues --    4.82669   4.86824  23.43626  23.62964  23.81109
 Alpha virt. eigenvalues --   23.91976  23.92284  23.92984  23.93972  23.94518
 Alpha virt. eigenvalues --   23.99194  24.07575  24.08423  24.10328  24.11212
 Alpha virt. eigenvalues --   24.19016  24.19436
          Condensed to atoms (all electrons):
               1          2          3          4          5          6
     1  C    5.257494   0.363400  -0.083572  -0.083549   0.363419  -0.057462
     2  C    0.363400   5.119824   0.540366  -0.050367  -0.127762   0.006896
     3  C   -0.083572   0.540366   4.908974   0.399866  -0.050381   0.014099
     4  C   -0.083549  -0.050367   0.399866   4.908899   0.540373  -0.038846
     5  C    0.363419  -0.127762  -0.050381   0.540373   5.119817   0.509335
     6  C   -0.057462   0.006896   0.014099  -0.038846   0.509335   4.826407
     7  C    0.005939  -0.000925   0.000996  -0.043560  -0.048879   0.515501
     8  C    0.000003  -0.000488   0.010985  -0.040801  -0.050506  -0.050303
     9  C    0.010293   0.007324  -0.070657   0.514593  -0.063606  -0.044422
    10  H   -0.000548  -0.000144  -0.014439  -0.037863   0.009899  -0.000872
    11  H    0.000044   0.000015  -0.000443   0.007463   0.000229   0.007425
    12  H   -0.000390   0.000036  -0.000018  -0.000098   0.008596  -0.040513
    13  H   -0.006842   0.000784  -0.000874   0.008656  -0.044546   0.416129
    14  C    0.010288  -0.063602   0.514595  -0.070654   0.007326  -0.000232
    15  C    0.000003  -0.050503  -0.040799   0.010987  -0.000488  -0.000001
    16  C    0.005935  -0.048897  -0.043551   0.000998  -0.000925  -0.000001
    17  C   -0.057432   0.509331  -0.038855   0.014102   0.006892  -0.000174
    18  H   -0.006836  -0.044547   0.008655  -0.000874   0.000783   0.000016
    19  H   -0.000390   0.008598  -0.000099  -0.000018   0.000036   0.000000
    20  H    0.000044   0.000230   0.007461  -0.000443   0.000015  -0.000000
    21  H   -0.000548   0.009898  -0.037857  -0.014446  -0.000143   0.000036
    22  C    0.360535  -0.073106   0.000983   0.000977  -0.073095  -0.003688
    23  H   -0.031084  -0.005211   0.002062   0.002062  -0.005218   0.000092
    24  H   -0.029932   0.009783  -0.000082  -0.000800  -0.011537   0.003959
    25  H   -0.029937  -0.011556  -0.000800  -0.000080   0.009781  -0.000163
    26  C    0.360527  -0.073119   0.000977   0.000975  -0.073112  -0.003689
    27  H   -0.029937  -0.011558  -0.000801  -0.000080   0.009782  -0.000163
    28  H   -0.029932   0.009783  -0.000081  -0.000801  -0.011534   0.003960
    29  H   -0.031080  -0.005212   0.002064   0.002062  -0.005220   0.000091
               7          8          9         10         11         12
     1  C    0.005939   0.000003   0.010293  -0.000548   0.000044  -0.000390
     2  C   -0.000925  -0.000488   0.007324  -0.000144   0.000015   0.000036
     3  C    0.000996   0.010985  -0.070657  -0.014439  -0.000443  -0.000018
     4  C   -0.043560  -0.040801   0.514593  -0.037863   0.007463  -0.000098
     5  C   -0.048879  -0.050506  -0.063606   0.009899   0.000229   0.008596
     6  C    0.515501  -0.050303  -0.044422  -0.000872   0.007425  -0.040513
     7  C    4.865517   0.517262  -0.060990   0.007667  -0.042933   0.412786
     8  C    0.517262   4.866757   0.510813  -0.046062   0.412178  -0.044395
     9  C   -0.060990   0.510813   4.851998   0.415003  -0.039243   0.007872
    10  H    0.007667  -0.046062   0.415003   0.589974  -0.007708  -0.000335
    11  H   -0.042933   0.412178  -0.039243  -0.007708   0.580406  -0.008103
    12  H    0.412786  -0.044395   0.007872  -0.000335  -0.008103   0.581652
    13  H   -0.042728   0.007492  -0.000257   0.000089  -0.000368  -0.007757
    14  C    0.000100  -0.000074  -0.002303   0.002823   0.000005  -0.000002
    15  C    0.000000  -0.000002  -0.000074   0.000108  -0.000000   0.000000
    16  C    0.000000   0.000000   0.000100  -0.000009  -0.000000   0.000000
    17  C   -0.000001  -0.000001  -0.000232   0.000036  -0.000000   0.000000
    18  H   -0.000001   0.000000  -0.000002   0.000001   0.000000  -0.000000
    19  H    0.000000   0.000000  -0.000002  -0.000001  -0.000000  -0.000000
    20  H   -0.000000  -0.000000   0.000005   0.000009   0.000000  -0.000000
    21  H   -0.000009   0.000109   0.002823   0.000937   0.000009  -0.000001
    22  C   -0.000113   0.000036  -0.000271   0.000017   0.000000   0.000004
    23  H   -0.000087  -0.000027  -0.000120   0.000003  -0.000001   0.000004
    24  H    0.000060   0.000001  -0.000030   0.000001  -0.000000   0.000011
    25  H    0.000020  -0.000002   0.000025  -0.000002   0.000000  -0.000001
    26  C   -0.000113   0.000036  -0.000271   0.000017   0.000000   0.000004
    27  H    0.000020  -0.000002   0.000025  -0.000002   0.000000  -0.000001
    28  H    0.000060   0.000001  -0.000030   0.000001  -0.000000   0.000011
    29  H   -0.000087  -0.000027  -0.000120   0.000003  -0.000001   0.000004
              13         14         15         16         17         18
     1  C   -0.006842   0.010288   0.000003   0.005935  -0.057432  -0.006836
     2  C    0.000784  -0.063602  -0.050503  -0.048897   0.509331  -0.044547
     3  C   -0.000874   0.514595  -0.040799  -0.043551  -0.038855   0.008655
     4  C    0.008656  -0.070654   0.010987   0.000998   0.014102  -0.000874
     5  C   -0.044546   0.007326  -0.000488  -0.000925   0.006892   0.000783
     6  C    0.416129  -0.000232  -0.000001  -0.000001  -0.000174   0.000016
     7  C   -0.042728   0.000100   0.000000   0.000000  -0.000001  -0.000001
     8  C    0.007492  -0.000074  -0.000002   0.000000  -0.000001   0.000000
     9  C   -0.000257  -0.002303  -0.000074   0.000100  -0.000232  -0.000002
    10  H    0.000089   0.002823   0.000108  -0.000009   0.000036   0.000001
    11  H   -0.000368   0.000005  -0.000000  -0.000000  -0.000000   0.000000
    12  H   -0.007757  -0.000002   0.000000   0.000000   0.000000  -0.000000
    13  H    0.588032  -0.000002   0.000000  -0.000001   0.000016   0.000004
    14  C   -0.000002   4.851959   0.510792  -0.061017  -0.044419  -0.000257
    15  C    0.000000   0.510792   4.866760   0.517274  -0.050285   0.007492
    16  C   -0.000001  -0.061017   0.517274   4.865496   0.515521  -0.042722
    17  C    0.000016  -0.044419  -0.050285   0.515521   4.826418   0.416119
    18  H    0.000004  -0.000257   0.007492  -0.042722   0.416119   0.588027
    19  H   -0.000000   0.007874  -0.044399   0.412787  -0.040514  -0.007760
    20  H    0.000000  -0.039241   0.412178  -0.042930   0.007424  -0.000368
    21  H    0.000001   0.415007  -0.046060   0.007665  -0.000873   0.000089
    22  C    0.000313  -0.000270   0.000036  -0.000113  -0.003685   0.000313
    23  H    0.000116  -0.000119  -0.000027  -0.000087   0.000090   0.000116
    24  H    0.001222   0.000025  -0.000002   0.000020  -0.000162  -0.000195
    25  H   -0.000195  -0.000031   0.000001   0.000060   0.003962   0.001224
    26  C    0.000313  -0.000271   0.000036  -0.000113  -0.003685   0.000312
    27  H   -0.000195  -0.000031   0.000001   0.000060   0.003964   0.001223
    28  H    0.001222   0.000025  -0.000002   0.000020  -0.000162  -0.000195
    29  H    0.000116  -0.000119  -0.000027  -0.000087   0.000090   0.000115
              19         20         21         22         23         24
     1  C   -0.000390   0.000044  -0.000548   0.360535  -0.031084  -0.029932
     2  C    0.008598   0.000230   0.009898  -0.073106  -0.005211   0.009783
     3  C   -0.000099   0.007461  -0.037857   0.000983   0.002062  -0.000082
     4  C   -0.000018  -0.000443  -0.014446   0.000977   0.002062  -0.000800
     5  C    0.000036   0.000015  -0.000143  -0.073095  -0.005218  -0.011537
     6  C    0.000000  -0.000000   0.000036  -0.003688   0.000092   0.003959
     7  C    0.000000  -0.000000  -0.000009  -0.000113  -0.000087   0.000060
     8  C    0.000000  -0.000000   0.000109   0.000036  -0.000027   0.000001
     9  C   -0.000002   0.000005   0.002823  -0.000271  -0.000120  -0.000030
    10  H   -0.000001   0.000009   0.000937   0.000017   0.000003   0.000001
    11  H   -0.000000   0.000000   0.000009   0.000000  -0.000001  -0.000000
    12  H   -0.000000  -0.000000  -0.000001   0.000004   0.000004   0.000011
    13  H   -0.000000   0.000000   0.000001   0.000313   0.000116   0.001222
    14  C    0.007874  -0.039241   0.415007  -0.000270  -0.000119   0.000025
    15  C   -0.044399   0.412178  -0.046060   0.000036  -0.000027  -0.000002
    16  C    0.412787  -0.042930   0.007665  -0.000113  -0.000087   0.000020
    17  C   -0.040514   0.007424  -0.000873  -0.003685   0.000090  -0.000162
    18  H   -0.007760  -0.000368   0.000089   0.000313   0.000116  -0.000195
    19  H    0.581661  -0.008104  -0.000334   0.000004   0.000004  -0.000001
    20  H   -0.008104   0.580396  -0.007703   0.000000  -0.000001   0.000000
    21  H   -0.000334  -0.007703   0.589963   0.000017   0.000003  -0.000002
    22  C    0.000004   0.000000   0.000017   4.878578   0.402072   0.397718
    23  H    0.000004  -0.000001   0.000003   0.402072   0.564070  -0.027079
    24  H   -0.000001   0.000000  -0.000002   0.397718  -0.027079   0.585755
    25  H    0.000011  -0.000000   0.000001   0.397726  -0.027069  -0.029190
    26  C    0.000004   0.000000   0.000017  -0.073992   0.008800  -0.005109
    27  H    0.000011  -0.000000   0.000001  -0.005096  -0.000161  -0.000577
    28  H   -0.000001   0.000000  -0.000002  -0.005109  -0.000160   0.002676
    29  H    0.000004  -0.000001   0.000003   0.008800  -0.000468  -0.000160
              25         26         27         28         29
     1  C   -0.029937   0.360527  -0.029937  -0.029932  -0.031080
     2  C   -0.011556  -0.073119  -0.011558   0.009783  -0.005212
     3  C   -0.000800   0.000977  -0.000801  -0.000081   0.002064
     4  C   -0.000080   0.000975  -0.000080  -0.000801   0.002062
     5  C    0.009781  -0.073112   0.009782  -0.011534  -0.005220
     6  C   -0.000163  -0.003689  -0.000163   0.003960   0.000091
     7  C    0.000020  -0.000113   0.000020   0.000060  -0.000087
     8  C   -0.000002   0.000036  -0.000002   0.000001  -0.000027
     9  C    0.000025  -0.000271   0.000025  -0.000030  -0.000120
    10  H   -0.000002   0.000017  -0.000002   0.000001   0.000003
    11  H    0.000000   0.000000   0.000000  -0.000000  -0.000001
    12  H   -0.000001   0.000004  -0.000001   0.000011   0.000004
    13  H   -0.000195   0.000313  -0.000195   0.001222   0.000116
    14  C   -0.000031  -0.000271  -0.000031   0.000025  -0.000119
    15  C    0.000001   0.000036   0.000001  -0.000002  -0.000027
    16  C    0.000060  -0.000113   0.000060   0.000020  -0.000087
    17  C    0.003962  -0.003685   0.003964  -0.000162   0.000090
    18  H    0.001224   0.000312   0.001223  -0.000195   0.000115
    19  H    0.000011   0.000004   0.000011  -0.000001   0.000004
    20  H   -0.000000   0.000000  -0.000000   0.000000  -0.000001
    21  H    0.000001   0.000017   0.000001  -0.000002   0.000003
    22  C    0.397726  -0.073992  -0.005096  -0.005109   0.008800
    23  H   -0.027069   0.008800  -0.000161  -0.000160  -0.000468
    24  H   -0.029190  -0.005109  -0.000577   0.002676  -0.000160
    25  H    0.585741  -0.005096   0.002673  -0.000577  -0.000160
    26  C   -0.005096   4.878643   0.397720   0.397713   0.402070
    27  H    0.002673   0.397720   0.585745  -0.029189  -0.027070
    28  H   -0.000577   0.397713  -0.029189   0.585755  -0.027079
    29  H   -0.000160   0.402070  -0.027070  -0.027079   0.564070
 Mulliken charges:
               1
     1  C   -0.258453
     2  C   -0.019269
     3  C   -0.028774
     4  C   -0.028733
     5  C   -0.019329
     6  C   -0.063417
     7  C   -0.085503
     8  C   -0.092980
     9  C   -0.038242
    10  H    0.081395
    11  H    0.091025
    12  H    0.090633
    13  H    0.079262
    14  C   -0.038173
    15  C   -0.092995
    16  C   -0.085485
    17  C   -0.063486
    18  H    0.079269
    19  H    0.090630
    20  H    0.091030
    21  H    0.081398
    22  C   -0.209590
    23  H    0.117425
    24  H    0.103629
    25  H    0.103637
    26  C   -0.209596
    27  H    0.103636
    28  H    0.103629
    29  H    0.117426
 Sum of Mulliken charges =  -0.00000
 Mulliken charges with hydrogens summed into heavy atoms:
               1
     1  C   -0.258453
     2  C   -0.019269
     3  C   -0.028774
     4  C   -0.028733
     5  C   -0.019329
     6  C    0.015845
     7  C    0.005130
     8  C   -0.001955
     9  C    0.043153
    14  C    0.043226
    15  C   -0.001965
    16  C    0.005145
    17  C    0.015783
    22  C    0.115102
    26  C    0.115096
 Electronic spatial extent (au):  <R**2>=           2911.2911
 Charge=              0.0000 electrons
 Dipole moment (field-independent basis, Debye):
    X=              0.0001    Y=              0.4399    Z=             -0.0000  Tot=              0.4399
 Quadrupole moment (field-independent basis, Debye-Ang):
   XX=            -81.9125   YY=            -80.7884   ZZ=            -94.4980
   XY=             -0.0003   XZ=              0.0000   YZ=             -0.0004
 Traceless Quadrupole moment (field-independent basis, Debye-Ang):
   XX=              3.8205   YY=              4.9446   ZZ=             -8.7651
   XY=             -0.0003   XZ=              0.0000   YZ=             -0.0004
 Octapole moment (field-independent basis, Debye-Ang**2):
  XXX=              0.0053  YYY=            -12.1150  ZZZ=              0.0000  XYY=             -0.0011
  XXY=             -1.5251  XXZ=             -0.0015  XZZ=             -0.0012  YZZ=              4.9083
  YYZ=             -0.0001  XYZ=             -0.0005
 Hexadecapole moment (field-independent basis, Debye-Ang**3):
 XXXX=          -2268.2131 YYYY=          -1272.1377 ZZZZ=           -280.7250 XXXY=             -0.0016
 XXXZ=              0.0005 YYYX=             -0.0029 YYYZ=             -0.0020 ZZZX=              0.0002
 ZZZY=             -0.0017 XXYY=           -582.9243 XXZZ=           -512.5437 YYZZ=           -287.6571
 XXYZ=             -0.0014 YYXZ=             -0.0001 ZZXY=             -0.0018
 N-N= 9.274786592715D+02 E-N=-3.200393826484D+03  KE= 5.775747618620D+02
 No NMR shielding tensors so no spin-rotation constants.
 Leave Link  601 at Wed Mar 11 11:32:03 2026, MaxMem=   104857600 cpu:               0.1 elap:               0.1
 (Enter /sw/cluster/pub/apps//g16/l9999.exe)
 1\1\GINC-N07\FOpt\RB3LYP\6-311G(d,p)\C15H14\UNKNOWN\11-Mar-2026\0\\#P 
 B3LYP/6-311G(d,p) OPT FREQ\\OPT FREQ F1 6-31G(d,p)\\0,1\C,0.0105790059
 ,0.0051761046,0.0397267619\C,1.5373794413,-0.0432605041,0.0518894441\C
 ,2.0807379137,1.2538458162,0.0327527851\C,0.9768937199,2.220987033,0.0
 073637638\C,-0.2378051067,1.5120706152,0.0110261179\C,-1.4460027034,2.
 1951036181,-0.0100567072\C,-1.4389170089,3.5920924787,-0.0349117815\C,
 -0.2330397189,4.2948146368,-0.0385768074\C,0.983569844,3.6149356747,-0
 .0174562281\H,1.9172277815,4.1667732882,-0.0204172743\H,-0.2434235006,
 5.3788349746,-0.0579685517\H,-2.3773490699,4.1348429019,-0.0514864925\
 H,-2.3895838192,1.6592349878,-0.0074457964\C,3.4619122783,1.4437544074
 ,0.0395246407\C,4.2959089636,0.3272505523,0.0656029191\C,3.7575895175,
 -0.9603055198,0.0846226337\C,2.3734477518,-1.1509766981,0.077829771\H,
 1.9663179301,-2.156725557,0.0928248294\H,4.4190305283,-1.819142815,0.1
 04850482\H,5.3720629037,0.4593260862,0.0711741776\H,3.8861315533,2.441
 7814658,0.0248367767\C,-0.5823822085,-0.6382706371,1.31191355\H,-0.187
 32554,-0.1631512855,2.2124227032\H,-1.6715307191,-0.5394811497,1.32266
 26127\H,-0.3412165344,-1.7042018451,1.3535009466\C,-0.5634654023,-0.68
 3162092,-1.2175804858\H,-0.3218884512,-1.749812203,-1.2177643658\H,-1.
 6523124148,-0.5851919142,-1.2481067753\H,-0.154896935,-0.2401334208,-2
 .1283656491\\Version=ES64L-G16RevA.03\State=1-A\HF=-580.188568\RMSD=4.
 050e-09\RMSF=8.679e-05\Dipole=-0.1140132,-0.130175,0.0014878\Quadrupol
 e=3.2031401,3.3099144,-6.5130545,0.4154858,0.0641668,-0.1723261\PG=C01
  [X(C15H14)]\\@


 HE WHO LAUGHS LAST PROBABLY DIDN'T GET THE JOKE.
 Leave Link 9999 at Wed Mar 11 11:32:03 2026, MaxMem=   104857600 cpu:               0.0 elap:               0.0
 Job cpu time:       0 days  0 hours  5 minutes 25.4 seconds.
 Elapsed time:       0 days  0 hours  5 minutes 25.8 seconds.
 File lengths (MBytes):  RWF=     73 Int=      0 D2E=      0 Chk=     11 Scr=      1
 Normal termination of Gaussian 16 at Wed Mar 11 11:32:03 2026.
 (Enter /sw/cluster/pub/apps//g16/l1.exe)
 Link1:  Proceeding to internal job step number  2.
 ----------------------------------------------------------------------
 #P Geom=AllCheck Guess=TCheck SCRF=Check GenChk RB3LYP/6-311G(d,p) Fre
 q
 ----------------------------------------------------------------------
 1/10=4,29=7,30=1,38=1,40=1/1,3;
 2/12=2,40=1/2;
 3/5=4,6=6,7=101,11=2,14=-4,25=1,30=1,70=2,71=2,74=-5,116=1,140=1/1,2,3;
 4/5=101/1;
 5/5=2,38=6,98=1/2;
 8/6=4,10=90,11=11/1;
 11/6=1,8=1,9=11,15=111,16=1/1,2,10;
 10/6=1/2;
 6/7=2,8=2,9=2,10=2,28=1/1;
 7/8=1,10=1,25=1/1,2,3,16;
 1/10=4,30=1/3;
 99//99;
 Leave Link    1 at Wed Mar 11 11:32:03 2026, MaxMem=   104857600 cpu:               0.0 elap:               0.0
 (Enter /sw/cluster/pub/apps//g16/l101.exe)
 Structure from the checkpoint file:  "f1-6-311Gdp.chk"
 ----------------------
 OPT FREQ F1 6-31G(d,p)
 ----------------------
 Charge =  0 Multiplicity = 1
 Redundant internal coordinates found in file.  (old form).
 C,0,0.0105790059,0.0051761046,0.0397267619
 C,0,1.5373794413,-0.0432605041,0.0518894441
 C,0,2.0807379137,1.2538458162,0.0327527851
 C,0,0.9768937199,2.220987033,0.0073637638
 C,0,-0.2378051067,1.5120706152,0.0110261179
 C,0,-1.4460027034,2.1951036181,-0.0100567072
 C,0,-1.4389170089,3.5920924787,-0.0349117815
 C,0,-0.2330397189,4.2948146368,-0.0385768074
 C,0,0.983569844,3.6149356747,-0.0174562281
 H,0,1.9172277815,4.1667732882,-0.0204172743
 H,0,-0.2434235006,5.3788349746,-0.0579685517
 H,0,-2.3773490699,4.1348429019,-0.0514864925
 H,0,-2.3895838192,1.6592349878,-0.0074457964
 C,0,3.4619122783,1.4437544074,0.0395246407
 C,0,4.2959089636,0.3272505523,0.0656029191
 C,0,3.7575895175,-0.9603055198,0.0846226337
 C,0,2.3734477518,-1.1509766981,0.077829771
 H,0,1.9663179301,-2.156725557,0.0928248294
 H,0,4.4190305283,-1.819142815,0.104850482
 H,0,5.3720629037,0.4593260862,0.0711741776
 H,0,3.8861315533,2.4417814658,0.0248367767
 C,0,-0.5823822085,-0.6382706371,1.31191355
 H,0,-0.18732554,-0.1631512855,2.2124227032
 H,0,-1.6715307191,-0.5394811497,1.3226626127
 H,0,-0.3412165344,-1.7042018451,1.3535009466
 C,0,-0.5634654023,-0.683162092,-1.2175804858
 H,0,-0.3218884512,-1.749812203,-1.2177643658
 H,0,-1.6523124148,-0.5851919142,-1.2481067753
 H,0,-0.154896935,-0.2401334208,-2.1283656491
 Recover connectivity data from disk.
 ITRead=  0  0  0  0  0  0  0  0  0  0  0  0  0  0  0  0  0  0  0  0
 ITRead=  0  0  0  0  0  0  0  0  0
 MicOpt= -1 -1 -1 -1 -1 -1 -1 -1 -1 -1 -1 -1 -1 -1 -1 -1 -1 -1 -1 -1
 MicOpt= -1 -1 -1 -1 -1 -1 -1 -1 -1
 NAtoms=     29 NQM=       29 NQMF=       0 NMMI=      0 NMMIF=      0
                NMic=       0 NMicF=      0.
                    Isotopes and Nuclear Properties:
 (Nuclear quadrupole moments (NQMom) in fm**2, nuclear magnetic moments (NMagM)
  in nuclear magnetons)

  Atom         1           2           3           4           5           6           7           8           9          10
 IAtWgt=          12          12          12          12          12          12          12          12          12           1
 AtmWgt=  12.0000000  12.0000000  12.0000000  12.0000000  12.0000000  12.0000000  12.0000000  12.0000000  12.0000000   1.0078250
 NucSpn=           0           0           0           0           0           0           0           0           0           1
 AtZEff=   3.6000000   3.6000000   3.6000000   3.6000000   3.6000000   3.6000000   3.6000000   3.6000000   3.6000000   1.0000000
 NQMom=    0.0000000   0.0000000   0.0000000   0.0000000   0.0000000   0.0000000   0.0000000   0.0000000   0.0000000   0.0000000
 NMagM=    0.0000000   0.0000000   0.0000000   0.0000000   0.0000000   0.0000000   0.0000000   0.0000000   0.0000000   2.7928460
 AtZNuc=   6.0000000   6.0000000   6.0000000   6.0000000   6.0000000   6.0000000   6.0000000   6.0000000   6.0000000   1.0000000

  Atom        11          12          13          14          15          16          17          18          19          20
 IAtWgt=           1           1           1          12          12          12          12           1           1           1
 AtmWgt=   1.0078250   1.0078250   1.0078250  12.0000000  12.0000000  12.0000000  12.0000000   1.0078250   1.0078250   1.0078250
 NucSpn=           1           1           1           0           0           0           0           1           1           1
 AtZEff=   1.0000000   1.0000000   1.0000000   3.6000000   3.6000000   3.6000000   3.6000000   1.0000000   1.0000000   1.0000000
 NQMom=    0.0000000   0.0000000   0.0000000   0.0000000   0.0000000   0.0000000   0.0000000   0.0000000   0.0000000   0.0000000
 NMagM=    2.7928460   2.7928460   2.7928460   0.0000000   0.0000000   0.0000000   0.0000000   2.7928460   2.7928460   2.7928460
 AtZNuc=   1.0000000   1.0000000   1.0000000   6.0000000   6.0000000   6.0000000   6.0000000   1.0000000   1.0000000   1.0000000

  Atom        21          22          23          24          25          26          27          28          29
 IAtWgt=           1          12           1           1           1          12           1           1           1
 AtmWgt=   1.0078250  12.0000000   1.0078250   1.0078250   1.0078250  12.0000000   1.0078250   1.0078250   1.0078250
 NucSpn=           1           0           1           1           1           0           1           1           1
 AtZEff=   1.0000000   3.6000000   1.0000000   1.0000000   1.0000000   3.6000000   1.0000000   1.0000000   1.0000000
 NQMom=    0.0000000   0.0000000   0.0000000   0.0000000   0.0000000   0.0000000   0.0000000   0.0000000   0.0000000
 NMagM=    2.7928460   0.0000000   2.7928460   2.7928460   2.7928460   0.0000000   2.7928460   2.7928460   2.7928460
 AtZNuc=   1.0000000   6.0000000   1.0000000   1.0000000   1.0000000   6.0000000   1.0000000   1.0000000   1.0000000
 Leave Link  101 at Wed Mar 11 11:32:03 2026, MaxMem=   104857600 cpu:               0.0 elap:               0.0
 (Enter /sw/cluster/pub/apps//g16/l103.exe)

 GradGradGradGradGradGradGradGradGradGradGradGradGradGradGradGradGradGrad
 Berny optimization.
 Initialization pass.
                           ----------------------------
                           !    Initial Parameters    !
                           ! (Angstroms and Degrees)  !
 --------------------------                            --------------------------
 ! Name  Definition              Value          Derivative Info.                !
 --------------------------------------------------------------------------------
 ! R1    R(1,2)                  1.5276         calculate D2E/DX2 analytically  !
 ! R2    R(1,5)                  1.5275         calculate D2E/DX2 analytically  !
 ! R3    R(1,22)                 1.544          calculate D2E/DX2 analytically  !
 ! R4    R(1,26)                 1.5441         calculate D2E/DX2 analytically  !
 ! R5    R(2,3)                  1.4064         calculate D2E/DX2 analytically  !
 ! R6    R(2,17)                 1.3881         calculate D2E/DX2 analytically  !
 ! R7    R(3,4)                  1.4678         calculate D2E/DX2 analytically  !
 ! R8    R(3,14)                 1.3942         calculate D2E/DX2 analytically  !
 ! R9    R(4,5)                  1.4064         calculate D2E/DX2 analytically  !
 ! R10   R(4,9)                  1.3942         calculate D2E/DX2 analytically  !
 ! R11   R(5,6)                  1.3881         calculate D2E/DX2 analytically  !
 ! R12   R(6,7)                  1.3972         calculate D2E/DX2 analytically  !
 ! R13   R(6,13)                 1.0851         calculate D2E/DX2 analytically  !
 ! R14   R(7,8)                  1.3957         calculate D2E/DX2 analytically  !
 ! R15   R(7,12)                 1.0842         calculate D2E/DX2 analytically  !
 ! R16   R(8,9)                  1.3939         calculate D2E/DX2 analytically  !
 ! R17   R(8,11)                 1.0842         calculate D2E/DX2 analytically  !
 ! R18   R(9,10)                 1.0846         calculate D2E/DX2 analytically  !
 ! R19   R(14,15)                1.3938         calculate D2E/DX2 analytically  !
 ! R20   R(14,21)                1.0845         calculate D2E/DX2 analytically  !
 ! R21   R(15,16)                1.3957         calculate D2E/DX2 analytically  !
 ! R22   R(15,20)                1.0842         calculate D2E/DX2 analytically  !
 ! R23   R(16,17)                1.3972         calculate D2E/DX2 analytically  !
 ! R24   R(16,19)                1.0842         calculate D2E/DX2 analytically  !
 ! R25   R(17,18)                1.0851         calculate D2E/DX2 analytically  !
 ! R26   R(22,23)                1.0921         calculate D2E/DX2 analytically  !
 ! R27   R(22,24)                1.0937         calculate D2E/DX2 analytically  !
 ! R28   R(22,25)                1.0937         calculate D2E/DX2 analytically  !
 ! R29   R(26,27)                1.0937         calculate D2E/DX2 analytically  !
 ! R30   R(26,28)                1.0937         calculate D2E/DX2 analytically  !
 ! R31   R(26,29)                1.0921         calculate D2E/DX2 analytically  !
 ! A1    A(2,1,5)              101.1834         calculate D2E/DX2 analytically  !
 ! A2    A(2,1,22)             111.3492         calculate D2E/DX2 analytically  !
 ! A3    A(2,1,26)             111.3413         calculate D2E/DX2 analytically  !
 ! A4    A(5,1,22)             111.3547         calculate D2E/DX2 analytically  !
 ! A5    A(5,1,26)             111.3478         calculate D2E/DX2 analytically  !
 ! A6    A(22,1,26)            110.0209         calculate D2E/DX2 analytically  !
 ! A7    A(1,2,3)              110.9024         calculate D2E/DX2 analytically  !
 ! A8    A(1,2,17)             128.8628         calculate D2E/DX2 analytically  !
 ! A9    A(3,2,17)             120.2348         calculate D2E/DX2 analytically  !
 ! A10   A(2,3,4)              108.5042         calculate D2E/DX2 analytically  !
 ! A11   A(2,3,14)             120.5499         calculate D2E/DX2 analytically  !
 ! A12   A(4,3,14)             130.9459         calculate D2E/DX2 analytically  !
 ! A13   A(3,4,5)              108.5024         calculate D2E/DX2 analytically  !
 ! A14   A(3,4,9)              130.9571         calculate D2E/DX2 analytically  !
 ! A15   A(5,4,9)              120.5405         calculate D2E/DX2 analytically  !
 ! A16   A(1,5,4)              110.9075         calculate D2E/DX2 analytically  !
 ! A17   A(1,5,6)              128.8484         calculate D2E/DX2 analytically  !
 ! A18   A(4,5,6)              120.2441         calculate D2E/DX2 analytically  !
 ! A19   A(5,6,7)              119.1992         calculate D2E/DX2 analytically  !
 ! A20   A(5,6,13)             120.92           calculate D2E/DX2 analytically  !
 ! A21   A(7,6,13)             119.8808         calculate D2E/DX2 analytically  !
 ! A22   A(6,7,8)              120.5196         calculate D2E/DX2 analytically  !
 ! A23   A(6,7,12)             119.7616         calculate D2E/DX2 analytically  !
 ! A24   A(8,7,12)             119.7187         calculate D2E/DX2 analytically  !
 ! A25   A(7,8,9)              120.5642         calculate D2E/DX2 analytically  !
 ! A26   A(7,8,11)             119.6803         calculate D2E/DX2 analytically  !
 ! A27   A(9,8,11)             119.7555         calculate D2E/DX2 analytically  !
 ! A28   A(4,9,8)              118.9324         calculate D2E/DX2 analytically  !
 ! A29   A(4,9,10)             120.8573         calculate D2E/DX2 analytically  !
 ! A30   A(8,9,10)             120.2103         calculate D2E/DX2 analytically  !
 ! A31   A(3,14,15)            118.9298         calculate D2E/DX2 analytically  !
 ! A32   A(3,14,21)            120.8493         calculate D2E/DX2 analytically  !
 ! A33   A(15,14,21)           120.2209         calculate D2E/DX2 analytically  !
 ! A34   A(14,15,16)           120.5597         calculate D2E/DX2 analytically  !
 ! A35   A(14,15,20)           119.762          calculate D2E/DX2 analytically  !
 ! A36   A(16,15,20)           119.6783         calculate D2E/DX2 analytically  !
 ! A37   A(15,16,17)           120.5249         calculate D2E/DX2 analytically  !
 ! A38   A(15,16,19)           119.7166         calculate D2E/DX2 analytically  !
 ! A39   A(17,16,19)           119.7585         calculate D2E/DX2 analytically  !
 ! A40   A(2,17,16)            119.201          calculate D2E/DX2 analytically  !
 ! A41   A(2,17,18)            120.9254         calculate D2E/DX2 analytically  !
 ! A42   A(16,17,18)           119.8736         calculate D2E/DX2 analytically  !
 ! A43   A(1,22,23)            111.0487         calculate D2E/DX2 analytically  !
 ! A44   A(1,22,24)            110.6646         calculate D2E/DX2 analytically  !
 ! A45   A(1,22,25)            110.6591         calculate D2E/DX2 analytically  !
 ! A46   A(23,22,24)           108.2303         calculate D2E/DX2 analytically  !
 ! A47   A(23,22,25)           108.2335         calculate D2E/DX2 analytically  !
 ! A48   A(24,22,25)           107.8944         calculate D2E/DX2 analytically  !
 ! A49   A(1,26,27)            110.6586         calculate D2E/DX2 analytically  !
 ! A50   A(1,26,28)            110.6665         calculate D2E/DX2 analytically  !
 ! A51   A(1,26,29)            111.0482         calculate D2E/DX2 analytically  !
 ! A52   A(27,26,28)           107.8951         calculate D2E/DX2 analytically  !
 ! A53   A(27,26,29)           108.2318         calculate D2E/DX2 analytically  !
 ! A54   A(28,26,29)           108.2304         calculate D2E/DX2 analytically  !
 ! D1    D(5,1,2,3)             -0.0015         calculate D2E/DX2 analytically  !
 ! D2    D(5,1,2,17)           179.9997         calculate D2E/DX2 analytically  !
 ! D3    D(22,1,2,3)          -118.4139         calculate D2E/DX2 analytically  !
 ! D4    D(22,1,2,17)           61.5872         calculate D2E/DX2 analytically  !
 ! D5    D(26,1,2,3)           118.3994         calculate D2E/DX2 analytically  !
 ! D6    D(26,1,2,17)          -61.5994         calculate D2E/DX2 analytically  !
 ! D7    D(2,1,5,4)              0.0006         calculate D2E/DX2 analytically  !
 ! D8    D(2,1,5,6)           -179.9982         calculate D2E/DX2 analytically  !
 ! D9    D(22,1,5,4)           118.4091         calculate D2E/DX2 analytically  !
 ! D10   D(22,1,5,6)           -61.5897         calculate D2E/DX2 analytically  !
 ! D11   D(26,1,5,4)          -118.3956         calculate D2E/DX2 analytically  !
 ! D12   D(26,1,5,6)            61.6056         calculate D2E/DX2 analytically  !
 ! D13   D(2,1,22,23)           56.0798         calculate D2E/DX2 analytically  !
 ! D14   D(2,1,22,24)          176.305          calculate D2E/DX2 analytically  !
 ! D15   D(2,1,22,25)          -64.1458         calculate D2E/DX2 analytically  !
 ! D16   D(5,1,22,23)          -56.0321         calculate D2E/DX2 analytically  !
 ! D17   D(5,1,22,24)           64.1931         calculate D2E/DX2 analytically  !
 ! D18   D(5,1,22,25)         -176.2577         calculate D2E/DX2 analytically  !
 ! D19   D(26,1,22,23)        -179.9822         calculate D2E/DX2 analytically  !
 ! D20   D(26,1,22,24)         -59.757          calculate D2E/DX2 analytically  !
 ! D21   D(26,1,22,25)          59.7921         calculate D2E/DX2 analytically  !
 ! D22   D(2,1,26,27)           64.1442         calculate D2E/DX2 analytically  !
 ! D23   D(2,1,26,28)         -176.3049         calculate D2E/DX2 analytically  !
 ! D24   D(2,1,26,29)          -56.0787         calculate D2E/DX2 analytically  !
 ! D25   D(5,1,26,27)          176.2475         calculate D2E/DX2 analytically  !
 ! D26   D(5,1,26,28)          -64.2016         calculate D2E/DX2 analytically  !
 ! D27   D(5,1,26,29)           56.0246         calculate D2E/DX2 analytically  !
 ! D28   D(22,1,26,27)         -59.7984         calculate D2E/DX2 analytically  !
 ! D29   D(22,1,26,28)          59.7525         calculate D2E/DX2 analytically  !
 ! D30   D(22,1,26,29)         179.9788         calculate D2E/DX2 analytically  !
 ! D31   D(1,2,3,4)              0.0019         calculate D2E/DX2 analytically  !
 ! D32   D(1,2,3,14)          -179.9972         calculate D2E/DX2 analytically  !
 ! D33   D(17,2,3,4)          -179.9992         calculate D2E/DX2 analytically  !
 ! D34   D(17,2,3,14)            0.0017         calculate D2E/DX2 analytically  !
 ! D35   D(1,2,17,16)          179.9976         calculate D2E/DX2 analytically  !
 ! D36   D(1,2,17,18)           -0.0045         calculate D2E/DX2 analytically  !
 ! D37   D(3,2,17,16)           -0.0011         calculate D2E/DX2 analytically  !
 ! D38   D(3,2,17,18)          179.9968         calculate D2E/DX2 analytically  !
 ! D39   D(2,3,4,5)             -0.0014         calculate D2E/DX2 analytically  !
 ! D40   D(2,3,4,9)           -180.0            calculate D2E/DX2 analytically  !
 ! D41   D(14,3,4,5)           179.9976         calculate D2E/DX2 analytically  !
 ! D42   D(14,3,4,9)            -0.001          calculate D2E/DX2 analytically  !
 ! D43   D(2,3,14,15)           -0.0015         calculate D2E/DX2 analytically  !
 ! D44   D(2,3,14,21)          179.9995         calculate D2E/DX2 analytically  !
 ! D45   D(4,3,14,15)          179.9996         calculate D2E/DX2 analytically  !
 ! D46   D(4,3,14,21)            0.0006         calculate D2E/DX2 analytically  !
 ! D47   D(3,4,5,1)              0.0004         calculate D2E/DX2 analytically  !
 ! D48   D(3,4,5,6)            179.9993         calculate D2E/DX2 analytically  !
 ! D49   D(9,4,5,1)            179.9992         calculate D2E/DX2 analytically  !
 ! D50   D(9,4,5,6)             -0.0019         calculate D2E/DX2 analytically  !
 ! D51   D(3,4,9,8)            179.9988         calculate D2E/DX2 analytically  !
 ! D52   D(3,4,9,10)            -0.0002         calculate D2E/DX2 analytically  !
 ! D53   D(5,4,9,8)              0.0004         calculate D2E/DX2 analytically  !
 ! D54   D(5,4,9,10)          -179.9986         calculate D2E/DX2 analytically  !
 ! D55   D(1,5,6,7)            179.9998         calculate D2E/DX2 analytically  !
 ! D56   D(1,5,6,13)             0.0005         calculate D2E/DX2 analytically  !
 ! D57   D(4,5,6,7)              0.0011         calculate D2E/DX2 analytically  !
 ! D58   D(4,5,6,13)          -179.9982         calculate D2E/DX2 analytically  !
 ! D59   D(5,6,7,8)              0.0011         calculate D2E/DX2 analytically  !
 ! D60   D(5,6,7,12)          -179.9989         calculate D2E/DX2 analytically  !
 ! D61   D(13,6,7,8)          -179.9996         calculate D2E/DX2 analytically  !
 ! D62   D(13,6,7,12)            0.0005         calculate D2E/DX2 analytically  !
 ! D63   D(6,7,8,9)             -0.0027         calculate D2E/DX2 analytically  !
 ! D64   D(6,7,8,11)          -179.9993         calculate D2E/DX2 analytically  !
 ! D65   D(12,7,8,9)           179.9973         calculate D2E/DX2 analytically  !
 ! D66   D(12,7,8,11)            0.0007         calculate D2E/DX2 analytically  !
 ! D67   D(7,8,9,4)              0.0019         calculate D2E/DX2 analytically  !
 ! D68   D(7,8,9,10)          -179.9991         calculate D2E/DX2 analytically  !
 ! D69   D(11,8,9,4)           179.9985         calculate D2E/DX2 analytically  !
 ! D70   D(11,8,9,10)           -0.0025         calculate D2E/DX2 analytically  !
 ! D71   D(3,14,15,16)           0.0007         calculate D2E/DX2 analytically  !
 ! D72   D(3,14,15,20)        -179.9993         calculate D2E/DX2 analytically  !
 ! D73   D(21,14,15,16)        179.9998         calculate D2E/DX2 analytically  !
 ! D74   D(21,14,15,20)         -0.0003         calculate D2E/DX2 analytically  !
 ! D75   D(14,15,16,17)         -0.0001         calculate D2E/DX2 analytically  !
 ! D76   D(14,15,16,19)       -179.9987         calculate D2E/DX2 analytically  !
 ! D77   D(20,15,16,17)        179.9999         calculate D2E/DX2 analytically  !
 ! D78   D(20,15,16,19)          0.0013         calculate D2E/DX2 analytically  !
 ! D79   D(15,16,17,2)           0.0003         calculate D2E/DX2 analytically  !
 ! D80   D(15,16,17,18)       -179.9976         calculate D2E/DX2 analytically  !
 ! D81   D(19,16,17,2)         179.9989         calculate D2E/DX2 analytically  !
 ! D82   D(19,16,17,18)          0.001          calculate D2E/DX2 analytically  !
 --------------------------------------------------------------------------------
 Trust Radius=3.00D-01 FncErr=1.00D-07 GrdErr=1.00D-07 EigMax=2.50D+02 EigMin=1.00D-04
 Number of steps in this run=      2 maximum allowed number of steps=      2.
 GradGradGradGradGradGradGradGradGradGradGradGradGradGradGradGradGradGrad

 Leave Link  103 at Wed Mar 11 11:32:03 2026, MaxMem=   104857600 cpu:               0.0 elap:               0.0
 (Enter /sw/cluster/pub/apps//g16/l202.exe)
                          Input orientation:                          
 ---------------------------------------------------------------------
 Center     Atomic      Atomic             Coordinates (Angstroms)
 Number     Number       Type             X           Y           Z
 ---------------------------------------------------------------------
      1          6           0        0.010579    0.005176    0.039727
      2          6           0        1.537379   -0.043261    0.051889
      3          6           0        2.080738    1.253846    0.032753
      4          6           0        0.976894    2.220987    0.007364
      5          6           0       -0.237805    1.512071    0.011026
      6          6           0       -1.446003    2.195104   -0.010057
      7          6           0       -1.438917    3.592092   -0.034912
      8          6           0       -0.233040    4.294815   -0.038577
      9          6           0        0.983570    3.614936   -0.017456
     10          1           0        1.917228    4.166773   -0.020417
     11          1           0       -0.243424    5.378835   -0.057969
     12          1           0       -2.377349    4.134843   -0.051486
     13          1           0       -2.389584    1.659235   -0.007446
     14          6           0        3.461912    1.443754    0.039525
     15          6           0        4.295909    0.327251    0.065603
     16          6           0        3.757590   -0.960306    0.084623
     17          6           0        2.373448   -1.150977    0.077830
     18          1           0        1.966318   -2.156726    0.092825
     19          1           0        4.419031   -1.819143    0.104850
     20          1           0        5.372063    0.459326    0.071174
     21          1           0        3.886132    2.441781    0.024837
     22          6           0       -0.582382   -0.638271    1.311914
     23          1           0       -0.187326   -0.163151    2.212423
     24          1           0       -1.671531   -0.539481    1.322663
     25          1           0       -0.341217   -1.704202    1.353501
     26          6           0       -0.563465   -0.683162   -1.217580
     27          1           0       -0.321888   -1.749812   -1.217764
     28          1           0       -1.652312   -0.585192   -1.248107
     29          1           0       -0.154897   -0.240133   -2.128366
 ---------------------------------------------------------------------
                    Distance matrix (angstroms):
                    1          2          3          4          5
     1  C    0.000000
     2  C    1.527617   0.000000
     3  C    2.417599   1.406446   0.000000
     4  C    2.417567   2.333012   1.467814   0.000000
     5  C    1.527498   2.360509   2.332980   1.406438   0.000000
     6  C    2.630569   3.730239   3.650438   2.423097   1.388063
     7  C    3.869442   4.699113   4.226103   2.778103   2.402347
     8  C    4.297264   4.686306   3.821799   2.401418   2.783190
     9  C    3.739030   3.700529   2.604044   1.394186   2.431997
    10  H    4.577971   4.227753   2.917997   2.161269   3.419445
    11  H    5.380546   5.708104   4.735556   3.386066   3.867384
    12  H    4.771233   5.726459   5.308651   3.862286   3.385335
    13  H    2.915290   4.280543   4.488845   3.413057   2.156884
    14  C    3.739145   2.432117   1.394186   2.603928   3.700458
    15  C    4.297494   2.783335   2.401383   3.821713   4.686293
    16  C    3.869659   2.402369   2.777947   4.225974   4.699068
    17  C    2.630834   1.388063   2.422990   3.650407   3.730271
    18  H    2.915742   2.156942   3.413019   4.488945   4.280761
    19  H    4.771459   3.385332   3.862133   5.308527   5.726422
    20  H    5.380776   3.867527   3.386083   4.735508   5.708109
    21  H    4.577901   3.419474   2.161180   2.917657   4.227459
    22  C    1.544049   2.536747   3.508357   3.508354   2.536732
    23  H    2.188175   2.767108   3.450066   3.449900   2.766779
    24  H    2.184507   3.486862   4.354240   4.045287   2.825743
    25  H    2.184430   2.825251   4.044785   4.353919   3.486738
    26  C    1.544072   2.536647   3.508154   3.508173   2.536646
    27  H    2.184446   2.825105   4.044548   4.353736   3.486671
    28  H    2.184550   3.486806   4.354116   4.045191   2.825731
    29  H    2.188192   2.766961   3.449706   3.449551   2.766603
                    6          7          8          9         10
     6  C    0.000000
     7  C    1.397228   0.000000
     8  C    2.425052   1.395698   0.000000
     9  C    2.814036   2.422657   1.393851   0.000000
    10  H    3.898578   3.405022   2.154153   1.084551   0.000000
    11  H    3.403621   2.149927   1.084243   2.149068   2.477684
    12  H    2.152141   1.084208   2.150307   3.401064   4.294808
    13  H    1.085130   2.154173   3.405574   3.899106   4.983627
    14  C    4.965341   5.351544   4.667688   3.295369   3.131210
    15  C    6.038555   6.599812   6.021943   4.667694   4.517462
    16  C    6.086291   6.909580   6.599741   5.351489   5.448385
    17  C    5.078600   6.086341   6.038540   4.965356   5.338188
    18  H    5.531088   6.682877   6.817390   5.855769   6.324703
    19  H    7.108164   7.975998   7.683932   6.430129   6.488906
    20  H    7.036017   7.497661   6.792657   5.405978   5.068475
    21  H    5.337951   5.448204   4.517225   3.130965   2.618058
    22  C    3.243679   4.521456   5.126519   4.723261   5.577778
    23  H    3.476356   4.551796   4.994252   4.540627   5.306879
    24  H    3.050403   4.355114   5.224236   5.109272   6.068928
    25  H    4.276029   5.584207   6.159365   5.650470   6.438678
    26  C    3.243671   4.521385   5.126352   4.723056   5.577536
    27  H    4.276044   5.584160   6.159212   5.650264   6.438421
    28  H    3.050471   4.355122   5.224152   5.109153   6.068774
    29  H    3.476286   4.551616   4.993904   4.540221   5.306409
                   11         12         13         14         15
    11  H    0.000000
    12  H    2.470060   0.000000
    13  H    4.294646   2.476030   0.000000
    14  C    5.405911   6.430180   5.855651   0.000000
    15  C    6.792593   7.683999   6.817282   1.393848   0.000000
    16  C    7.497542   7.975997   6.682680   2.422594   1.395690
    17  C    7.035972   7.108212   5.530916   2.814045   2.425111
    18  H    7.854322   7.646705   5.791847   3.899115   3.405565
    19  H    8.577638   9.036878   7.646499   3.401006   2.150280
    20  H    7.466722   8.577754   7.854242   2.149134   1.084243
    21  H    5.068172   6.488719   6.324399   1.084544   2.154256
    22  C    6.180375   5.278577   3.207058   4.723359   5.126719
    23  H    5.989277   5.328625   3.619233   4.540988   4.994869
    24  H    6.242764   4.922984   2.668172   5.650832   6.159688
    25  H    7.222965   6.341472   4.166616   5.108811   5.223831
    26  C    6.180205   5.278553   3.207173   4.723108   5.126501
    27  H    7.222804   6.341474   4.166754   5.108502   5.223531
    28  H    6.242677   4.923038   2.668382   5.650656   6.159523
    29  H    5.988922   5.328521   3.619354   4.540544   4.994507
                   16         17         18         19         20
    16  C    0.000000
    17  C    1.397229   0.000000
    18  H    2.154099   1.085131   0.000000
    19  H    1.084212   2.152112   2.475865   0.000000
    20  H    2.149897   3.403647   4.294566   2.469985   0.000000
    21  H    3.405039   3.898581   4.983631   4.294864   2.477957
    22  C    4.521648   3.243881   3.207453   5.278787   6.180580
    23  H    4.552510   3.477046   3.620112   5.329417   5.989927
    24  H    5.584369   4.276142   4.166764   6.341572   7.223299
    25  H    4.354727   3.050049   2.668107   4.922631   6.242337
    26  C    4.521510   3.243824   3.207547   5.278687   6.180345
    27  H    4.354500   3.049919   2.668166   4.922441   6.242014
    28  H    5.584256   4.276092   4.166809   6.341477   7.223114
    29  H    4.552309   3.476990   3.620299   5.329291   5.989533
                   21         22         23         24         25
    21  H    0.000000
    22  C    5.577715   0.000000
    23  H    5.307001   1.092119   0.000000
    24  H    6.438935   1.093672   1.770921   0.000000
    25  H    6.068360   1.093663   1.770951   1.768406   0.000000
    26  C    5.577435   2.529963   3.489529   2.775119   2.775316
    27  H    6.068027   2.775365   3.781770   3.120930   2.571742
    28  H    6.438735   2.775117   3.781477   2.571248   3.120820
    29  H    5.306492   3.489524   4.341592   3.781453   3.781746
                   26         27         28         29
    26  C    0.000000
    27  H    1.093664   0.000000
    28  H    1.093672   1.768414   0.000000
    29  H    1.092123   1.770935   1.770925   0.000000
 Stoichiometry    C15H14
 Framework group  C1[X(C15H14)]
 Deg. of freedom    81
 Full point group                 C1      NOp   1
 RotChk:  IX=0 Diff= 4.23D-16
 Largest Abelian subgroup         C1      NOp   1
 Largest concise Abelian subgroup C1      NOp   1
                         Standard orientation:                         
 ---------------------------------------------------------------------
 Center     Atomic      Atomic             Coordinates (Angstroms)
 Number     Number       Type             X           Y           Z
 ---------------------------------------------------------------------
      1          6           0       -0.000147    1.414795   -0.000019
      2          6           0        1.180260    0.445129   -0.000047
      3          6           0        0.733998   -0.888640   -0.000025
      4          6           0       -0.733817   -0.888758   -0.000029
      5          6           0       -1.180250    0.444946   -0.000019
      6          6           0       -2.539291    0.727306   -0.000034
      7          6           0       -3.454781   -0.328215   -0.000034
      8          6           0       -3.010902   -1.651446    0.000004
      9          6           0       -1.647612   -1.941722   -0.000013
     10          1           0       -1.309044   -2.972073    0.000003
     11          1           0       -3.733241   -2.460032   -0.000008
     12          1           0       -4.518434   -0.118095   -0.000065
     13          1           0       -2.895849    1.752183   -0.000057
     14          6           0        1.647757   -1.941634    0.000014
     15          6           0        3.011041   -1.651342   -0.000000
     16          6           0        3.454799   -0.328078   -0.000038
     17          6           0        2.539309    0.727445   -0.000065
     18          1           0        2.895998    1.752279   -0.000134
     19          1           0        4.518444   -0.117902   -0.000070
     20          1           0        3.733481   -2.459837    0.000018
     21          1           0        1.309014   -2.971920    0.000040
     22          6           0       -0.000170    2.300359   -1.264876
     23          1           0       -0.000502    1.690376   -2.170771
     24          1           0       -0.884204    2.943929   -1.285424
     25          1           0        0.884203    2.943439   -1.285675
     26          6           0       -0.000125    2.300043    1.265087
     27          1           0        0.884308    2.943036    1.286068
     28          1           0       -0.884106    2.943678    1.285824
     29          1           0       -0.000486    1.689815    2.170821
 ---------------------------------------------------------------------
 Rotational constants (GHZ):           1.0592580           0.5507449           0.3931073
 Leave Link  202 at Wed Mar 11 11:32:03 2026, MaxMem=   104857600 cpu:               0.0 elap:               0.0
 (Enter /sw/cluster/pub/apps//g16/l301.exe)
 Standard basis: 6-311G(d,p) (5D, 7F)
 Ernie: Thresh=  0.10000D-02 Tol=  0.10000D-05 Strict=F.
 There are   369 symmetry adapted cartesian basis functions of A   symmetry.
 There are   354 symmetry adapted basis functions of A   symmetry.
   354 basis functions,   592 primitive gaussians,   369 cartesian basis functions
    52 alpha electrons       52 beta electrons
       nuclear repulsion energy       927.4786592715 Hartrees.
 IExCor=  402 DFT=T Ex+Corr=B3LYP ExCW=0 ScaHFX=  0.200000
 ScaDFX=  0.800000  0.720000  1.000000  0.810000 ScalE2=  1.000000  1.000000
 IRadAn=      5 IRanWt=     -1 IRanGd=            0 ICorTp=0 IEmpDi=  4
 NAtoms=   29 NActive=   29 NUniq=   29 SFac= 1.00D+00 NAtFMM=   60 NAOKFM=F Big=F
 Integral buffers will be    131072 words long.
 Raffenetti 2 integral format.
 Two-electron integral symmetry is turned on.
 Leave Link  301 at Wed Mar 11 11:32:03 2026, MaxMem=   104857600 cpu:               0.0 elap:               0.0
 (Enter /sw/cluster/pub/apps//g16/l302.exe)
 NPDir=0 NMtPBC=     1 NCelOv=     1 NCel=       1 NClECP=     1 NCelD=      1
         NCelK=      1 NCelE2=     1 NClLst=     1 CellRange=     0.0.
 One-electron integrals computed using PRISM.
 One-electron integral symmetry used in STVInt
 NBasis=   354 RedAO= T EigKep=  1.16D-04  NBF=   354
 NBsUse=   354 1.00D-06 EigRej= -1.00D+00 NBFU=   354
 Precomputing XC quadrature grid using
 IXCGrd= 4 IRadAn=           5 IRanWt=          -1 IRanGd=           0 AccXCQ= 0.00D+00.
 Generated NRdTot=       0 NPtTot=           0 NUsed=           0 NTot=          32
 NSgBfM=   369   369   369   369   369 MxSgAt=    29 MxSgA2=    29.
 Leave Link  302 at Wed Mar 11 11:32:03 2026, MaxMem=   104857600 cpu:               0.4 elap:               0.4
 (Enter /sw/cluster/pub/apps//g16/l303.exe)
 DipDrv:  MaxL=1.
 Leave Link  303 at Wed Mar 11 11:32:03 2026, MaxMem=   104857600 cpu:               0.0 elap:               0.0
 (Enter /sw/cluster/pub/apps//g16/l401.exe)
 Initial guess from the checkpoint file:  "f1-6-311Gdp.chk"
 B after Tr=    -0.000000   -0.000000   -0.000000
         Rot=    1.000000   -0.000000   -0.000000    0.000000 Ang=   0.00 deg.
 Guess basis will be translated and rotated to current coordinates.
 JPrj=2 DoOrth=T DoCkMO=T.
 Leave Link  401 at Wed Mar 11 11:32:03 2026, MaxMem=   104857600 cpu:               0.1 elap:               0.1
 (Enter /sw/cluster/pub/apps//g16/l502.exe)
 Integral symmetry usage will be decided dynamically.
 Closed shell SCF:
 Using DIIS extrapolation, IDIIS=  1040.
 NGot=   104857600 LenX=   104579294 LenY=   104442692
 Requested convergence on RMS density matrix=1.00D-08 within 128 cycles.
 Requested convergence on MAX density matrix=1.00D-06.
 Requested convergence on             energy=1.00D-06.
 No special actions if energy rises.
 Fock matrices will be formed incrementally for  20 cycles.

 Cycle   1  Pass 1  IDiag  1:
 FoFJK:  IHMeth= 1 ICntrl=       0 DoSepK=F KAlg= 0 I1Cent=           0 FoldK=F
 IRaf= 870000000 NMat=       1 IRICut=       1 DoRegI=T DoRafI=F ISym2E= 0 IDoP0=0 IntGTp=1.
 FoFCou: FMM=F IPFlag=           0 FMFlag=      100000 FMFlg1=           0
         NFxFlg=           0 DoJE=F BraDBF=F KetDBF=F FulRan=T
         wScrn=  0.000000 ICntrl=         0 IOpCl=  0 I1Cent=           0 NGrid=           0
         NMat0=    1 NMatS0=      1 NMatT0=    0 NMatD0=    1 NMtDS0=    0 NMtDT0=    0
 Symmetry not used in FoFCou.
 E= -580.188567983874    
 DIIS: error= 3.29D-08 at cycle   1 NSaved=   1.
 NSaved= 1 IEnMin= 1 EnMin= -580.188567983874     IErMin= 1 ErrMin= 3.29D-08
 ErrMax= 3.29D-08  0.00D+00 EMaxC= 1.00D-01 BMatC= 2.39D-13 BMatP= 2.39D-13
 IDIUse=1 WtCom= 1.00D+00 WtEn= 0.00D+00
 Coeff-Com:  0.100D+01
 Coeff:      0.100D+01
 Gap=     0.181 Goal=   None    Shift=    0.000
 RMSDP=2.98D-09 MaxDP=1.30D-07              OVMax= 3.56D-07

 SCF Done:  E(RB3LYP) =  -580.188567984     A.U. after    1 cycles
            NFock=  1  Conv=0.30D-08     -V/T= 2.0045
 KE= 5.775747607818D+02 PE=-3.200393825403D+03 EE= 1.115151837366D+03
 Leave Link  502 at Wed Mar 11 11:32:17 2026, MaxMem=   104857600 cpu:              14.1 elap:              14.1
 (Enter /sw/cluster/pub/apps//g16/l801.exe)
 DoSCS=F DFT=T ScalE2(SS,OS)=  1.000000  1.000000
 Range of M.O.s used for correlation:     1   354
 NBasis=   354 NAE=    52 NBE=    52 NFC=     0 NFV=     0
 NROrb=    354 NOA=    52 NOB=    52 NVA=   302 NVB=   302

 **** Warning!!: The largest alpha MO coefficient is  0.19634958D+02

 Leave Link  801 at Wed Mar 11 11:32:17 2026, MaxMem=   104857600 cpu:               0.0 elap:               0.0
 (Enter /sw/cluster/pub/apps//g16/l1101.exe)
 Using compressed storage, NAtomX=    29.
 Will process     30 centers per pass.
 Leave Link 1101 at Wed Mar 11 11:32:18 2026, MaxMem=   104857600 cpu:               0.2 elap:               0.2
 (Enter /sw/cluster/pub/apps//g16/l1102.exe)
 Symmetrizing basis deriv contribution to polar:
 IMax=3 JMax=2 DiffMx= 0.00D+00
 Leave Link 1102 at Wed Mar 11 11:32:18 2026, MaxMem=   104857600 cpu:               0.0 elap:               0.0
 (Enter /sw/cluster/pub/apps//g16/l1110.exe)
 Forming Gx(P) for the SCF density, NAtomX=    29.
 Integral derivatives from FoFJK, PRISM(SPDF).
 Do as many integral derivatives as possible in FoFJK.
 G2DrvN: MDV=     104855376.
 G2DrvN: will do    30 centers at a time, making    1 passes.
 Calling FoFCou, ICntrl=  3107 FMM=F I1Cent=   0 AccDes= 0.00D+00.
 FoFJK:  IHMeth= 1 ICntrl=    3107 DoSepK=F KAlg= 0 I1Cent=           0 FoldK=F
 IRaf=         0 NMat=       1 IRICut=       1 DoRegI=T DoRafI=F ISym2E= 0 IDoP0=0 IntGTp=1.
 FoFCou: FMM=F IPFlag=           0 FMFlag=      100000 FMFlg1=           0
         NFxFlg=           0 DoJE=F BraDBF=F KetDBF=F FulRan=T
         wScrn=  0.000000 ICntrl=      3107 IOpCl=  0 I1Cent=           0 NGrid=           0
         NMat0=    1 NMatS0=      1 NMatT0=    0 NMatD0=    1 NMtDS0=    0 NMtDT0=    0
 Symmetry not used in FoFCou.
 End of G2Drv F.D. properties file   721 does not exist.
 End of G2Drv F.D. properties file   722 does not exist.
 End of G2Drv F.D. properties file   788 does not exist.
 Leave Link 1110 at Wed Mar 11 11:37:52 2026, MaxMem=   104857600 cpu:             333.7 elap:             334.1
 (Enter /sw/cluster/pub/apps//g16/l1002.exe)
 Minotr:  Closed shell wavefunction.
          IDoAtm=11111111111111111111111111111
          Direct CPHF calculation.
          Differentiating once with respect to electric field.
                with respect to dipole field.
          Differentiating once with respect to nuclear coordinates.
          Requested convergence is 1.0D-08 RMS, and 1.0D-07 maximum.
          Secondary convergence is 1.0D-12 RMS, and 1.0D-12 maximum.
          NewPWx=T KeepS1=F KeepF1=F KeepIn=T MapXYZ=F SortEE=F KeepMc=T.
         8741 words used for storage of precomputed grid.
 Two-electron integrals replicated using symmetry.
          MDV=     104857600 using IRadAn=       1.
          Solving linear equations simultaneously, MaxMat=     384.
 FoF2E skips out because all densities are zero.
 CalDSu exits because no D1Ps are significant.
 FoFJK:  IHMeth= 1 ICntrl=       0 DoSepK=F KAlg= 0 I1Cent=           0 FoldK=F
 IRaf= 840000000 NMat=      87 IRICut=     217 DoRegI=T DoRafI=T ISym2E= 2 IDoP0=3 IntGTp=3.
 FoFCou: FMM=F IPFlag=           0 FMFlag=      100000 FMFlg1=           0
         NFxFlg=           0 DoJE=F BraDBF=F KetDBF=F FulRan=T
         wScrn=  0.000000 ICntrl=         0 IOpCl=  0 I1Cent=           0 NGrid=           0
         NMat0=   87 NMatS0=     87 NMatT0=    0 NMatD0=   87 NMtDS0=    0 NMtDT0=    0
 Integrals replicated using symmetry in FoFCou.
 Raff kept on since  78.31% of shell-pairs survive, threshold=   0.20 IRatSp=78.
          There are    90 degrees of freedom in the 1st order CPHF.  IDoFFX=6 NUNeed=     3.
     87 vectors produced by pass  0 Test12= 1.74D-14 1.11D-09 XBig12= 3.16D+02 1.31D+01.
 AX will form    87 AO Fock derivatives at one time.
     87 vectors produced by pass  1 Test12= 1.74D-14 1.11D-09 XBig12= 5.01D+01 1.07D+00.
     87 vectors produced by pass  2 Test12= 1.74D-14 1.11D-09 XBig12= 4.67D-01 8.71D-02.
     87 vectors produced by pass  3 Test12= 1.74D-14 1.11D-09 XBig12= 1.30D-03 5.05D-03.
     87 vectors produced by pass  4 Test12= 1.74D-14 1.11D-09 XBig12= 3.60D-06 2.60D-04.
     73 vectors produced by pass  5 Test12= 1.74D-14 1.11D-09 XBig12= 3.69D-09 6.79D-06.
     20 vectors produced by pass  6 Test12= 1.74D-14 1.11D-09 XBig12= 4.27D-12 2.77D-07.
      3 vectors produced by pass  7 Test12= 1.74D-14 1.11D-09 XBig12= 4.96D-15 1.14D-08.
      1 vectors produced by pass  8 Test12= 1.74D-14 1.11D-09 XBig12= 1.23D-15 6.19D-09.
 InvSVY:  IOpt=1 It=  1 EMax= 1.07D-14
 Solved reduced A of dimension   532 with    90 vectors.
 FullF1:  Do perturbations      1 to       3.
 Isotropic polarizability for W=    0.000000      162.23 Bohr**3.
 End of Minotr F.D. properties file   721 does not exist.
 End of Minotr F.D. properties file   722 does not exist.
 End of Minotr F.D. properties file   788 does not exist.
 Leave Link 1002 at Wed Mar 11 11:48:03 2026, MaxMem=   104857600 cpu:             610.6 elap:             611.4
 (Enter /sw/cluster/pub/apps//g16/l601.exe)
 Copying SCF densities to generalized density rwf, IOpCl= 0 IROHF=0.

 **********************************************************************

            Population analysis using the SCF density.

 **********************************************************************

 Orbital symmetries:
       Occupied  (A) (A) (A) (A) (A) (A) (A) (A) (A) (A) (A) (A)
                 (A) (A) (A) (A) (A) (A) (A) (A) (A) (A) (A) (A)
                 (A) (A) (A) (A) (A) (A) (A) (A) (A) (A) (A) (A)
                 (A) (A) (A) (A) (A) (A) (A) (A) (A) (A) (A) (A)
                 (A) (A) (A) (A)
       Virtual   (A) (A) (A) (A) (A) (A) (A) (A) (A) (A) (A) (A)
                 (A) (A) (A) (A) (A) (A) (A) (A) (A) (A) (A) (A)
                 (A) (A) (A) (A) (A) (A) (A) (A) (A) (A) (A) (A)
                 (A) (A) (A) (A) (A) (A) (A) (A) (A) (A) (A) (A)
                 (A) (A) (A) (A) (A) (A) (A) (A) (A) (A) (A) (A)
                 (A) (A) (A) (A) (A) (A) (A) (A) (A) (A) (A) (A)
                 (A) (A) (A) (A) (A) (A) (A) (A) (A) (A) (A) (A)
                 (A) (A) (A) (A) (A) (A) (A) (A) (A) (A) (A) (A)
                 (A) (A) (A) (A) (A) (A) (A) (A) (A) (A) (A) (A)
                 (A) (A) (A) (A) (A) (A) (A) (A) (A) (A) (A) (A)
                 (A) (A) (A) (A) (A) (A) (A) (A) (A) (A) (A) (A)
                 (A) (A) (A) (A) (A) (A) (A) (A) (A) (A) (A) (A)
                 (A) (A) (A) (A) (A) (A) (A) (A) (A) (A) (A) (A)
                 (A) (A) (A) (A) (A) (A) (A) (A) (A) (A) (A) (A)
                 (A) (A) (A) (A) (A) (A) (A) (A) (A) (A) (A) (A)
                 (A) (A) (A) (A) (A) (A) (A) (A) (A) (A) (A) (A)
                 (A) (A) (A) (A) (A) (A) (A) (A) (A) (A) (A) (A)
                 (A) (A) (A) (A) (A) (A) (A) (A) (A) (A) (A) (A)
                 (A) (A) (A) (A) (A) (A) (A) (A) (A) (A) (A) (A)
                 (A) (A) (A) (A) (A) (A) (A) (A) (A) (A) (A) (A)
                 (A) (A) (A) (A) (A) (A) (A) (A) (A) (A) (A) (A)
                 (A) (A) (A) (A) (A) (A) (A) (A) (A) (A) (A) (A)
                 (A) (A) (A) (A) (A) (A) (A) (A) (A) (A) (A) (A)
                 (A) (A) (A) (A) (A) (A) (A) (A) (A) (A) (A) (A)
                 (A) (A) (A) (A) (A) (A) (A) (A) (A) (A) (A) (A)
                 (A) (A)
 The electronic state is 1-A.
 Alpha  occ. eigenvalues --  -10.19607 -10.17812 -10.17781 -10.17550 -10.17549
 Alpha  occ. eigenvalues --  -10.17423 -10.17423 -10.17403 -10.17402 -10.17338
 Alpha  occ. eigenvalues --  -10.17338 -10.17285 -10.17284 -10.16493 -10.16493
 Alpha  occ. eigenvalues --   -0.89318  -0.84777  -0.81598  -0.77759  -0.74583
 Alpha  occ. eigenvalues --   -0.73542  -0.71700  -0.69132  -0.64749  -0.62474
 Alpha  occ. eigenvalues --   -0.58733  -0.57890  -0.56097  -0.51345  -0.49919
 Alpha  occ. eigenvalues --   -0.47771  -0.45512  -0.45100  -0.43986  -0.43571
 Alpha  occ. eigenvalues --   -0.43250  -0.42235  -0.42151  -0.39599  -0.38607
 Alpha  occ. eigenvalues --   -0.38577  -0.37846  -0.35607  -0.35120  -0.34814
 Alpha  occ. eigenvalues --   -0.34508  -0.32397  -0.32327  -0.28665  -0.25364
 Alpha  occ. eigenvalues --   -0.24991  -0.22011
 Alpha virt. eigenvalues --   -0.03868  -0.01791   0.00084   0.03262   0.03874
 Alpha virt. eigenvalues --    0.05437   0.05463   0.07705   0.07710   0.09685
 Alpha virt. eigenvalues --    0.09773   0.10259   0.10726   0.12559   0.13787
 Alpha virt. eigenvalues --    0.14128   0.14236   0.14797   0.16795   0.17594
 Alpha virt. eigenvalues --    0.19856   0.20045   0.20533   0.23864   0.24438
 Alpha virt. eigenvalues --    0.25071   0.26172   0.27077   0.27587   0.27952
 Alpha virt. eigenvalues --    0.28975   0.30854   0.31447   0.32477   0.35222
 Alpha virt. eigenvalues --    0.36486   0.36674   0.37342   0.39410   0.39618
 Alpha virt. eigenvalues --    0.40338   0.40764   0.40814   0.41865   0.42170
 Alpha virt. eigenvalues --    0.42927   0.43302   0.43816   0.45552   0.45627
 Alpha virt. eigenvalues --    0.46655   0.47488   0.47670   0.47710   0.49745
 Alpha virt. eigenvalues --    0.49848   0.51421   0.52487   0.53107   0.54409
 Alpha virt. eigenvalues --    0.55215   0.55415   0.55667   0.57832   0.58150
 Alpha virt. eigenvalues --    0.58583   0.58943   0.59703   0.60667   0.61208
 Alpha virt. eigenvalues --    0.61853   0.62553   0.62861   0.62929   0.63815
 Alpha virt. eigenvalues --    0.64345   0.64735   0.65727   0.66388   0.67336
 Alpha virt. eigenvalues --    0.69257   0.70043   0.72776   0.72894   0.75143
 Alpha virt. eigenvalues --    0.75719   0.76269   0.76540   0.79184   0.80742
 Alpha virt. eigenvalues --    0.82283   0.83207   0.84763   0.85274   0.86861
 Alpha virt. eigenvalues --    0.88765   0.89051   0.89330   0.94166   0.95936
 Alpha virt. eigenvalues --    0.96297   0.97594   1.01563   1.02104   1.02434
 Alpha virt. eigenvalues --    1.03139   1.04242   1.05132   1.06867   1.07134
 Alpha virt. eigenvalues --    1.07326   1.09495   1.10484   1.10993   1.15301
 Alpha virt. eigenvalues --    1.15983   1.16654   1.18632   1.21120   1.22528
 Alpha virt. eigenvalues --    1.24591   1.28232   1.28481   1.32337   1.38385
 Alpha virt. eigenvalues --    1.40367   1.43119   1.43243   1.44260   1.44908
 Alpha virt. eigenvalues --    1.45878   1.46629   1.47252   1.48270   1.48310
 Alpha virt. eigenvalues --    1.48388   1.49465   1.49932   1.54515   1.55485
 Alpha virt. eigenvalues --    1.55744   1.56202   1.57234   1.57565   1.58017
 Alpha virt. eigenvalues --    1.58594   1.60032   1.61184   1.62332   1.63499
 Alpha virt. eigenvalues --    1.64709   1.65956   1.66486   1.66900   1.68526
 Alpha virt. eigenvalues --    1.70221   1.71533   1.72413   1.73328   1.74041
 Alpha virt. eigenvalues --    1.74784   1.75209   1.76349   1.78114   1.80673
 Alpha virt. eigenvalues --    1.82458   1.82573   1.84227   1.84968   1.86625
 Alpha virt. eigenvalues --    1.88111   1.89497   1.89570   1.90416   1.90615
 Alpha virt. eigenvalues --    1.91722   1.92539   1.93711   1.94256   1.94668
 Alpha virt. eigenvalues --    1.97794   1.99595   2.00668   2.03646   2.06702
 Alpha virt. eigenvalues --    2.06878   2.09104   2.09995   2.10309   2.11395
 Alpha virt. eigenvalues --    2.11670   2.12488   2.18563   2.22480   2.23118
 Alpha virt. eigenvalues --    2.26373   2.26709   2.26915   2.31115   2.33072
 Alpha virt. eigenvalues --    2.33615   2.35238   2.35625   2.38898   2.41064
 Alpha virt. eigenvalues --    2.42491   2.42746   2.44157   2.47064   2.48907
 Alpha virt. eigenvalues --    2.50097   2.51488   2.51971   2.52467   2.53117
 Alpha virt. eigenvalues --    2.56266   2.56755   2.57799   2.59518   2.60624
 Alpha virt. eigenvalues --    2.61772   2.62010   2.62167   2.63968   2.64077
 Alpha virt. eigenvalues --    2.64936   2.66020   2.66136   2.68502   2.69823
 Alpha virt. eigenvalues --    2.71679   2.72259   2.72464   2.73119   2.73409
 Alpha virt. eigenvalues --    2.76800   2.80580   2.80604   2.81960   2.82577
 Alpha virt. eigenvalues --    2.84009   2.87144   2.89055   2.89100   2.91605
 Alpha virt. eigenvalues --    2.91907   2.92164   2.93610   2.99163   3.01876
 Alpha virt. eigenvalues --    3.06873   3.12272   3.13882   3.14898   3.20792
 Alpha virt. eigenvalues --    3.21204   3.24841   3.25564   3.33311   3.37693
 Alpha virt. eigenvalues --    3.39782   3.40570   3.45827   3.47421   3.48824
 Alpha virt. eigenvalues --    3.55158   3.57567   3.63030   3.69067   3.71772
 Alpha virt. eigenvalues --    3.76913   3.78244   3.81886   3.83090   3.85512
 Alpha virt. eigenvalues --    4.02370   4.02931   4.03225   4.06123   4.13158
 Alpha virt. eigenvalues --    4.20828   4.25223   4.33063   4.41475   4.61441
 Alpha virt. eigenvalues --    4.82669   4.86824  23.43626  23.62964  23.81109
 Alpha virt. eigenvalues --   23.91976  23.92284  23.92984  23.93972  23.94518
 Alpha virt. eigenvalues --   23.99194  24.07575  24.08423  24.10328  24.11212
 Alpha virt. eigenvalues --   24.19016  24.19436
          Condensed to atoms (all electrons):
               1          2          3          4          5          6
     1  C    5.257492   0.363400  -0.083572  -0.083549   0.363419  -0.057462
     2  C    0.363400   5.119824   0.540366  -0.050367  -0.127762   0.006896
     3  C   -0.083572   0.540366   4.908975   0.399866  -0.050381   0.014099
     4  C   -0.083549  -0.050367   0.399866   4.908900   0.540374  -0.038846
     5  C    0.363419  -0.127762  -0.050381   0.540374   5.119817   0.509335
     6  C   -0.057462   0.006896   0.014099  -0.038846   0.509335   4.826408
     7  C    0.005939  -0.000925   0.000996  -0.043560  -0.048879   0.515501
     8  C    0.000003  -0.000488   0.010985  -0.040801  -0.050506  -0.050303
     9  C    0.010293   0.007324  -0.070657   0.514593  -0.063606  -0.044422
    10  H   -0.000548  -0.000144  -0.014439  -0.037863   0.009899  -0.000872
    11  H    0.000044   0.000015  -0.000443   0.007463   0.000229   0.007425
    12  H   -0.000390   0.000036  -0.000018  -0.000098   0.008596  -0.040513
    13  H   -0.006842   0.000784  -0.000874   0.008656  -0.044546   0.416129
    14  C    0.010288  -0.063602   0.514595  -0.070654   0.007326  -0.000232
    15  C    0.000003  -0.050503  -0.040799   0.010987  -0.000488  -0.000001
    16  C    0.005935  -0.048897  -0.043551   0.000998  -0.000925  -0.000001
    17  C   -0.057432   0.509330  -0.038855   0.014102   0.006892  -0.000174
    18  H   -0.006836  -0.044547   0.008655  -0.000874   0.000783   0.000016
    19  H   -0.000390   0.008598  -0.000099  -0.000018   0.000036   0.000000
    20  H    0.000044   0.000230   0.007461  -0.000443   0.000015  -0.000000
    21  H   -0.000548   0.009898  -0.037857  -0.014446  -0.000143   0.000036
    22  C    0.360535  -0.073106   0.000983   0.000977  -0.073095  -0.003688
    23  H   -0.031084  -0.005211   0.002062   0.002062  -0.005218   0.000092
    24  H   -0.029932   0.009783  -0.000082  -0.000800  -0.011537   0.003959
    25  H   -0.029937  -0.011556  -0.000800  -0.000080   0.009781  -0.000163
    26  C    0.360527  -0.073119   0.000977   0.000975  -0.073112  -0.003689
    27  H   -0.029937  -0.011558  -0.000801  -0.000080   0.009782  -0.000163
    28  H   -0.029932   0.009783  -0.000081  -0.000801  -0.011534   0.003960
    29  H   -0.031080  -0.005212   0.002064   0.002062  -0.005220   0.000091
               7          8          9         10         11         12
     1  C    0.005939   0.000003   0.010293  -0.000548   0.000044  -0.000390
     2  C   -0.000925  -0.000488   0.007324  -0.000144   0.000015   0.000036
     3  C    0.000996   0.010985  -0.070657  -0.014439  -0.000443  -0.000018
     4  C   -0.043560  -0.040801   0.514593  -0.037863   0.007463  -0.000098
     5  C   -0.048879  -0.050506  -0.063606   0.009899   0.000229   0.008596
     6  C    0.515501  -0.050303  -0.044422  -0.000872   0.007425  -0.040513
     7  C    4.865517   0.517262  -0.060990   0.007667  -0.042933   0.412786
     8  C    0.517262   4.866756   0.510813  -0.046062   0.412178  -0.044395
     9  C   -0.060990   0.510813   4.851997   0.415003  -0.039243   0.007872
    10  H    0.007667  -0.046062   0.415003   0.589974  -0.007708  -0.000335
    11  H   -0.042933   0.412178  -0.039243  -0.007708   0.580406  -0.008103
    12  H    0.412786  -0.044395   0.007872  -0.000335  -0.008103   0.581652
    13  H   -0.042728   0.007492  -0.000257   0.000089  -0.000368  -0.007757
    14  C    0.000100  -0.000074  -0.002303   0.002823   0.000005  -0.000002
    15  C    0.000000  -0.000002  -0.000074   0.000108  -0.000000   0.000000
    16  C    0.000000   0.000000   0.000100  -0.000009  -0.000000   0.000000
    17  C   -0.000001  -0.000001  -0.000232   0.000036  -0.000000   0.000000
    18  H   -0.000001   0.000000  -0.000002   0.000001   0.000000  -0.000000
    19  H    0.000000   0.000000  -0.000002  -0.000001  -0.000000  -0.000000
    20  H   -0.000000  -0.000000   0.000005   0.000009   0.000000  -0.000000
    21  H   -0.000009   0.000109   0.002823   0.000937   0.000009  -0.000001
    22  C   -0.000113   0.000036  -0.000271   0.000017   0.000000   0.000004
    23  H   -0.000087  -0.000027  -0.000120   0.000003  -0.000001   0.000004
    24  H    0.000060   0.000001  -0.000030   0.000001  -0.000000   0.000011
    25  H    0.000020  -0.000002   0.000025  -0.000002   0.000000  -0.000001
    26  C   -0.000113   0.000036  -0.000271   0.000017   0.000000   0.000004
    27  H    0.000020  -0.000002   0.000025  -0.000002   0.000000  -0.000001
    28  H    0.000060   0.000001  -0.000030   0.000001  -0.000000   0.000011
    29  H   -0.000087  -0.000027  -0.000120   0.000003  -0.000001   0.000004
              13         14         15         16         17         18
     1  C   -0.006842   0.010288   0.000003   0.005935  -0.057432  -0.006836
     2  C    0.000784  -0.063602  -0.050503  -0.048897   0.509330  -0.044547
     3  C   -0.000874   0.514595  -0.040799  -0.043551  -0.038855   0.008655
     4  C    0.008656  -0.070654   0.010987   0.000998   0.014102  -0.000874
     5  C   -0.044546   0.007326  -0.000488  -0.000925   0.006892   0.000783
     6  C    0.416129  -0.000232  -0.000001  -0.000001  -0.000174   0.000016
     7  C   -0.042728   0.000100   0.000000   0.000000  -0.000001  -0.000001
     8  C    0.007492  -0.000074  -0.000002   0.000000  -0.000001   0.000000
     9  C   -0.000257  -0.002303  -0.000074   0.000100  -0.000232  -0.000002
    10  H    0.000089   0.002823   0.000108  -0.000009   0.000036   0.000001
    11  H   -0.000368   0.000005  -0.000000  -0.000000  -0.000000   0.000000
    12  H   -0.007757  -0.000002   0.000000   0.000000   0.000000  -0.000000
    13  H    0.588032  -0.000002   0.000000  -0.000001   0.000016   0.000004
    14  C   -0.000002   4.851958   0.510792  -0.061017  -0.044419  -0.000257
    15  C    0.000000   0.510792   4.866759   0.517274  -0.050285   0.007492
    16  C   -0.000001  -0.061017   0.517274   4.865496   0.515521  -0.042722
    17  C    0.000016  -0.044419  -0.050285   0.515521   4.826420   0.416119
    18  H    0.000004  -0.000257   0.007492  -0.042722   0.416119   0.588027
    19  H   -0.000000   0.007874  -0.044399   0.412787  -0.040514  -0.007760
    20  H    0.000000  -0.039241   0.412178  -0.042930   0.007425  -0.000368
    21  H    0.000001   0.415007  -0.046060   0.007665  -0.000873   0.000089
    22  C    0.000313  -0.000270   0.000036  -0.000113  -0.003685   0.000313
    23  H    0.000116  -0.000119  -0.000027  -0.000087   0.000090   0.000116
    24  H    0.001222   0.000025  -0.000002   0.000020  -0.000162  -0.000195
    25  H   -0.000195  -0.000031   0.000001   0.000060   0.003962   0.001224
    26  C    0.000313  -0.000271   0.000036  -0.000113  -0.003685   0.000312
    27  H   -0.000195  -0.000031   0.000001   0.000060   0.003964   0.001223
    28  H    0.001222   0.000025  -0.000002   0.000020  -0.000162  -0.000195
    29  H    0.000116  -0.000119  -0.000027  -0.000087   0.000090   0.000115
              19         20         21         22         23         24
     1  C   -0.000390   0.000044  -0.000548   0.360535  -0.031084  -0.029932
     2  C    0.008598   0.000230   0.009898  -0.073106  -0.005211   0.009783
     3  C   -0.000099   0.007461  -0.037857   0.000983   0.002062  -0.000082
     4  C   -0.000018  -0.000443  -0.014446   0.000977   0.002062  -0.000800
     5  C    0.000036   0.000015  -0.000143  -0.073095  -0.005218  -0.011537
     6  C    0.000000  -0.000000   0.000036  -0.003688   0.000092   0.003959
     7  C    0.000000  -0.000000  -0.000009  -0.000113  -0.000087   0.000060
     8  C    0.000000  -0.000000   0.000109   0.000036  -0.000027   0.000001
     9  C   -0.000002   0.000005   0.002823  -0.000271  -0.000120  -0.000030
    10  H   -0.000001   0.000009   0.000937   0.000017   0.000003   0.000001
    11  H   -0.000000   0.000000   0.000009   0.000000  -0.000001  -0.000000
    12  H   -0.000000  -0.000000  -0.000001   0.000004   0.000004   0.000011
    13  H   -0.000000   0.000000   0.000001   0.000313   0.000116   0.001222
    14  C    0.007874  -0.039241   0.415007  -0.000270  -0.000119   0.000025
    15  C   -0.044399   0.412178  -0.046060   0.000036  -0.000027  -0.000002
    16  C    0.412787  -0.042930   0.007665  -0.000113  -0.000087   0.000020
    17  C   -0.040514   0.007425  -0.000873  -0.003685   0.000090  -0.000162
    18  H   -0.007760  -0.000368   0.000089   0.000313   0.000116  -0.000195
    19  H    0.581661  -0.008104  -0.000334   0.000004   0.000004  -0.000001
    20  H   -0.008104   0.580396  -0.007703   0.000000  -0.000001   0.000000
    21  H   -0.000334  -0.007703   0.589963   0.000017   0.000003  -0.000002
    22  C    0.000004   0.000000   0.000017   4.878579   0.402072   0.397718
    23  H    0.000004  -0.000001   0.000003   0.402072   0.564069  -0.027079
    24  H   -0.000001   0.000000  -0.000002   0.397718  -0.027079   0.585755
    25  H    0.000011  -0.000000   0.000001   0.397725  -0.027069  -0.029190
    26  C    0.000004   0.000000   0.000017  -0.073992   0.008800  -0.005109
    27  H    0.000011  -0.000000   0.000001  -0.005096  -0.000161  -0.000577
    28  H   -0.000001   0.000000  -0.000002  -0.005109  -0.000160   0.002676
    29  H    0.000004  -0.000001   0.000003   0.008800  -0.000468  -0.000160
              25         26         27         28         29
     1  C   -0.029937   0.360527  -0.029937  -0.029932  -0.031080
     2  C   -0.011556  -0.073119  -0.011558   0.009783  -0.005212
     3  C   -0.000800   0.000977  -0.000801  -0.000081   0.002064
     4  C   -0.000080   0.000975  -0.000080  -0.000801   0.002062
     5  C    0.009781  -0.073112   0.009782  -0.011534  -0.005220
     6  C   -0.000163  -0.003689  -0.000163   0.003960   0.000091
     7  C    0.000020  -0.000113   0.000020   0.000060  -0.000087
     8  C   -0.000002   0.000036  -0.000002   0.000001  -0.000027
     9  C    0.000025  -0.000271   0.000025  -0.000030  -0.000120
    10  H   -0.000002   0.000017  -0.000002   0.000001   0.000003
    11  H    0.000000   0.000000   0.000000  -0.000000  -0.000001
    12  H   -0.000001   0.000004  -0.000001   0.000011   0.000004
    13  H   -0.000195   0.000313  -0.000195   0.001222   0.000116
    14  C   -0.000031  -0.000271  -0.000031   0.000025  -0.000119
    15  C    0.000001   0.000036   0.000001  -0.000002  -0.000027
    16  C    0.000060  -0.000113   0.000060   0.000020  -0.000087
    17  C    0.003962  -0.003685   0.003964  -0.000162   0.000090
    18  H    0.001224   0.000312   0.001223  -0.000195   0.000115
    19  H    0.000011   0.000004   0.000011  -0.000001   0.000004
    20  H   -0.000000   0.000000  -0.000000   0.000000  -0.000001
    21  H    0.000001   0.000017   0.000001  -0.000002   0.000003
    22  C    0.397725  -0.073992  -0.005096  -0.005109   0.008800
    23  H   -0.027069   0.008800  -0.000161  -0.000160  -0.000468
    24  H   -0.029190  -0.005109  -0.000577   0.002676  -0.000160
    25  H    0.585741  -0.005096   0.002673  -0.000577  -0.000160
    26  C   -0.005096   4.878644   0.397720   0.397713   0.402070
    27  H    0.002673   0.397720   0.585745  -0.029189  -0.027070
    28  H   -0.000577   0.397713  -0.029189   0.585755  -0.027079
    29  H   -0.000160   0.402070  -0.027070  -0.027079   0.564070
 Mulliken charges:
               1
     1  C   -0.258452
     2  C   -0.019269
     3  C   -0.028774
     4  C   -0.028734
     5  C   -0.019329
     6  C   -0.063418
     7  C   -0.085503
     8  C   -0.092979
     9  C   -0.038241
    10  H    0.081395
    11  H    0.091025
    12  H    0.090633
    13  H    0.079262
    14  C   -0.038172
    15  C   -0.092994
    16  C   -0.085485
    17  C   -0.063487
    18  H    0.079269
    19  H    0.090630
    20  H    0.091030
    21  H    0.081398
    22  C   -0.209591
    23  H    0.117425
    24  H    0.103629
    25  H    0.103637
    26  C   -0.209596
    27  H    0.103636
    28  H    0.103629
    29  H    0.117426
 Sum of Mulliken charges =  -0.00000
 Mulliken charges with hydrogens summed into heavy atoms:
               1
     1  C   -0.258452
     2  C   -0.019269
     3  C   -0.028774
     4  C   -0.028734
     5  C   -0.019329
     6  C    0.015844
     7  C    0.005130
     8  C   -0.001954
     9  C    0.043153
    14  C    0.043226
    15  C   -0.001964
    16  C    0.005145
    17  C    0.015782
    22  C    0.115101
    26  C    0.115095
 APT charges:
               1
     1  C    0.120793
     2  C   -0.075489
     3  C    0.053548
     4  C    0.053574
     5  C   -0.075487
     6  C    0.005864
     7  C   -0.061589
     8  C   -0.056097
     9  C   -0.022443
    10  H    0.031519
    11  H    0.018397
    12  H    0.019909
    13  H    0.028030
    14  C   -0.022470
    15  C   -0.056059
    16  C   -0.061610
    17  C    0.005864
    18  H    0.028018
    19  H    0.019898
    20  H    0.018405
    21  H    0.031535
    22  C    0.042109
    23  H   -0.004933
    24  H   -0.019620
    25  H   -0.019598
    26  C    0.042096
    27  H   -0.019605
    28  H   -0.019627
    29  H   -0.004930
 Sum of APT charges =  -0.00000
 APT charges with hydrogens summed into heavy atoms:
               1
     1  C    0.120793
     2  C   -0.075489
     3  C    0.053548
     4  C    0.053574
     5  C   -0.075487
     6  C    0.033893
     7  C   -0.041681
     8  C   -0.037700
     9  C    0.009076
    14  C    0.009065
    15  C   -0.037654
    16  C   -0.041712
    17  C    0.033882
    22  C   -0.002042
    26  C   -0.002066
 Electronic spatial extent (au):  <R**2>=           2911.2911
 Charge=             -0.0000 electrons
 Dipole moment (field-independent basis, Debye):
    X=              0.0001    Y=              0.4398    Z=             -0.0000  Tot=              0.4398
 Quadrupole moment (field-independent basis, Debye-Ang):
   XX=            -81.9125   YY=            -80.7884   ZZ=            -94.4980
   XY=             -0.0003   XZ=              0.0000   YZ=             -0.0004
 Traceless Quadrupole moment (field-independent basis, Debye-Ang):
   XX=              3.8205   YY=              4.9446   ZZ=             -8.7651
   XY=             -0.0003   XZ=              0.0000   YZ=             -0.0004
 Octapole moment (field-independent basis, Debye-Ang**2):
  XXX=              0.0052  YYY=            -12.1150  ZZZ=              0.0000  XYY=             -0.0011
  XXY=             -1.5252  XXZ=             -0.0015  XZZ=             -0.0012  YZZ=              4.9083
  YYZ=             -0.0001  XYZ=             -0.0005
 Hexadecapole moment (field-independent basis, Debye-Ang**3):
 XXXX=          -2268.2135 YYYY=          -1272.1379 ZZZZ=           -280.7250 XXXY=             -0.0016
 XXXZ=              0.0005 YYYX=             -0.0029 YYYZ=             -0.0020 ZZZX=              0.0002
 ZZZY=             -0.0017 XXYY=           -582.9242 XXZZ=           -512.5437 YYZZ=           -287.6572
 XXYZ=             -0.0014 YYXZ=             -0.0001 ZZXY=             -0.0018
 N-N= 9.274786592715D+02 E-N=-3.200393821424D+03  KE= 5.775747607818D+02
  Exact polarizability: 226.906  -0.001 175.890  -0.000  -0.001  83.894
 Approx polarizability: 353.508  -0.003 298.521  -0.000  -0.001 130.877
 No NMR shielding tensors so no spin-rotation constants.
 Leave Link  601 at Wed Mar 11 11:48:03 2026, MaxMem=   104857600 cpu:               0.1 elap:               0.1
 (Enter /sw/cluster/pub/apps//g16/l701.exe)
 ... and contract with generalized density number  0.
 Compute integral second derivatives.
 Leave Link  701 at Wed Mar 11 11:48:03 2026, MaxMem=   104857600 cpu:               0.2 elap:               0.2
 (Enter /sw/cluster/pub/apps//g16/l702.exe)
 L702 exits ... SP integral derivatives will be done elsewhere.
 Leave Link  702 at Wed Mar 11 11:48:04 2026, MaxMem=   104857600 cpu:               0.0 elap:               0.0
 (Enter /sw/cluster/pub/apps//g16/l703.exe)
 Integral derivatives from FoFJK, PRISM(SPDF).
 Compute integral second derivatives, UseDBF=F ICtDFT=           0.
 Calling FoFJK, ICntrl=    100127 FMM=F ISym2X=0 I1Cent= 0 IOpClX= 0 NMat=1 NMatS=1 NMatT=0.
 FoFJK:  IHMeth= 1 ICntrl=  100127 DoSepK=F KAlg= 0 I1Cent=           0 FoldK=F
 IRaf=         0 NMat=       1 IRICut=       1 DoRegI=T DoRafI=F ISym2E= 0 IDoP0=0 IntGTp=1.
 FoFCou: FMM=F IPFlag=           0 FMFlag=      100000 FMFlg1=         800
         NFxFlg=           0 DoJE=F BraDBF=F KetDBF=F FulRan=T
         wScrn=  0.000000 ICntrl=    100127 IOpCl=  0 I1Cent=           0 NGrid=           0
         NMat0=    1 NMatS0=      1 NMatT0=    0 NMatD0=    1 NMtDS0=    0 NMtDT0=    0
 Symmetry not used in FoFCou.
 Leave Link  703 at Wed Mar 11 11:58:07 2026, MaxMem=   104857600 cpu:             602.7 elap:             603.4
 (Enter /sw/cluster/pub/apps//g16/l716.exe)
 Dipole        = 4.14751670D-05 1.73043396D-01-8.62904141D-06
 Polarizability= 2.26906351D+02-5.46613913D-04 1.75889601D+02
                -2.11774964D-05-5.05460178D-04 8.38940887D+01
 Full mass-weighted force constant matrix:
 Low frequencies ---   -9.4785   -8.3259   -6.6975   -0.0012   -0.0007    0.0009
 Low frequencies ---   76.9752  116.6535  121.3027
 Diagonal vibrational polarizability:
        1.9551578       1.2602177      11.5365143
 Harmonic frequencies (cm**-1), IR intensities (KM/Mole), Raman scattering
 activities (A**4/AMU), depolarization ratios for plane and unpolarized
 incident light, reduced masses (AMU), force constants (mDyne/A),
 and normal coordinates:
                      1                      2                      3
                      A                      A                      A
 Frequencies --     76.9725               116.6535               121.3025
 Red. masses --      3.4937                 4.0296                 3.3236
 Frc consts  --      0.0122                 0.0323                 0.0288
 IR Inten    --      0.0022                 2.0170                 0.0000
  Atom  AN      X      Y      Z        X      Y      Z        X      Y      Z
     1   6     0.00   0.00  -0.00    -0.00   0.00   0.11     0.00  -0.00  -0.00
     2   6     0.00  -0.00   0.04    -0.00  -0.00   0.15    -0.00  -0.00  -0.08
     3   6     0.00  -0.00  -0.09     0.00  -0.00   0.16    -0.00   0.00   0.01
     4   6    -0.00  -0.00  -0.09     0.00  -0.00   0.16    -0.00  -0.00  -0.01
     5   6     0.00  -0.00   0.04     0.00  -0.00   0.15    -0.00  -0.00   0.08
     6   6     0.00  -0.00   0.17     0.00  -0.00   0.01    -0.00   0.00   0.14
     7   6    -0.00   0.00   0.15     0.00  -0.00  -0.16    -0.00   0.00   0.02
     8   6     0.00  -0.00  -0.02    -0.00  -0.00  -0.16    -0.00  -0.00  -0.17
     9   6     0.00  -0.00  -0.14     0.00  -0.00   0.02    -0.00  -0.00  -0.16
    10   1     0.00  -0.00  -0.25    -0.00  -0.00   0.00    -0.00  -0.00  -0.29
    11   1     0.00  -0.00  -0.04    -0.00  -0.00  -0.31    -0.00  -0.00  -0.30
    12   1    -0.00   0.00   0.26     0.00  -0.00  -0.31    -0.00   0.00   0.04
    13   1    -0.00   0.00   0.29     0.00  -0.00  -0.01    -0.00   0.00   0.24
    14   6    -0.00  -0.00  -0.14     0.00  -0.00   0.02    -0.00   0.00   0.16
    15   6    -0.00  -0.00  -0.02     0.00  -0.00  -0.16    -0.00   0.00   0.17
    16   6     0.00  -0.00   0.15    -0.00  -0.00  -0.16    -0.00  -0.00  -0.02
    17   6     0.00   0.00   0.17    -0.00  -0.00   0.01    -0.00  -0.00  -0.14
    18   1     0.00   0.00   0.29    -0.00  -0.00  -0.02    -0.00  -0.00  -0.24
    19   1     0.00   0.00   0.26    -0.00  -0.00  -0.31    -0.00  -0.00  -0.04
    20   1    -0.00  -0.00  -0.04     0.00  -0.00  -0.31    -0.00   0.00   0.30
    21   1    -0.00  -0.00  -0.25     0.00  -0.00   0.00    -0.00   0.00   0.29
    22   6    -0.00  -0.14  -0.11    -0.00  -0.17  -0.01    -0.16   0.00   0.00
    23   1    -0.00  -0.24  -0.04    -0.00  -0.30   0.08    -0.29   0.00  -0.00
    24   1    -0.00  -0.14  -0.18    -0.00  -0.17  -0.10    -0.15   0.01   0.12
    25   1     0.00  -0.14  -0.18     0.00  -0.17  -0.10    -0.15  -0.01  -0.12
    26   6     0.00   0.14  -0.11     0.00   0.17  -0.01     0.16  -0.00   0.00
    27   1    -0.00   0.14  -0.18    -0.00   0.17  -0.10     0.15   0.01  -0.12
    28   1     0.00   0.14  -0.18     0.00   0.17  -0.10     0.15  -0.01   0.12
    29   1     0.00   0.24  -0.04     0.00   0.30   0.08     0.29  -0.00  -0.00
                      4                      5                      6
                      A                      A                      A
 Frequencies --    193.5708               204.3959               241.8989
 Red. masses --      2.7752                 4.1172                 2.1140
 Frc consts  --      0.0613                 0.1013                 0.0729
 IR Inten    --      0.0000                 0.0339                 0.0561
  Atom  AN      X      Y      Z        X      Y      Z        X      Y      Z
     1   6    -0.00  -0.00   0.00     0.00  -0.11   0.00    -0.00   0.00   0.00
     2   6    -0.00  -0.00   0.05    -0.02  -0.08   0.00    -0.05  -0.01  -0.00
     3   6    -0.00  -0.00   0.06     0.02  -0.10  -0.00    -0.04  -0.01  -0.00
     4   6    -0.00  -0.00  -0.06    -0.02  -0.10   0.00    -0.04   0.01  -0.00
     5   6    -0.00  -0.00  -0.05     0.02  -0.08   0.00    -0.05   0.01   0.00
     6   6    -0.00  -0.00   0.09     0.06   0.07   0.00    -0.06  -0.04   0.00
     7   6    -0.00   0.00   0.13    -0.04   0.17  -0.00    -0.04  -0.07   0.00
     8   6    -0.00  -0.00  -0.03    -0.13   0.14  -0.00    -0.02  -0.06  -0.00
     9   6    -0.00  -0.00  -0.12    -0.15   0.00   0.00    -0.01  -0.02  -0.00
    10   1    -0.00  -0.00  -0.19    -0.28  -0.04   0.00     0.03  -0.01  -0.00
    11   1    -0.00  -0.00  -0.05    -0.20   0.19  -0.00     0.00  -0.08  -0.00
    12   1    -0.00   0.00   0.25    -0.03   0.26  -0.00    -0.04  -0.09   0.00
    13   1    -0.00   0.00   0.18     0.18   0.11   0.00    -0.10  -0.05   0.00
    14   6     0.00   0.00   0.12     0.15   0.00  -0.00    -0.01   0.02  -0.00
    15   6     0.00   0.00   0.03     0.13   0.14  -0.00    -0.02   0.06   0.00
    16   6    -0.00   0.00  -0.13     0.04   0.17   0.00    -0.04   0.07  -0.00
    17   6    -0.00   0.00  -0.09    -0.06   0.07   0.00    -0.06   0.04  -0.00
    18   1    -0.00  -0.00  -0.18    -0.18   0.11   0.00    -0.10   0.05  -0.00
    19   1    -0.00   0.00  -0.25     0.03   0.26   0.00    -0.04   0.09   0.00
    20   1     0.00   0.00   0.05     0.20   0.19  -0.00     0.00   0.08   0.00
    21   1     0.00   0.00   0.19     0.28  -0.04  -0.00     0.03   0.01  -0.00
    22   6     0.19  -0.00  -0.00     0.00  -0.15  -0.03     0.17   0.00  -0.00
    23   1     0.40  -0.00  -0.00    -0.00  -0.20   0.01    -0.04   0.00   0.00
    24   1     0.17  -0.03  -0.18    -0.00  -0.15  -0.06     0.37   0.27   0.03
    25   1     0.17   0.03   0.18     0.00  -0.15  -0.06     0.37  -0.27  -0.03
    26   6    -0.19   0.00   0.00     0.00  -0.15   0.03     0.17   0.00   0.00
    27   1    -0.17  -0.03   0.18     0.00  -0.15   0.06     0.37  -0.27   0.03
    28   1    -0.17   0.03  -0.18    -0.00  -0.15   0.06     0.37   0.27  -0.03
    29   1    -0.40   0.00  -0.00    -0.00  -0.20  -0.01    -0.04   0.00  -0.00
                      7                      8                      9
                      A                      A                      A
 Frequencies --    247.1075               282.9876               320.5672
 Red. masses --      1.0532                 1.1752                 2.5955
 Frc consts  --      0.0379                 0.0555                 0.1572
 IR Inten    --      0.0000                 0.0594                 0.2448
  Atom  AN      X      Y      Z        X      Y      Z        X      Y      Z
     1   6    -0.00  -0.00   0.00     0.00  -0.00  -0.00    -0.00  -0.03  -0.00
     2   6    -0.00  -0.00  -0.00    -0.01  -0.00  -0.00    -0.01  -0.06  -0.00
     3   6    -0.00  -0.00  -0.00    -0.02  -0.00  -0.00     0.01  -0.08  -0.00
     4   6    -0.00   0.00   0.00    -0.02   0.00   0.00    -0.01  -0.08  -0.00
     5   6    -0.00   0.00   0.00    -0.01   0.00   0.00     0.01  -0.06  -0.00
     6   6    -0.00  -0.00  -0.00    -0.02  -0.01   0.00     0.02  -0.03  -0.00
     7   6    -0.00  -0.00  -0.01    -0.02  -0.02  -0.00    -0.03   0.01   0.00
     8   6    -0.00  -0.00  -0.00    -0.01  -0.02  -0.00    -0.07  -0.00   0.00
     9   6    -0.00  -0.00   0.01    -0.01  -0.01   0.00    -0.07  -0.05  -0.00
    10   1     0.00  -0.00   0.01     0.00  -0.00   0.00    -0.12  -0.06  -0.00
    11   1    -0.00  -0.00  -0.00    -0.01  -0.02  -0.00    -0.10   0.02   0.00
    12   1    -0.00  -0.00  -0.01    -0.02  -0.02  -0.00    -0.02   0.05   0.00
    13   1    -0.00  -0.00  -0.01    -0.03  -0.02   0.00     0.05  -0.02  -0.00
    14   6    -0.00   0.00  -0.01    -0.01   0.01  -0.00     0.07  -0.05  -0.00
    15   6    -0.00   0.00   0.00    -0.01   0.02   0.00     0.07  -0.00   0.00
    16   6    -0.00   0.00   0.01    -0.02   0.02   0.00     0.03   0.01   0.00
    17   6    -0.00   0.00   0.00    -0.02   0.01  -0.00    -0.02  -0.03  -0.00
    18   1    -0.00   0.00   0.01    -0.03   0.02  -0.00    -0.05  -0.02  -0.00
    19   1    -0.00   0.00   0.01    -0.02   0.02   0.00     0.02   0.05   0.00
    20   1     0.00   0.00   0.00    -0.01   0.02   0.00     0.10   0.02   0.00
    21   1     0.00   0.00  -0.01     0.00   0.00  -0.00     0.12  -0.06  -0.00
    22   6    -0.04  -0.00   0.00     0.07   0.00   0.00    -0.00   0.17   0.13
    23   1     0.34  -0.00  -0.00     0.49   0.00  -0.00    -0.00   0.39  -0.02
    24   1    -0.26  -0.31  -0.17    -0.10  -0.24  -0.24     0.01   0.18   0.29
    25   1    -0.26   0.31   0.17    -0.10   0.24   0.24    -0.01   0.18   0.29
    26   6     0.04   0.00   0.00     0.07   0.00  -0.00    -0.00   0.17  -0.13
    27   1     0.26  -0.31   0.17    -0.10   0.24  -0.24    -0.01   0.18  -0.29
    28   1     0.26   0.31  -0.17    -0.10  -0.24   0.24     0.01   0.18  -0.29
    29   1    -0.34   0.00  -0.00     0.49   0.00   0.00    -0.00   0.39   0.02
                     10                     11                     12
                      A                      A                      A
 Frequencies --    325.2518               354.1121               419.8861
 Red. masses --      3.5544                 3.6408                 6.1804
 Frc consts  --      0.2215                 0.2690                 0.6420
 IR Inten    --      0.0000                 0.5937                 0.2891
  Atom  AN      X      Y      Z        X      Y      Z        X      Y      Z
     1   6     0.00  -0.00  -0.00     0.00  -0.00   0.18    -0.00   0.06   0.00
     2   6    -0.00  -0.00   0.11    -0.00   0.00   0.04     0.13   0.05   0.00
     3   6    -0.00  -0.00   0.10    -0.00  -0.00  -0.12     0.06   0.07   0.00
     4   6    -0.00  -0.00  -0.10     0.00  -0.00  -0.12    -0.06   0.07   0.00
     5   6    -0.00   0.00  -0.11     0.00  -0.00   0.04    -0.13   0.05   0.00
     6   6    -0.00  -0.00  -0.18     0.00  -0.00  -0.16    -0.23  -0.08  -0.00
     7   6    -0.00  -0.00   0.10     0.00   0.00  -0.03    -0.27  -0.08   0.00
     8   6    -0.00  -0.00   0.10     0.00   0.00   0.15    -0.18  -0.05   0.00
     9   6    -0.00  -0.00  -0.17     0.00  -0.00  -0.09    -0.14   0.09  -0.00
    10   1    -0.00  -0.00  -0.26     0.00  -0.00  -0.13    -0.12   0.10  -0.00
    11   1    -0.00  -0.00   0.27     0.00   0.00   0.36    -0.09  -0.14   0.00
    12   1    -0.00  -0.00   0.28     0.00  -0.00  -0.03    -0.27  -0.09   0.00
    13   1    -0.00  -0.00  -0.27     0.00  -0.00  -0.28    -0.30  -0.10  -0.00
    14   6    -0.00   0.00   0.17    -0.00  -0.00  -0.09     0.14   0.09  -0.00
    15   6    -0.00   0.00  -0.10    -0.00   0.00   0.15     0.18  -0.05   0.00
    16   6    -0.00   0.00  -0.10    -0.00   0.00  -0.03     0.27  -0.08   0.00
    17   6    -0.00   0.00   0.18    -0.00  -0.00  -0.16     0.23  -0.08  -0.00
    18   1    -0.00   0.00   0.27    -0.00  -0.00  -0.28     0.30  -0.10  -0.00
    19   1    -0.00   0.00  -0.28    -0.00  -0.00  -0.03     0.27  -0.09   0.00
    20   1    -0.00   0.00  -0.27    -0.00   0.00   0.36     0.09  -0.14   0.00
    21   1     0.00   0.00   0.26    -0.00  -0.00  -0.13     0.12   0.10  -0.00
    22   6    -0.10   0.00  -0.00    -0.00  -0.14   0.11     0.00  -0.00  -0.05
    23   1    -0.19   0.00  -0.00    -0.00  -0.27   0.19     0.00  -0.09   0.00
    24   1    -0.12  -0.03   0.10    -0.00  -0.15   0.01    -0.00  -0.01  -0.11
    25   1    -0.12   0.03  -0.10     0.00  -0.15   0.01     0.00  -0.01  -0.11
    26   6     0.10  -0.00  -0.00     0.00   0.14   0.11     0.00  -0.00   0.05
    27   1     0.12  -0.03  -0.10    -0.00   0.15   0.01     0.00  -0.01   0.11
    28   1     0.12   0.03   0.10     0.00   0.15   0.01    -0.00  -0.01   0.11
    29   1     0.20  -0.00  -0.00     0.00   0.27   0.20     0.00  -0.09  -0.00
                     13                     14                     15
                      A                      A                      A
 Frequencies --    434.3373               488.2564               520.4794
 Red. masses --      3.2860                 2.9955                 5.2402
 Frc consts  --      0.3652                 0.4207                 0.8364
 IR Inten    --      5.6084                 0.0000                 0.2370
  Atom  AN      X      Y      Z        X      Y      Z        X      Y      Z
     1   6    -0.00   0.00  -0.04    -0.00   0.00   0.00     0.05  -0.00  -0.00
     2   6    -0.00  -0.00   0.03    -0.00  -0.00   0.21     0.11   0.16   0.00
     3   6    -0.00  -0.00   0.21    -0.00  -0.00   0.17    -0.02   0.17   0.00
     4   6     0.00   0.00   0.21    -0.00   0.00  -0.17    -0.02  -0.17  -0.00
     5   6     0.00   0.00   0.03    -0.00   0.00  -0.21     0.11  -0.16  -0.00
     6   6     0.00   0.00  -0.14    -0.00   0.00   0.07     0.16  -0.12   0.00
     7   6     0.00   0.00   0.14    -0.00  -0.00  -0.02     0.03   0.00   0.00
     8   6     0.00   0.00  -0.01     0.00  -0.00  -0.06    -0.17  -0.06  -0.00
     9   6     0.00  -0.00  -0.13     0.00   0.00   0.08    -0.16  -0.16   0.00
    10   1     0.00  -0.00  -0.40     0.00   0.00   0.44    -0.27  -0.20   0.00
    11   1     0.00   0.00  -0.09     0.00  -0.00   0.03    -0.26   0.02  -0.00
    12   1     0.00   0.00   0.26    -0.00  -0.00   0.11     0.06   0.20   0.00
    13   1     0.00  -0.00  -0.39    -0.00   0.00   0.39     0.26  -0.09   0.00
    14   6    -0.00  -0.00  -0.13     0.00  -0.00  -0.08    -0.16   0.16  -0.00
    15   6    -0.00  -0.00  -0.01     0.00   0.00   0.06    -0.17   0.06   0.00
    16   6    -0.00   0.00   0.14    -0.00   0.00   0.02     0.03  -0.00   0.00
    17   6    -0.00  -0.00  -0.14    -0.00  -0.00  -0.07     0.16   0.12  -0.00
    18   1    -0.00  -0.00  -0.39    -0.00  -0.00  -0.39     0.26   0.09  -0.00
    19   1    -0.00   0.00   0.26    -0.00   0.00  -0.11     0.06  -0.20   0.00
    20   1     0.00   0.00  -0.09     0.00   0.00  -0.03    -0.26  -0.02  -0.00
    21   1     0.00  -0.00  -0.40     0.00  -0.00  -0.44    -0.27   0.20  -0.00
    22   6    -0.00   0.03  -0.02    -0.04  -0.00  -0.00     0.02  -0.00   0.00
    23   1     0.00   0.07  -0.05    -0.12  -0.00   0.00     0.00   0.00   0.00
    24   1     0.00   0.04   0.00    -0.08  -0.04   0.08     0.04   0.03   0.01
    25   1    -0.00   0.04   0.00    -0.08   0.04  -0.08     0.04  -0.03  -0.01
    26   6     0.00  -0.03  -0.02     0.04   0.00   0.00     0.02  -0.00  -0.00
    27   1     0.00  -0.04   0.00     0.08  -0.04  -0.08     0.04  -0.03   0.01
    28   1    -0.00  -0.04   0.00     0.08   0.04   0.08     0.04   0.03  -0.01
    29   1    -0.00  -0.07  -0.05     0.12   0.00   0.00     0.00   0.00   0.00
                     16                     17                     18
                      A                      A                      A
 Frequencies --    557.2237               580.0987               581.7369
 Red. masses --      3.9075                 3.5476                 3.4042
 Frc consts  --      0.7148                 0.7034                 0.6788
 IR Inten    --      1.0995                 0.0000                11.6954
  Atom  AN      X      Y      Z        X      Y      Z        X      Y      Z
     1   6     0.00  -0.20   0.00    -0.00   0.00   0.00    -0.00  -0.00  -0.08
     2   6     0.08  -0.01  -0.00    -0.00   0.00  -0.07     0.00   0.00   0.17
     3   6    -0.00   0.06   0.00    -0.00   0.00   0.13    -0.00   0.00   0.01
     4   6     0.00   0.06  -0.00    -0.00  -0.00  -0.13     0.00   0.00   0.01
     5   6    -0.08  -0.01  -0.00    -0.00  -0.00   0.07    -0.00  -0.00   0.17
     6   6    -0.10   0.06  -0.00    -0.00   0.00   0.12    -0.00   0.00   0.08
     7   6    -0.05   0.02   0.00     0.00  -0.00  -0.18    -0.00   0.00  -0.13
     8   6     0.08   0.05  -0.00     0.00   0.00   0.18     0.00   0.00   0.15
     9   6     0.07   0.05   0.00    -0.00  -0.00  -0.12     0.00   0.00  -0.10
    10   1     0.08   0.06   0.00    -0.00  -0.00  -0.07     0.00  -0.00  -0.29
    11   1     0.12   0.02  -0.00    -0.00   0.00   0.44     0.00   0.00   0.23
    12   1    -0.07  -0.09   0.00     0.00  -0.00  -0.36     0.00  -0.00  -0.40
    13   1    -0.10   0.06   0.00     0.00   0.00   0.22    -0.00   0.00  -0.07
    14   6    -0.07   0.05   0.00     0.00   0.00   0.12    -0.00   0.00  -0.10
    15   6    -0.08   0.05  -0.00     0.00  -0.00  -0.18    -0.00   0.00   0.15
    16   6     0.05   0.02   0.00     0.00   0.00   0.18     0.00  -0.00  -0.13
    17   6     0.10   0.06  -0.00    -0.00  -0.00  -0.12     0.00   0.00   0.08
    18   1     0.10   0.06  -0.00     0.00  -0.00  -0.22     0.00   0.00  -0.07
    19   1     0.07  -0.09   0.00     0.00   0.00   0.36     0.00  -0.00  -0.40
    20   1    -0.12   0.02  -0.00     0.00  -0.00  -0.44    -0.00   0.00   0.23
    21   1    -0.08   0.06   0.00     0.00   0.00   0.07    -0.00   0.00  -0.29
    22   6     0.00  -0.14   0.22     0.01  -0.00   0.00     0.00   0.09  -0.10
    23   1    -0.00   0.07   0.08     0.04  -0.00   0.00     0.00   0.20  -0.17
    24   1     0.01  -0.12   0.37     0.02   0.01  -0.03     0.00   0.10  -0.01
    25   1    -0.01  -0.12   0.37     0.02  -0.01   0.03    -0.00   0.10  -0.01
    26   6    -0.00  -0.14  -0.22    -0.01   0.00   0.00    -0.00  -0.09  -0.10
    27   1    -0.01  -0.12  -0.37    -0.02   0.01   0.03     0.00  -0.10  -0.01
    28   1     0.01  -0.12  -0.37    -0.02  -0.01  -0.03    -0.00  -0.10  -0.01
    29   1    -0.00   0.07  -0.08    -0.04   0.00   0.00    -0.00  -0.20  -0.17
                     19                     20                     21
                      A                      A                      A
 Frequencies --    606.9113               636.7489               717.9083
 Red. masses --      3.9108                 6.8559                 5.4896
 Frc consts  --      0.8487                 1.6378                 1.6670
 IR Inten    --      0.4010                 6.3044                 0.1705
  Atom  AN      X      Y      Z        X      Y      Z        X      Y      Z
     1   6     0.26   0.00  -0.00     0.05  -0.00  -0.00     0.00   0.00   0.00
     2   6     0.08  -0.15   0.00     0.09   0.06  -0.00    -0.14   0.05   0.00
     3   6    -0.11  -0.11  -0.00     0.22  -0.05   0.00    -0.02   0.12   0.00
     4   6    -0.11   0.11   0.00     0.22   0.05  -0.00     0.02   0.12   0.00
     5   6     0.08   0.15   0.00     0.09  -0.06   0.00     0.14   0.05  -0.00
     6   6     0.03  -0.02   0.00     0.01  -0.24   0.00     0.18  -0.18   0.00
     7   6     0.06  -0.09  -0.00    -0.25  -0.03  -0.00     0.05  -0.06   0.00
     8   6    -0.09  -0.13   0.00    -0.08   0.06   0.00    -0.12  -0.07   0.00
     9   6    -0.07   0.06  -0.00    -0.01   0.27  -0.00    -0.06   0.23  -0.00
    10   1     0.11   0.12  -0.00    -0.11   0.24  -0.00     0.08   0.28  -0.00
    11   1    -0.08  -0.13  -0.00     0.15  -0.15   0.00    -0.01  -0.16  -0.00
    12   1     0.07   0.00  -0.00    -0.22   0.10  -0.00     0.11   0.22  -0.00
    13   1    -0.15  -0.08  -0.00     0.11  -0.20   0.00     0.14  -0.19   0.00
    14   6    -0.07  -0.06   0.00    -0.01  -0.27   0.00     0.06   0.23  -0.00
    15   6    -0.09   0.13  -0.00    -0.08  -0.06   0.00     0.12  -0.07   0.00
    16   6     0.06   0.09  -0.00    -0.25   0.03   0.00    -0.05  -0.06   0.00
    17   6     0.03   0.02  -0.00     0.01   0.24  -0.00    -0.18  -0.18   0.00
    18   1    -0.15   0.08   0.00     0.11   0.20  -0.00    -0.14  -0.19   0.00
    19   1     0.07  -0.00   0.00    -0.22  -0.10   0.00    -0.11   0.22  -0.00
    20   1    -0.08   0.13  -0.00     0.15   0.15  -0.00     0.01  -0.16   0.00
    21   1     0.11  -0.12   0.00    -0.11  -0.24   0.00    -0.08   0.28  -0.00
    22   6    -0.00   0.00  -0.00     0.01  -0.00   0.00     0.00  -0.08   0.11
    23   1    -0.17  -0.00   0.00    -0.03   0.00   0.00    -0.00  -0.08   0.11
    24   1    -0.15  -0.19   0.26    -0.01  -0.03   0.05    -0.00  -0.09   0.13
    25   1    -0.15   0.19  -0.26    -0.01   0.03  -0.05     0.00  -0.09   0.13
    26   6    -0.00   0.00   0.00     0.01  -0.00  -0.00     0.00  -0.08  -0.11
    27   1    -0.15   0.19   0.26    -0.01   0.03   0.05     0.00  -0.09  -0.13
    28   1    -0.15  -0.19  -0.26    -0.01  -0.03  -0.05    -0.00  -0.09  -0.13
    29   1    -0.17  -0.00  -0.00    -0.03  -0.00  -0.00    -0.00  -0.08  -0.11
                     22                     23                     24
                      A                      A                      A
 Frequencies --    750.4173               762.5572               776.8764
 Red. masses --      1.7284                 1.3786                 5.5504
 Frc consts  --      0.5734                 0.4723                 1.9737
 IR Inten    --     81.3077                 0.0000                 0.0018
  Atom  AN      X      Y      Z        X      Y      Z        X      Y      Z
     1   6     0.00   0.00   0.00    -0.00   0.00   0.00    -0.00  -0.03   0.00
     2   6    -0.00   0.00  -0.08     0.00   0.00   0.09    -0.03  -0.15   0.00
     3   6    -0.00   0.00   0.10     0.00   0.00   0.00    -0.11  -0.05  -0.00
     4   6    -0.00  -0.00   0.10    -0.00   0.00  -0.00     0.11  -0.05  -0.00
     5   6     0.00   0.00  -0.08    -0.00   0.00  -0.09     0.03  -0.15   0.00
     6   6    -0.00   0.00   0.01    -0.00   0.00   0.05     0.03  -0.19  -0.00
     7   6    -0.00  -0.00  -0.09     0.00  -0.00   0.03    -0.20   0.04   0.00
     8   6     0.00   0.00   0.01    -0.00  -0.00   0.06     0.14   0.18  -0.00
     9   6    -0.00  -0.00  -0.08    -0.00  -0.00   0.03     0.11   0.12   0.00
    10   1     0.00  -0.00   0.14    -0.00  -0.00  -0.34    -0.04   0.07   0.00
    11   1    -0.00   0.00   0.43    -0.00  -0.00  -0.40     0.34   0.00   0.00
    12   1    -0.00   0.00   0.33     0.00  -0.00  -0.42    -0.21   0.00   0.00
    13   1    -0.00   0.00   0.39    -0.00   0.00  -0.15     0.28  -0.11  -0.00
    14   6     0.00  -0.00  -0.08     0.00  -0.00  -0.03    -0.11   0.12   0.00
    15   6     0.00  -0.00   0.01     0.00  -0.00  -0.06    -0.14   0.18  -0.00
    16   6    -0.00  -0.00  -0.09    -0.00  -0.00  -0.03     0.20   0.04   0.00
    17   6    -0.00   0.00   0.01     0.00   0.00  -0.05    -0.03  -0.19  -0.00
    18   1     0.00   0.00   0.39     0.00   0.00   0.16    -0.28  -0.11  -0.00
    19   1     0.00   0.00   0.33     0.00   0.00   0.42     0.21   0.00   0.00
    20   1     0.00   0.00   0.43     0.00   0.00   0.40    -0.34   0.00   0.00
    21   1    -0.00   0.00   0.14    -0.00   0.00   0.34     0.04   0.07   0.00
    22   6     0.00  -0.01   0.01    -0.00   0.00  -0.00    -0.00   0.05  -0.08
    23   1    -0.00  -0.03   0.02    -0.04   0.00  -0.00     0.00   0.09  -0.11
    24   1    -0.00  -0.02  -0.00    -0.02  -0.03   0.04     0.00   0.06  -0.06
    25   1     0.00  -0.02  -0.00    -0.02   0.03  -0.04    -0.00   0.06  -0.06
    26   6    -0.00   0.01   0.01     0.00  -0.00  -0.00    -0.00   0.05   0.08
    27   1    -0.00   0.02  -0.00     0.02  -0.03  -0.04    -0.00   0.06   0.06
    28   1     0.00   0.02  -0.00     0.02   0.03   0.04     0.00   0.06   0.06
    29   1     0.00   0.03   0.02     0.04  -0.00  -0.00     0.00   0.09   0.11
                     25                     26                     27
                      A                      A                      A
 Frequencies --    778.2298               801.6980               805.3397
 Red. masses --      2.2446                 2.8701                 2.7725
 Frc consts  --      0.8010                 1.0868                 1.0595
 IR Inten    --     32.9051                 0.0849                 0.0000
  Atom  AN      X      Y      Z        X      Y      Z        X      Y      Z
     1   6     0.00   0.00   0.01     0.23  -0.00  -0.00    -0.00  -0.00   0.00
     2   6     0.00   0.00   0.18    -0.02   0.03  -0.00     0.00  -0.00  -0.14
     3   6     0.00   0.00  -0.07     0.03   0.07   0.00    -0.00  -0.00   0.22
     4   6    -0.00   0.00  -0.07     0.03  -0.07  -0.00    -0.00   0.00  -0.22
     5   6    -0.00   0.00   0.18    -0.02  -0.03   0.00     0.00  -0.00   0.14
     6   6    -0.00   0.00  -0.07    -0.09   0.03   0.00     0.00  -0.00  -0.01
     7   6     0.00  -0.00   0.02    -0.13   0.02   0.00     0.00   0.00   0.10
     8   6    -0.00  -0.00  -0.10     0.05   0.06  -0.00    -0.00  -0.00  -0.04
     9   6    -0.00  -0.00   0.02     0.04  -0.12   0.00    -0.00   0.00   0.03
    10   1     0.00  -0.00   0.39    -0.10  -0.17   0.00     0.00   0.00   0.29
    11   1    -0.00  -0.00   0.34     0.05   0.06  -0.00    -0.00  -0.00  -0.16
    12   1     0.00   0.00   0.40    -0.15  -0.11  -0.00     0.00   0.00  -0.30
    13   1    -0.00   0.00  -0.01    -0.06   0.05  -0.00     0.00  -0.00  -0.45
    14   6     0.00  -0.00   0.02     0.04   0.12  -0.00    -0.00  -0.00  -0.03
    15   6     0.00  -0.00  -0.10     0.05  -0.06   0.00    -0.00   0.00   0.04
    16   6    -0.00  -0.00   0.02    -0.13  -0.02  -0.00     0.00  -0.00  -0.10
    17   6     0.00   0.00  -0.07    -0.09  -0.03   0.00     0.00   0.00   0.01
    18   1     0.00   0.00  -0.01    -0.06  -0.05   0.00     0.00   0.00   0.45
    19   1    -0.00   0.00   0.40    -0.15   0.11   0.00     0.00  -0.00   0.30
    20   1     0.00   0.00   0.34     0.05  -0.06   0.00    -0.00   0.00   0.16
    21   1    -0.00  -0.00   0.39    -0.10   0.17  -0.00     0.00  -0.00  -0.29
    22   6    -0.00   0.04  -0.05     0.06   0.00  -0.00    -0.01   0.00  -0.00
    23   1     0.00   0.10  -0.09    -0.15   0.00  -0.00     0.05   0.00  -0.00
    24   1     0.00   0.04   0.00    -0.11  -0.23   0.29     0.03   0.05  -0.06
    25   1    -0.00   0.04   0.00    -0.11   0.23  -0.29     0.03  -0.05   0.06
    26   6     0.00  -0.04  -0.05     0.06   0.00   0.00     0.01  -0.00  -0.00
    27   1     0.00  -0.05   0.00    -0.11   0.23   0.29    -0.03   0.05   0.06
    28   1    -0.00  -0.05   0.00    -0.11  -0.23  -0.29    -0.03  -0.05  -0.06
    29   1    -0.00  -0.10  -0.09    -0.15   0.00   0.00    -0.05  -0.00  -0.00
                     28                     29                     30
                      A                      A                      A
 Frequencies --    880.6441               887.3117               940.5475
 Red. masses --      1.3461                 1.6089                 2.5094
 Frc consts  --      0.6151                 0.7463                 1.3079
 IR Inten    --      0.0057                 0.0000                 2.2741
  Atom  AN      X      Y      Z        X      Y      Z        X      Y      Z
     1   6    -0.00  -0.00  -0.01    -0.00   0.00  -0.00     0.00   0.23   0.00
     2   6    -0.00  -0.00  -0.03     0.00   0.00   0.06    -0.03   0.04  -0.00
     3   6    -0.00   0.00   0.02     0.00  -0.00  -0.09    -0.01  -0.03   0.00
     4   6    -0.00   0.00   0.02     0.00   0.00   0.09     0.01  -0.03   0.00
     5   6     0.00  -0.00  -0.03     0.00   0.00  -0.06     0.03   0.04  -0.00
     6   6    -0.00  -0.00   0.07    -0.00   0.00   0.08     0.01  -0.04  -0.00
     7   6     0.00   0.00   0.04    -0.00   0.00   0.03    -0.06   0.01   0.00
     8   6     0.00  -0.00  -0.03     0.00  -0.00  -0.03     0.02   0.04   0.00
     9   6    -0.00   0.00  -0.08    -0.00  -0.00  -0.09     0.02  -0.08  -0.00
    10   1     0.00   0.00   0.45     0.00   0.00   0.43    -0.07  -0.11   0.00
    11   1    -0.00  -0.00   0.21    -0.00   0.00   0.25     0.01   0.05  -0.00
    12   1     0.00  -0.00  -0.29     0.00  -0.00  -0.25    -0.06  -0.01  -0.00
    13   1     0.00  -0.00  -0.39     0.00  -0.00  -0.39     0.03  -0.03   0.00
    14   6     0.00   0.00  -0.08    -0.00   0.00   0.09    -0.02  -0.08  -0.00
    15   6     0.00  -0.00  -0.03     0.00   0.00   0.03    -0.02   0.04   0.00
    16   6    -0.00   0.00   0.04     0.00  -0.00  -0.03     0.06   0.01   0.00
    17   6     0.00   0.00   0.07    -0.00  -0.00  -0.08    -0.01  -0.04  -0.00
    18   1    -0.00  -0.00  -0.39     0.00   0.00   0.39    -0.03  -0.03   0.00
    19   1    -0.00  -0.00  -0.29     0.00   0.00   0.25     0.06  -0.01  -0.00
    20   1     0.00   0.00   0.21    -0.00  -0.00  -0.25    -0.01   0.05  -0.00
    21   1    -0.00   0.00   0.45     0.00  -0.00  -0.43     0.07  -0.11   0.00
    22   6    -0.00  -0.01   0.01     0.01  -0.00   0.00     0.00  -0.00   0.16
    23   1     0.00  -0.02   0.02    -0.03  -0.00   0.00    -0.00  -0.41   0.43
    24   1     0.00  -0.01   0.01    -0.02  -0.03   0.04    -0.03  -0.05  -0.15
    25   1    -0.00  -0.01   0.01    -0.02   0.03  -0.04     0.03  -0.05  -0.15
    26   6     0.00   0.01   0.01    -0.01   0.00   0.00     0.00  -0.00  -0.16
    27   1     0.00   0.01   0.01     0.02  -0.03  -0.04     0.03  -0.05   0.15
    28   1    -0.00   0.01   0.01     0.02   0.03   0.04    -0.03  -0.05   0.15
    29   1    -0.00   0.02   0.02     0.03  -0.00   0.00    -0.00  -0.41  -0.43
                     31                     32                     33
                      A                      A                      A
 Frequencies --    945.8781               949.7131               951.5293
 Red. masses --      1.5078                 1.3956                 1.3752
 Frc consts  --      0.7948                 0.7416                 0.7336
 IR Inten    --      0.2321                 0.0000                 1.6665
  Atom  AN      X      Y      Z        X      Y      Z        X      Y      Z
     1   6     0.00  -0.00   0.10    -0.00  -0.00  -0.00    -0.00   0.00  -0.06
     2   6     0.00  -0.00   0.01     0.00  -0.00   0.02    -0.00   0.00   0.02
     3   6     0.00   0.00   0.01     0.00   0.00   0.03    -0.00  -0.00   0.00
     4   6    -0.00   0.00   0.01    -0.00   0.00  -0.03     0.00  -0.00   0.01
     5   6    -0.00  -0.00   0.01    -0.00  -0.00  -0.02     0.00   0.00   0.02
     6   6    -0.00   0.00  -0.05    -0.00   0.00   0.08     0.00  -0.00  -0.06
     7   6     0.00  -0.00   0.04     0.00  -0.00  -0.04    -0.00   0.00   0.04
     8   6    -0.00  -0.00   0.03    -0.00  -0.00  -0.06     0.00   0.00   0.04
     9   6    -0.00   0.00  -0.05    -0.00   0.00   0.07     0.00  -0.00  -0.05
    10   1     0.00   0.00   0.25    -0.00  -0.00  -0.38    -0.00  -0.00   0.28
    11   1    -0.00  -0.00  -0.18    -0.00  -0.00   0.31     0.00   0.00  -0.24
    12   1     0.00   0.00  -0.19    -0.00   0.00   0.24    -0.00  -0.00  -0.19
    13   1    -0.00   0.00   0.28     0.00  -0.00  -0.43     0.00  -0.00   0.34
    14   6     0.00   0.00  -0.05     0.00   0.00  -0.07    -0.00  -0.00  -0.05
    15   6     0.00  -0.00   0.03     0.00  -0.00   0.06    -0.00   0.00   0.04
    16   6    -0.00  -0.00   0.04    -0.00   0.00   0.04     0.00   0.00   0.04
    17   6     0.00   0.00  -0.05    -0.00  -0.00  -0.08    -0.00  -0.00  -0.06
    18   1     0.00   0.00   0.28     0.00   0.00   0.43    -0.00   0.00   0.34
    19   1    -0.00   0.00  -0.19    -0.00  -0.00  -0.24     0.00  -0.00  -0.19
    20   1     0.00  -0.00  -0.19     0.00  -0.00  -0.31    -0.00   0.00  -0.23
    21   1    -0.00   0.00   0.25    -0.00   0.00   0.38     0.00  -0.00   0.28
    22   6    -0.00   0.10  -0.02     0.00  -0.00  -0.00    -0.00  -0.07  -0.00
    23   1     0.00  -0.23   0.20    -0.01   0.00  -0.00    -0.00   0.22  -0.19
    24   1    -0.03   0.05  -0.29    -0.01  -0.02   0.02     0.02  -0.03   0.23
    25   1     0.03   0.05  -0.29    -0.01   0.02  -0.02    -0.02  -0.03   0.23
    26   6     0.00  -0.10  -0.02    -0.00   0.00   0.00     0.00   0.07  -0.00
    27   1    -0.03  -0.05  -0.29     0.01  -0.02  -0.02     0.02   0.03   0.23
    28   1     0.03  -0.05  -0.29     0.01   0.02   0.02    -0.02   0.03   0.23
    29   1    -0.00   0.24   0.20     0.01  -0.00  -0.00     0.00  -0.22  -0.19
                     34                     35                     36
                      A                      A                      A
 Frequencies --    986.3878               988.4801              1025.3764
 Red. masses --      1.2905                 1.2769                 6.7466
 Frc consts  --      0.7398                 0.7351                 4.1793
 IR Inten    --      0.0000                 0.0212                 2.7010
  Atom  AN      X      Y      Z        X      Y      Z        X      Y      Z
     1   6    -0.00  -0.00  -0.00    -0.00  -0.00  -0.00    -0.01   0.00  -0.00
     2   6     0.00  -0.00   0.00     0.00   0.00  -0.01    -0.01   0.03  -0.00
     3   6    -0.00  -0.00  -0.00     0.00   0.00   0.01     0.27   0.05  -0.00
     4   6    -0.00   0.00   0.00    -0.00   0.00   0.01     0.27  -0.05   0.00
     5   6     0.00   0.00  -0.00     0.00   0.00  -0.01    -0.01  -0.03  -0.00
     6   6     0.00  -0.00  -0.04     0.00   0.00  -0.04    -0.07   0.28  -0.00
     7   6    -0.00   0.00   0.07    -0.00   0.00   0.07    -0.02   0.01   0.00
     8   6     0.00   0.00  -0.07     0.00  -0.00  -0.07    -0.20  -0.24  -0.00
     9   6     0.00  -0.00   0.03    -0.00   0.00   0.04     0.03   0.02   0.00
    10   1    -0.00  -0.00  -0.22    -0.00  -0.00  -0.25     0.12   0.04  -0.00
    11   1    -0.00  -0.00   0.43    -0.00  -0.00   0.43    -0.15  -0.30   0.00
    12   1     0.00  -0.00  -0.43     0.00  -0.00  -0.41    -0.02   0.07  -0.00
    13   1    -0.00   0.00   0.27    -0.00   0.00   0.25     0.01   0.32   0.00
    14   6     0.00   0.00  -0.03     0.00   0.00   0.04     0.03  -0.02  -0.00
    15   6     0.00   0.00   0.07    -0.00  -0.00  -0.07    -0.20   0.24  -0.00
    16   6    -0.00  -0.00  -0.07     0.00   0.00   0.07    -0.02  -0.01  -0.00
    17   6     0.00   0.00   0.04    -0.00  -0.00  -0.04    -0.07  -0.28   0.00
    18   1    -0.00  -0.00  -0.27     0.00   0.00   0.25     0.01  -0.32  -0.00
    19   1     0.00   0.00   0.43    -0.00  -0.00  -0.42    -0.02  -0.07   0.00
    20   1     0.00  -0.00  -0.43     0.00   0.00   0.43    -0.15   0.30  -0.00
    21   1     0.00   0.00   0.22    -0.00  -0.00  -0.25     0.12  -0.04   0.00
    22   6     0.00  -0.00  -0.00     0.00  -0.00  -0.00    -0.00   0.00   0.00
    23   1    -0.01   0.00   0.00    -0.00   0.01  -0.01    -0.00  -0.00   0.00
    24   1    -0.00  -0.01   0.01    -0.00  -0.00   0.01    -0.00  -0.00  -0.00
    25   1    -0.00   0.01  -0.01     0.00  -0.00   0.01    -0.00   0.00   0.00
    26   6    -0.00   0.00   0.00    -0.00   0.00  -0.00    -0.00   0.00  -0.00
    27   1     0.00  -0.01  -0.01    -0.00   0.00   0.01    -0.00   0.00  -0.00
    28   1     0.00   0.01   0.01     0.00   0.00   0.01    -0.00  -0.00   0.00
    29   1     0.01  -0.00   0.00     0.00  -0.01  -0.01    -0.00  -0.00  -0.00
                     37                     38                     39
                      A                      A                      A
 Frequencies --   1030.9141              1048.0585              1049.0396
 Red. masses --      1.3166                 2.2641                 2.3184
 Frc consts  --      0.8244                 1.4653                 1.5032
 IR Inten    --      0.0000                 0.9133                 8.8694
  Atom  AN      X      Y      Z        X      Y      Z        X      Y      Z
     1   6     0.00  -0.00  -0.00    -0.00  -0.01  -0.00    -0.01   0.00   0.00
     2   6     0.00  -0.00   0.04    -0.03   0.00   0.00    -0.05   0.04   0.00
     3   6    -0.00  -0.00  -0.01    -0.01   0.02  -0.00     0.08   0.04  -0.00
     4   6    -0.00   0.00   0.01     0.01   0.02   0.00     0.08  -0.04   0.00
     5   6     0.00   0.00  -0.04     0.02   0.00   0.00    -0.05  -0.04  -0.00
     6   6     0.00  -0.00   0.01     0.05   0.07  -0.00    -0.06  -0.00  -0.00
     7   6    -0.00   0.00   0.00    -0.13   0.06  -0.00     0.15  -0.06   0.00
     8   6     0.00   0.00  -0.00    -0.06  -0.11   0.00     0.01   0.05  -0.00
     9   6     0.00  -0.00   0.00     0.09  -0.05   0.00    -0.09   0.08  -0.00
    10   1     0.00  -0.00  -0.02     0.39   0.04  -0.00    -0.43  -0.03   0.00
    11   1     0.00  -0.00   0.03     0.04  -0.22   0.00    -0.08   0.14   0.00
    12   1    -0.00   0.00  -0.02    -0.11   0.21  -0.00     0.13  -0.19  -0.00
    13   1     0.00   0.00  -0.02     0.37   0.19  -0.00    -0.35  -0.11   0.00
    14   6     0.00   0.00  -0.00    -0.09  -0.05   0.00    -0.09  -0.08   0.00
    15   6     0.00  -0.00   0.00     0.06  -0.12   0.00     0.01  -0.05   0.00
    16   6    -0.00  -0.00  -0.00     0.13   0.06  -0.00     0.15   0.06  -0.00
    17   6     0.00   0.00  -0.01    -0.05   0.07  -0.00    -0.06   0.00   0.00
    18   1     0.00  -0.00   0.02    -0.37   0.19  -0.00    -0.35   0.11  -0.00
    19   1    -0.00  -0.00   0.02     0.11   0.21  -0.00     0.13   0.19   0.00
    20   1     0.00   0.00  -0.03    -0.04  -0.22   0.00    -0.08  -0.14  -0.00
    21   1     0.00  -0.00   0.02    -0.40   0.04  -0.00    -0.43   0.03   0.00
    22   6    -0.11  -0.00   0.00     0.00  -0.01  -0.01     0.03   0.00   0.00
    23   1     0.21   0.00  -0.00    -0.00   0.03  -0.03    -0.06  -0.00   0.00
    24   1     0.12   0.30  -0.34     0.01   0.00   0.02    -0.03  -0.09   0.10
    25   1     0.12  -0.30   0.34    -0.01   0.00   0.02    -0.03   0.09  -0.10
    26   6     0.11   0.00   0.00     0.00  -0.01   0.01     0.03   0.00  -0.00
    27   1    -0.12   0.30   0.34    -0.01   0.00  -0.02    -0.03   0.09   0.10
    28   1    -0.12  -0.30  -0.34     0.01   0.00  -0.02    -0.03  -0.09  -0.10
    29   1    -0.21  -0.00  -0.00    -0.00   0.03   0.03    -0.06  -0.00  -0.00
                     40                     41                     42
                      A                      A                      A
 Frequencies --   1098.4022              1108.8287              1135.4933
 Red. masses --      2.4155                 2.0123                 1.5192
 Frc consts  --      1.7170                 1.4577                 1.1541
 IR Inten    --      5.9702                 1.4960                 0.6155
  Atom  AN      X      Y      Z        X      Y      Z        X      Y      Z
     1   6     0.00  -0.02   0.00     0.07   0.00  -0.00    -0.06   0.00   0.00
     2   6     0.04  -0.11  -0.00     0.09  -0.12  -0.00    -0.03  -0.03  -0.00
     3   6    -0.03  -0.07   0.00     0.06  -0.00   0.00     0.04  -0.02   0.00
     4   6     0.03  -0.07   0.00     0.06   0.00  -0.00     0.04   0.02  -0.00
     5   6    -0.04  -0.11  -0.00     0.09   0.12   0.00    -0.03   0.03  -0.00
     6   6    -0.01   0.11   0.00    -0.03  -0.00  -0.00    -0.02  -0.06   0.00
     7   6     0.04  -0.04   0.00    -0.04  -0.01  -0.00     0.02   0.04   0.00
     8   6    -0.00  -0.06  -0.00    -0.01   0.03   0.00    -0.05   0.02   0.00
     9   6    -0.04   0.13  -0.00    -0.00  -0.07   0.00     0.06  -0.05   0.00
    10   1    -0.06   0.13  -0.00    -0.25  -0.16   0.00     0.28   0.02  -0.00
    11   1     0.19  -0.22   0.00    -0.07   0.08  -0.00    -0.30   0.23  -0.00
    12   1    -0.00  -0.26   0.00    -0.04  -0.03   0.00     0.09   0.37  -0.00
    13   1     0.22   0.19  -0.00    -0.35  -0.11   0.00    -0.25  -0.15  -0.00
    14   6     0.04   0.13  -0.00    -0.00   0.07  -0.00     0.06   0.05  -0.00
    15   6     0.00  -0.06   0.00    -0.01  -0.03   0.00    -0.05  -0.02   0.00
    16   6    -0.04  -0.04   0.00    -0.04   0.01   0.00     0.02  -0.04   0.00
    17   6     0.01   0.11  -0.00    -0.03   0.00   0.00    -0.02   0.06  -0.00
    18   1    -0.22   0.19  -0.00    -0.35   0.11  -0.00    -0.25   0.15  -0.00
    19   1     0.00  -0.26   0.00    -0.04   0.03  -0.00     0.09  -0.37   0.00
    20   1    -0.19  -0.22   0.00    -0.07  -0.08   0.00    -0.30  -0.23   0.00
    21   1     0.05   0.13  -0.00    -0.25   0.16  -0.00     0.28  -0.02   0.00
    22   6    -0.00   0.06   0.04    -0.08  -0.00  -0.00     0.03  -0.00  -0.00
    23   1     0.00  -0.20   0.22     0.15   0.00  -0.00    -0.07   0.00  -0.00
    24   1    -0.03   0.02  -0.21     0.08   0.21  -0.22    -0.03  -0.08   0.08
    25   1     0.03   0.02  -0.21     0.08  -0.21   0.22    -0.03   0.08  -0.08
    26   6    -0.00   0.06  -0.04    -0.08  -0.00   0.00     0.03  -0.00   0.00
    27   1     0.03   0.02   0.21     0.08  -0.21  -0.22    -0.03   0.08   0.08
    28   1    -0.03   0.02   0.21     0.08   0.21   0.22    -0.03  -0.08  -0.08
    29   1     0.00  -0.20  -0.22     0.15   0.00   0.00    -0.07   0.00   0.00
                     43                     44                     45
                      A                      A                      A
 Frequencies --   1150.7442              1156.9076              1182.5336
 Red. masses --      1.7139                 3.8341                 1.1377
 Frc consts  --      1.3372                 3.0235                 0.9374
 IR Inten    --      0.2242                 2.1275                 2.5310
  Atom  AN      X      Y      Z        X      Y      Z        X      Y      Z
     1   6     0.00   0.06  -0.00     0.00   0.00   0.44    -0.02  -0.00  -0.00
     2   6    -0.08   0.08   0.00     0.00  -0.00  -0.08    -0.01   0.00  -0.00
     3   6    -0.02  -0.04  -0.00     0.00   0.00   0.01    -0.01  -0.00  -0.00
     4   6     0.02  -0.04  -0.00    -0.00   0.00   0.01    -0.01   0.00   0.00
     5   6     0.08   0.08   0.00     0.00   0.00  -0.08    -0.01  -0.00  -0.00
     6   6     0.03   0.06  -0.00     0.00   0.00   0.02    -0.02  -0.01  -0.00
     7   6    -0.05  -0.04  -0.00    -0.00  -0.00   0.00     0.01   0.05  -0.00
     8   6     0.03  -0.01  -0.00     0.00   0.00  -0.00     0.04  -0.04   0.00
     9   6    -0.04  -0.00  -0.00    -0.00  -0.00   0.01    -0.02  -0.01  -0.00
    10   1    -0.38  -0.11   0.00    -0.00  -0.00  -0.02    -0.20  -0.07   0.00
    11   1     0.26  -0.21  -0.00     0.00   0.00   0.00     0.35  -0.32   0.00
    12   1    -0.10  -0.28   0.00    -0.00  -0.00  -0.00     0.09   0.46  -0.00
    13   1     0.07   0.08   0.00     0.00   0.00  -0.08    -0.18  -0.06   0.00
    14   6     0.04  -0.00  -0.00    -0.00   0.00   0.01    -0.02   0.01  -0.00
    15   6    -0.03  -0.01   0.00     0.00   0.00  -0.00     0.04   0.03  -0.00
    16   6     0.05  -0.04   0.00    -0.00  -0.00   0.00     0.01  -0.05   0.00
    17   6    -0.03   0.06  -0.00    -0.00  -0.00   0.02    -0.01   0.01   0.00
    18   1    -0.07   0.08   0.00    -0.00  -0.00  -0.08    -0.16   0.06  -0.00
    19   1     0.10  -0.28   0.00     0.00  -0.00  -0.00     0.08  -0.43   0.00
    20   1    -0.26  -0.22   0.00     0.00   0.00   0.00     0.33   0.30  -0.00
    21   1     0.38  -0.11   0.00    -0.00   0.00  -0.02    -0.19   0.06  -0.00
    22   6    -0.00  -0.05  -0.02    -0.00  -0.00  -0.16     0.01   0.00   0.00
    23   1     0.00   0.13  -0.14    -0.00   0.36  -0.40    -0.02  -0.00   0.00
    24   1     0.03  -0.01   0.17     0.07   0.11   0.15    -0.01  -0.02   0.02
    25   1    -0.03  -0.01   0.17    -0.07   0.11   0.15    -0.01   0.02  -0.02
    26   6    -0.00  -0.05   0.02    -0.00   0.00  -0.16     0.01   0.00  -0.00
    27   1    -0.03  -0.01  -0.17     0.07  -0.11   0.15    -0.01   0.02   0.02
    28   1     0.03  -0.01  -0.17    -0.07  -0.11   0.15    -0.01  -0.02  -0.02
    29   1     0.00   0.13   0.14     0.00  -0.36  -0.39    -0.02  -0.00  -0.00
                     46                     47                     48
                      A                      A                      A
 Frequencies --   1182.6908              1226.8882              1242.5699
 Red. masses --      1.1250                 2.4944                 2.3298
 Frc consts  --      0.9271                 2.2122                 2.1194
 IR Inten    --      0.0090                 0.1530                 5.4145
  Atom  AN      X      Y      Z        X      Y      Z        X      Y      Z
     1   6     0.00  -0.02   0.00     0.22  -0.00   0.00    -0.00  -0.09   0.00
     2   6     0.00  -0.00  -0.00    -0.01   0.15  -0.00     0.04  -0.00  -0.00
     3   6    -0.01  -0.01   0.00    -0.03   0.02  -0.00     0.11   0.15  -0.00
     4   6     0.01  -0.01   0.00    -0.03  -0.02   0.00    -0.11   0.15   0.00
     5   6    -0.00  -0.00  -0.00    -0.01  -0.15  -0.00    -0.04  -0.00  -0.00
     6   6    -0.02  -0.00  -0.00    -0.08  -0.00  -0.00     0.01  -0.06   0.00
     7   6     0.01   0.05  -0.00     0.04   0.05  -0.00     0.01   0.02  -0.00
     8   6     0.02  -0.03   0.00     0.02  -0.01  -0.00     0.07  -0.02   0.00
     9   6    -0.01  -0.00  -0.00    -0.02   0.05   0.00    -0.07  -0.06   0.00
    10   1    -0.18  -0.06   0.00     0.40   0.19  -0.00    -0.31  -0.14   0.00
    11   1     0.29  -0.27   0.00    -0.04   0.05   0.00     0.11  -0.05  -0.00
    12   1     0.09   0.44  -0.00     0.05   0.12  -0.00    -0.00  -0.05   0.00
    13   1    -0.24  -0.08  -0.00    -0.26  -0.07   0.00     0.52   0.11   0.00
    14   6     0.01  -0.00   0.00    -0.02  -0.05   0.00     0.07  -0.06   0.00
    15   6    -0.03  -0.03   0.00     0.02   0.01  -0.00    -0.07  -0.02   0.00
    16   6    -0.01   0.05  -0.00     0.04  -0.05   0.00    -0.01   0.02  -0.00
    17   6     0.02  -0.00  -0.00    -0.08   0.00   0.00    -0.01  -0.06   0.00
    18   1     0.25  -0.08  -0.00    -0.26   0.07  -0.00    -0.52   0.11  -0.00
    19   1    -0.09   0.47  -0.00     0.05  -0.12   0.00     0.00  -0.05   0.00
    20   1    -0.31  -0.29   0.00    -0.04  -0.05   0.00    -0.11  -0.05   0.00
    21   1     0.19  -0.06   0.00     0.40  -0.19   0.00     0.31  -0.14   0.00
    22   6    -0.00   0.01   0.00    -0.07   0.00   0.00     0.00   0.03   0.01
    23   1     0.00  -0.03   0.03     0.18  -0.00   0.00    -0.00  -0.04   0.05
    24   1    -0.01  -0.00  -0.03     0.07   0.18  -0.13    -0.01   0.01  -0.10
    25   1     0.01  -0.00  -0.03     0.07  -0.18   0.13     0.01   0.01  -0.10
    26   6    -0.00   0.01  -0.00    -0.07   0.00  -0.00     0.00   0.03  -0.01
    27   1     0.01  -0.00   0.03     0.07  -0.18  -0.13     0.01   0.01   0.10
    28   1    -0.01  -0.00   0.03     0.07   0.18   0.13    -0.01   0.01   0.10
    29   1     0.00  -0.03  -0.03     0.18  -0.00  -0.00    -0.00  -0.04  -0.05
                     49                     50                     51
                      A                      A                      A
 Frequencies --   1270.4692              1321.1562              1321.5534
 Red. masses --      3.2058                 1.6180                 1.9354
 Frc consts  --      3.0487                 1.6639                 1.9916
 IR Inten    --      2.1063                 3.7707                 0.0022
  Atom  AN      X      Y      Z        X      Y      Z        X      Y      Z
     1   6     0.00   0.32  -0.00     0.11   0.00   0.00    -0.00   0.05  -0.00
     2   6     0.12  -0.11   0.00    -0.10  -0.01   0.00    -0.06  -0.04   0.00
     3   6    -0.00   0.00  -0.00     0.03  -0.06   0.00     0.14  -0.01   0.00
     4   6     0.00   0.00  -0.00     0.02   0.06  -0.00    -0.14  -0.01   0.00
     5   6    -0.12  -0.11   0.00    -0.10   0.01  -0.00     0.06  -0.04   0.00
     6   6    -0.05  -0.03  -0.00    -0.04  -0.04  -0.00    -0.00  -0.01  -0.00
     7   6     0.07   0.02   0.00     0.03  -0.02   0.00    -0.00   0.06  -0.00
     8   6     0.01  -0.03   0.00     0.01  -0.03   0.00     0.05   0.02  -0.00
     9   6    -0.01   0.03  -0.00     0.03  -0.00  -0.00    -0.10  -0.01   0.00
    10   1    -0.02   0.03   0.00    -0.32  -0.12   0.00     0.49   0.19  -0.00
    11   1     0.01  -0.02   0.00    -0.17   0.13  -0.00     0.26  -0.16  -0.00
    12   1     0.11   0.22  -0.00     0.09   0.25  -0.00    -0.05  -0.20   0.00
    13   1     0.32   0.10   0.00     0.45   0.13   0.00    -0.19  -0.08   0.00
    14   6     0.01   0.03  -0.00     0.03   0.00  -0.00     0.10  -0.01   0.00
    15   6    -0.01  -0.03   0.00     0.01   0.03  -0.00    -0.05   0.02  -0.00
    16   6    -0.07   0.02  -0.00     0.03   0.02  -0.00     0.00   0.06  -0.00
    17   6     0.05  -0.03  -0.00    -0.04   0.04  -0.00     0.00  -0.01   0.00
    18   1    -0.32   0.10   0.00     0.45  -0.13  -0.00     0.19  -0.08   0.00
    19   1    -0.11   0.22  -0.00     0.09  -0.26   0.00     0.05  -0.20   0.00
    20   1    -0.01  -0.02   0.00    -0.17  -0.13   0.00    -0.26  -0.15   0.00
    21   1     0.02   0.02   0.00    -0.32   0.12  -0.00    -0.49   0.19  -0.00
    22   6    -0.00  -0.11  -0.01    -0.03  -0.00  -0.00     0.00  -0.01  -0.00
    23   1     0.00   0.20  -0.21     0.09   0.00  -0.00    -0.00  -0.00  -0.01
    24   1     0.11   0.07   0.23     0.03   0.07  -0.03     0.01   0.00   0.04
    25   1    -0.11   0.07   0.23     0.03  -0.07   0.03    -0.01   0.00   0.04
    26   6    -0.00  -0.11   0.01    -0.03  -0.00   0.00     0.00  -0.01   0.00
    27   1    -0.11   0.07  -0.23     0.03  -0.07  -0.03    -0.01   0.00  -0.04
    28   1     0.12   0.07  -0.23     0.03   0.07   0.03     0.01   0.00  -0.04
    29   1     0.00   0.20   0.21     0.09   0.00   0.00    -0.00  -0.00   0.01
                     52                     53                     54
                      A                      A                      A
 Frequencies --   1336.3444              1379.2138              1397.2702
 Red. masses --      6.1229                 4.6273                 1.2025
 Frc consts  --      6.4423                 5.1861                 1.3832
 IR Inten    --     12.0279                 0.8923                 5.5710
  Atom  AN      X      Y      Z        X      Y      Z        X      Y      Z
     1   6    -0.13  -0.00  -0.00    -0.00  -0.03   0.00     0.00   0.00  -0.00
     2   6     0.17   0.08  -0.00     0.18   0.13  -0.00    -0.00  -0.00   0.00
     3   6     0.06  -0.23   0.00     0.16  -0.14   0.00    -0.00  -0.00  -0.00
     4   6     0.06   0.23  -0.00    -0.16  -0.14   0.00     0.00  -0.00  -0.00
     5   6     0.17  -0.08   0.00    -0.18   0.13  -0.00     0.00  -0.00   0.00
     6   6    -0.16  -0.06  -0.00     0.11   0.00   0.00    -0.00  -0.00  -0.00
     7   6     0.01   0.18  -0.00     0.00  -0.16   0.00     0.00   0.00  -0.00
     8   6     0.13  -0.14   0.00    -0.06   0.15  -0.00     0.00  -0.00   0.00
     9   6    -0.16  -0.08   0.00     0.06   0.01  -0.00    -0.00   0.00  -0.00
    10   1    -0.02  -0.03   0.00     0.17   0.05  -0.00     0.00   0.00   0.00
    11   1    -0.26   0.20  -0.00     0.35  -0.20   0.00    -0.00   0.00   0.00
    12   1    -0.08  -0.28   0.00     0.10   0.29  -0.00     0.00   0.00  -0.00
    13   1     0.18   0.06   0.00     0.19   0.02  -0.00     0.00   0.00   0.01
    14   6    -0.16   0.08  -0.00    -0.06   0.01  -0.00     0.00   0.00  -0.00
    15   6     0.13   0.14  -0.00     0.06   0.15  -0.00    -0.00  -0.00   0.00
    16   6     0.01  -0.18   0.00    -0.00  -0.16   0.00    -0.00   0.00  -0.00
    17   6    -0.16   0.06   0.00    -0.11   0.00   0.00     0.00  -0.00  -0.00
    18   1     0.18  -0.06  -0.00    -0.19   0.02  -0.00    -0.00   0.00   0.01
    19   1    -0.08   0.28  -0.00    -0.10   0.29  -0.00    -0.00  -0.00  -0.00
    20   1    -0.26  -0.20   0.00    -0.35  -0.20   0.00     0.00   0.00   0.00
    21   1    -0.02   0.03   0.00    -0.17   0.05   0.00    -0.00   0.00   0.00
    22   6     0.04   0.00   0.00     0.00  -0.00   0.01    -0.00  -0.05   0.08
    23   1    -0.13  -0.00   0.00    -0.00   0.04  -0.03     0.00   0.35  -0.21
    24   1    -0.03  -0.09   0.04     0.01   0.01  -0.05     0.13   0.14  -0.35
    25   1    -0.03   0.09  -0.04    -0.01   0.01  -0.05    -0.13   0.14  -0.35
    26   6     0.04   0.00   0.00     0.00  -0.00  -0.01     0.00   0.05   0.08
    27   1    -0.03   0.09   0.04    -0.01   0.01   0.05     0.13  -0.14  -0.35
    28   1    -0.03  -0.09  -0.04     0.01   0.01   0.05    -0.13  -0.14  -0.35
    29   1    -0.13  -0.00  -0.00     0.00   0.04   0.03    -0.00  -0.35  -0.21
                     55                     56                     57
                      A                      A                      A
 Frequencies --   1419.6637              1477.0162              1479.9189
 Red. masses --      1.2116                 2.3625                 2.1663
 Frc consts  --      1.4387                 3.0366                 2.7954
 IR Inten    --      2.1790                11.9048                27.4081
  Atom  AN      X      Y      Z        X      Y      Z        X      Y      Z
     1   6    -0.00  -0.00  -0.00    -0.00  -0.03   0.00     0.03   0.00   0.00
     2   6    -0.01  -0.00   0.00    -0.08   0.08  -0.00    -0.07  -0.08   0.00
     3   6    -0.01   0.01  -0.00    -0.00  -0.09   0.00     0.08   0.00   0.00
     4   6     0.01   0.01  -0.00     0.00  -0.09  -0.00     0.08  -0.00  -0.00
     5   6     0.01  -0.00   0.00     0.08   0.08   0.00    -0.07   0.08  -0.00
     6   6     0.01   0.00   0.00    -0.10  -0.00  -0.00    -0.04  -0.08   0.00
     7   6    -0.01   0.01  -0.00    -0.02  -0.06   0.00     0.08   0.07   0.00
     8   6    -0.00   0.00   0.00     0.12  -0.03  -0.00    -0.07   0.06  -0.00
     9   6     0.00  -0.01  -0.00    -0.09   0.04   0.00    -0.07  -0.07   0.00
    10   1    -0.00  -0.01  -0.00     0.16   0.13  -0.00     0.31   0.04  -0.00
    11   1     0.01  -0.01  -0.00    -0.17   0.25  -0.00     0.34  -0.30   0.00
    12   1    -0.02  -0.04   0.00     0.07   0.41  -0.00     0.03  -0.25   0.00
    13   1    -0.07  -0.03  -0.00     0.31   0.15   0.00     0.23   0.01   0.00
    14   6    -0.00  -0.01   0.00     0.09   0.04  -0.00    -0.07   0.07  -0.00
    15   6     0.00   0.00  -0.00    -0.12  -0.03   0.00    -0.07  -0.06   0.00
    16   6     0.01   0.01  -0.00     0.02  -0.06   0.00     0.08  -0.07   0.00
    17   6    -0.01   0.00   0.00     0.10  -0.00  -0.00    -0.04   0.08  -0.00
    18   1     0.07  -0.03  -0.00    -0.31   0.15  -0.00     0.22  -0.00  -0.00
    19   1     0.02  -0.04   0.00    -0.07   0.41  -0.00     0.03   0.25  -0.00
    20   1    -0.01  -0.01   0.00     0.17   0.25  -0.00     0.34   0.30  -0.00
    21   1     0.00  -0.01   0.00    -0.16   0.13  -0.00     0.31  -0.04   0.00
    22   6    -0.00  -0.05   0.08     0.00  -0.00   0.01    -0.02   0.00   0.00
    23   1     0.00   0.34  -0.21    -0.00   0.06  -0.03     0.14   0.00  -0.00
    24   1     0.14   0.15  -0.34    -0.01  -0.02  -0.06     0.01   0.04   0.07
    25   1    -0.14   0.15  -0.34     0.01  -0.02  -0.06     0.01  -0.04  -0.07
    26   6    -0.00  -0.05  -0.08     0.00  -0.00  -0.01    -0.02  -0.00  -0.00
    27   1    -0.14   0.15   0.34     0.01  -0.02   0.06     0.01  -0.04   0.07
    28   1     0.14   0.15   0.34    -0.01  -0.02   0.06     0.01   0.04  -0.07
    29   1     0.00   0.34   0.21    -0.00   0.06   0.03     0.14  -0.00   0.00
                     58                     59                     60
                      A                      A                      A
 Frequencies --   1484.8516              1489.0441              1501.2553
 Red. masses --      1.0453                 1.0477                 1.3931
 Frc consts  --      1.3578                 1.3686                 1.8498
 IR Inten    --      0.0000                 3.9259                 0.2071
  Atom  AN      X      Y      Z        X      Y      Z        X      Y      Z
     1   6     0.00  -0.00  -0.00    -0.00  -0.00   0.02    -0.02   0.00  -0.00
     2   6    -0.00  -0.00   0.00    -0.00   0.00  -0.00    -0.03   0.04   0.00
     3   6     0.00   0.00  -0.00    -0.00  -0.00  -0.00    -0.02  -0.06   0.00
     4   6     0.00  -0.00   0.00    -0.00  -0.00  -0.00    -0.02   0.06  -0.00
     5   6    -0.00   0.00  -0.00     0.00  -0.00  -0.00    -0.03  -0.04  -0.00
     6   6    -0.00  -0.00   0.00     0.00   0.00   0.00     0.06   0.00   0.00
     7   6     0.00   0.00   0.00    -0.00  -0.00   0.00    -0.01   0.05  -0.00
     8   6    -0.00   0.00  -0.00     0.00  -0.00  -0.00    -0.03  -0.03   0.00
     9   6    -0.00  -0.00   0.00     0.00   0.00   0.00     0.06  -0.00  -0.00
    10   1     0.00   0.00   0.00    -0.00   0.00  -0.00    -0.17  -0.08   0.00
    11   1     0.00  -0.00  -0.00    -0.00   0.00  -0.00    -0.03  -0.04   0.00
    12   1     0.00  -0.00  -0.00    -0.00   0.00   0.00    -0.06  -0.19   0.00
    13   1     0.00   0.00  -0.00    -0.00   0.00  -0.01    -0.17  -0.09   0.00
    14   6    -0.00   0.00  -0.00     0.00   0.00   0.00     0.06   0.00  -0.00
    15   6    -0.00  -0.00   0.00    -0.00   0.00  -0.00    -0.03   0.03  -0.00
    16   6     0.00  -0.00  -0.00    -0.00  -0.00   0.00    -0.01  -0.05   0.00
    17   6    -0.00   0.00  -0.00     0.00  -0.00   0.00     0.06  -0.00  -0.00
    18   1     0.00  -0.00   0.00    -0.00   0.00  -0.01    -0.18   0.09  -0.00
    19   1     0.00   0.00   0.00    -0.00   0.00   0.00    -0.06   0.19  -0.00
    20   1     0.00   0.00   0.00     0.00   0.00  -0.00    -0.03   0.04  -0.00
    21   1     0.00  -0.00  -0.00    -0.00   0.00  -0.00    -0.17   0.08  -0.00
    22   6     0.04  -0.00  -0.00     0.00   0.04   0.02    -0.03   0.00   0.00
    23   1    -0.51  -0.00   0.00    -0.00   0.24  -0.13     0.43   0.00  -0.00
    24   1    -0.04  -0.10  -0.33    -0.27  -0.36  -0.10     0.03   0.07   0.29
    25   1    -0.04   0.10   0.33     0.27  -0.36  -0.10     0.03  -0.08  -0.29
    26   6    -0.04   0.00  -0.00    -0.00  -0.04   0.02    -0.03   0.00  -0.00
    27   1     0.04  -0.10   0.33    -0.27   0.36  -0.10     0.03  -0.08   0.29
    28   1     0.04   0.10  -0.33     0.27   0.36  -0.10     0.03   0.07  -0.29
    29   1     0.51   0.00   0.00     0.00  -0.24  -0.13     0.43   0.00   0.00
                     61                     62                     63
                      A                      A                      A
 Frequencies --   1503.6552              1511.7516              1515.0080
 Red. masses --      1.1258                 2.6422                 1.6626
 Frc consts  --      1.4997                 3.5578                 2.2484
 IR Inten    --      7.4683                 0.9779                11.7182
  Atom  AN      X      Y      Z        X      Y      Z        X      Y      Z
     1   6    -0.00  -0.03  -0.00     0.00  -0.07   0.00    -0.06  -0.00  -0.00
     2   6    -0.02  -0.01   0.00     0.03   0.11  -0.00     0.06  -0.04  -0.00
     3   6     0.03   0.00   0.00    -0.15  -0.03  -0.00     0.01   0.07  -0.00
     4   6    -0.03   0.00   0.00     0.15  -0.03  -0.00     0.01  -0.07   0.00
     5   6     0.02  -0.01   0.00    -0.03   0.11  -0.00     0.06   0.04   0.00
     6   6     0.02   0.02  -0.00    -0.08  -0.08  -0.00    -0.05   0.02  -0.00
     7   6    -0.02  -0.02  -0.00     0.08   0.07   0.00    -0.02  -0.07   0.00
     8   6     0.02  -0.01   0.00    -0.06   0.04  -0.00     0.07   0.01  -0.00
     9   6     0.01   0.01  -0.00    -0.05  -0.05   0.00    -0.07   0.01   0.00
    10   1    -0.06  -0.01   0.00     0.27   0.04  -0.00     0.16   0.09  -0.00
    11   1    -0.06   0.06  -0.00     0.24  -0.23   0.00    -0.05   0.12  -0.00
    12   1    -0.01   0.06  -0.00     0.03  -0.21   0.00     0.05   0.27  -0.00
    13   1    -0.07  -0.01   0.00     0.27   0.03   0.00     0.14   0.10   0.00
    14   6    -0.01   0.01  -0.00     0.05  -0.05   0.00    -0.07  -0.01   0.00
    15   6    -0.02  -0.01   0.00     0.06   0.04  -0.00     0.07  -0.01  -0.00
    16   6     0.02  -0.02   0.00    -0.08   0.07  -0.00    -0.02   0.07  -0.00
    17   6    -0.01   0.02  -0.00     0.08  -0.08   0.00    -0.05  -0.02   0.00
    18   1     0.06  -0.01  -0.00    -0.27   0.03   0.00     0.14  -0.10   0.00
    19   1     0.01   0.07  -0.00    -0.03  -0.21   0.00     0.05  -0.27   0.00
    20   1     0.06   0.06  -0.00    -0.24  -0.23   0.00    -0.05  -0.12   0.00
    21   1     0.06  -0.01   0.00    -0.27   0.04  -0.00     0.16  -0.09   0.00
    22   6    -0.00  -0.02  -0.02     0.00  -0.01  -0.01    -0.03  -0.00  -0.00
    23   1     0.00  -0.25   0.14    -0.00  -0.13   0.08     0.39  -0.00   0.00
    24   1     0.26   0.35   0.09     0.13   0.18   0.03     0.02   0.06   0.28
    25   1    -0.26   0.35   0.09    -0.13   0.18   0.03     0.02  -0.06  -0.28
    26   6    -0.00  -0.02   0.02     0.00  -0.01   0.01    -0.03  -0.00   0.00
    27   1    -0.26   0.35  -0.09    -0.13   0.18  -0.03     0.02  -0.06   0.28
    28   1     0.26   0.35  -0.09     0.13   0.18  -0.03     0.02   0.06  -0.28
    29   1     0.00  -0.25  -0.14    -0.00  -0.13  -0.08     0.39  -0.00  -0.00
                     64                     65                     66
                      A                      A                      A
 Frequencies --   1621.4846              1625.1216              1647.1696
 Red. masses --      5.6950                 6.5158                 6.2740
 Frc consts  --      8.8221                10.1388                10.0292
 IR Inten    --      0.4340                 0.1116                 0.0038
  Atom  AN      X      Y      Z        X      Y      Z        X      Y      Z
     1   6     0.00  -0.02   0.00     0.05   0.00  -0.00    -0.00  -0.00   0.00
     2   6     0.16   0.14  -0.00    -0.13  -0.17   0.00     0.20  -0.01  -0.00
     3   6     0.07  -0.17   0.00     0.01   0.24  -0.00    -0.21   0.09  -0.00
     4   6    -0.07  -0.17   0.00     0.01  -0.24   0.00     0.21   0.09  -0.00
     5   6    -0.16   0.14  -0.00    -0.13   0.17  -0.00    -0.19  -0.01  -0.00
     6   6     0.10  -0.09   0.00     0.08  -0.09   0.00     0.22   0.07   0.00
     7   6    -0.03   0.23  -0.00    -0.04   0.22  -0.00    -0.10  -0.08  -0.00
     8   6     0.11  -0.19   0.00     0.15  -0.21   0.00     0.13  -0.01  -0.00
     9   6     0.03   0.12  -0.00    -0.05   0.12  -0.00    -0.23  -0.08   0.00
    10   1    -0.20   0.05   0.00    -0.05   0.13   0.00     0.33   0.11  -0.00
    11   1    -0.27   0.13  -0.00    -0.30   0.19  -0.00    -0.03   0.15  -0.00
    12   1    -0.14  -0.31   0.00    -0.14  -0.24   0.00    -0.06   0.13  -0.00
    13   1    -0.09  -0.17   0.00    -0.06  -0.14   0.00    -0.28  -0.11  -0.00
    14   6    -0.03   0.11  -0.00    -0.05  -0.12   0.00     0.24  -0.08   0.00
    15   6    -0.11  -0.19   0.00     0.15   0.21  -0.00    -0.13  -0.01   0.00
    16   6     0.03   0.23  -0.00    -0.04  -0.22   0.00     0.10  -0.08   0.00
    17   6    -0.10  -0.09   0.00     0.08   0.09  -0.00    -0.23   0.07   0.00
    18   1     0.09  -0.17   0.00    -0.06   0.14   0.00     0.28  -0.11  -0.00
    19   1     0.14  -0.31   0.00    -0.14   0.24  -0.00     0.06   0.13  -0.00
    20   1     0.27   0.13  -0.00    -0.30  -0.19   0.00     0.03   0.15  -0.00
    21   1     0.20   0.05   0.00    -0.05  -0.13   0.00    -0.33   0.11  -0.00
    22   6    -0.00  -0.00   0.00    -0.01  -0.00   0.00     0.00   0.00  -0.01
    23   1    -0.00   0.00  -0.00    -0.03   0.00  -0.00     0.00  -0.02   0.01
    24   1     0.01   0.00  -0.00     0.00   0.01  -0.05    -0.01  -0.00   0.02
    25   1    -0.01   0.00  -0.00     0.00  -0.01   0.05     0.01  -0.00   0.02
    26   6    -0.00  -0.00  -0.00    -0.01  -0.00  -0.00     0.00   0.00   0.01
    27   1    -0.01   0.00   0.00     0.00  -0.01  -0.05     0.01  -0.00  -0.02
    28   1     0.01   0.00   0.00     0.00   0.01   0.05    -0.01  -0.00  -0.02
    29   1    -0.00   0.00   0.00    -0.03   0.00   0.00     0.00  -0.02  -0.01
                     67                     68                     69
                      A                      A                      A
 Frequencies --   1648.3825              3022.7072              3027.0102
 Red. masses --      6.6281                 1.0341                 1.0345
 Frc consts  --     10.6110                 5.5668                 5.5850
 IR Inten    --      2.4338                20.2233                40.8914
  Atom  AN      X      Y      Z        X      Y      Z        X      Y      Z
     1   6     0.06   0.00  -0.00     0.00   0.00  -0.00    -0.00   0.00   0.00
     2   6    -0.20   0.03   0.00     0.00  -0.00   0.00     0.00  -0.00  -0.00
     3   6     0.14  -0.16   0.00    -0.00   0.00   0.00    -0.00   0.00  -0.00
     4   6     0.14   0.16  -0.00     0.00   0.00   0.00     0.00   0.00  -0.00
     5   6    -0.20  -0.03  -0.00    -0.00  -0.00   0.00    -0.00  -0.00  -0.00
     6   6     0.25   0.08   0.00     0.00  -0.00  -0.00     0.00  -0.00   0.00
     7   6    -0.10  -0.10  -0.00     0.00  -0.00  -0.00     0.00  -0.00   0.00
     8   6     0.13   0.01  -0.00     0.00   0.00   0.00     0.00   0.00  -0.00
     9   6    -0.23  -0.10   0.00    -0.00   0.00  -0.00    -0.00   0.00   0.00
    10   1     0.29   0.06  -0.00     0.00  -0.00  -0.00     0.00  -0.00   0.00
    11   1     0.00   0.14  -0.00    -0.00  -0.00   0.00    -0.00  -0.00  -0.00
    12   1    -0.06   0.15  -0.00    -0.00   0.00  -0.00    -0.00   0.00   0.00
    13   1    -0.31  -0.12  -0.00    -0.00   0.00   0.00    -0.00   0.01  -0.00
    14   6    -0.23   0.10  -0.00     0.00   0.00  -0.00     0.00   0.00   0.00
    15   6     0.13  -0.01  -0.00    -0.00   0.00   0.00    -0.00   0.00   0.00
    16   6    -0.10   0.10  -0.00    -0.00  -0.00  -0.00    -0.00  -0.00   0.00
    17   6     0.24  -0.08   0.00    -0.00  -0.00  -0.00    -0.00  -0.00   0.00
    18   1    -0.31   0.11   0.00     0.00   0.00   0.00     0.00   0.01  -0.00
    19   1    -0.06  -0.15   0.00     0.00   0.00  -0.00     0.00   0.00   0.00
    20   1     0.00  -0.13   0.00     0.00  -0.00   0.00     0.00  -0.00  -0.00
    21   1     0.28  -0.06   0.00    -0.00  -0.00  -0.00    -0.00  -0.00   0.00
    22   6    -0.00   0.00  -0.00     0.00  -0.03   0.02    -0.00   0.02  -0.02
    23   1    -0.04  -0.00   0.00    -0.00  -0.20  -0.28     0.00   0.20   0.29
    24   1     0.00   0.01  -0.06    -0.36   0.25   0.00     0.36  -0.25   0.00
    25   1     0.00  -0.01   0.06     0.36   0.25   0.00    -0.36  -0.25   0.00
    26   6    -0.00   0.00   0.00    -0.00   0.03   0.02    -0.00   0.02   0.02
    27   1     0.00  -0.01  -0.06    -0.36  -0.25   0.00    -0.35  -0.25  -0.00
    28   1     0.00   0.01   0.06     0.36  -0.25   0.00     0.35  -0.25  -0.00
    29   1    -0.04  -0.00  -0.00     0.00   0.20  -0.28     0.00   0.20  -0.29
                     70                     71                     72
                      A                      A                      A
 Frequencies --   3084.4755              3089.9115              3101.8298
 Red. masses --      1.1026                 1.1017                 1.1022
 Frc consts  --      6.1805                 6.1974                 6.2482
 IR Inten    --      0.0001                48.0612                17.3394
  Atom  AN      X      Y      Z        X      Y      Z        X      Y      Z
     1   6     0.00  -0.00  -0.00    -0.00   0.00   0.00    -0.00   0.00  -0.00
     2   6     0.00   0.00  -0.00     0.00  -0.00   0.00     0.00  -0.00   0.00
     3   6    -0.00  -0.00   0.00    -0.00  -0.00   0.00     0.00  -0.00   0.00
     4   6     0.00   0.00  -0.00    -0.00   0.00  -0.00    -0.00  -0.00   0.00
     5   6    -0.00  -0.00   0.00     0.00   0.00  -0.00    -0.00  -0.00   0.00
     6   6    -0.00   0.00  -0.00     0.00  -0.00   0.00     0.00  -0.00   0.00
     7   6     0.00  -0.00  -0.00    -0.00   0.00  -0.00    -0.00   0.00  -0.00
     8   6     0.00   0.00  -0.00     0.00  -0.00  -0.00     0.00   0.00   0.00
     9   6    -0.00  -0.00   0.00    -0.00  -0.00   0.00     0.00  -0.00  -0.00
    10   1     0.00  -0.00   0.00    -0.00   0.00   0.00    -0.00   0.00  -0.00
    11   1    -0.00  -0.00   0.00     0.00  -0.00  -0.00    -0.00  -0.00   0.00
    12   1    -0.00   0.00   0.00     0.00  -0.00   0.00     0.00  -0.00  -0.00
    13   1     0.00  -0.00   0.00    -0.01   0.02  -0.00    -0.00   0.00  -0.00
    14   6    -0.00   0.00  -0.00    -0.00   0.00   0.00    -0.00  -0.00  -0.00
    15   6     0.00   0.00   0.00     0.00   0.00   0.00    -0.00   0.00   0.00
    16   6    -0.00  -0.00   0.00    -0.00  -0.00   0.00     0.00   0.00  -0.00
    17   6     0.00   0.00   0.00     0.00   0.00  -0.00    -0.00  -0.00   0.00
    18   1    -0.00  -0.00  -0.00    -0.01  -0.02   0.00     0.00   0.00  -0.00
    19   1     0.00   0.00  -0.00     0.00   0.00  -0.00    -0.00  -0.00  -0.00
    20   1    -0.00   0.00  -0.00     0.00   0.00  -0.00     0.00  -0.00   0.00
    21   1    -0.00  -0.00  -0.00    -0.00  -0.00   0.00     0.00   0.00  -0.00
    22   6     0.07  -0.00  -0.00    -0.07   0.00   0.00    -0.00  -0.05  -0.04
    23   1     0.02   0.00   0.00    -0.01  -0.00  -0.00     0.00   0.35   0.51
    24   1    -0.40   0.30  -0.00     0.40  -0.30   0.00    -0.20   0.13  -0.01
    25   1    -0.40  -0.30   0.00     0.40   0.30  -0.00     0.20   0.13  -0.01
    26   6    -0.07   0.00  -0.00    -0.07   0.00  -0.00     0.00   0.05  -0.04
    27   1     0.40   0.30   0.00     0.40   0.30   0.00    -0.20  -0.13  -0.01
    28   1     0.40  -0.30  -0.00     0.40  -0.30  -0.00     0.20  -0.13  -0.01
    29   1    -0.02  -0.00   0.00    -0.01  -0.00   0.00    -0.00  -0.35   0.52
                     73                     74                     75
                      A                      A                      A
 Frequencies --   3103.6601              3156.2976              3156.7713
 Red. masses --      1.1022                 1.0856                 1.0857
 Frc consts  --      6.2554                 6.3719                 6.3746
 IR Inten    --     29.7644                 1.6036                 7.5628
  Atom  AN      X      Y      Z        X      Y      Z        X      Y      Z
     1   6    -0.00  -0.00  -0.00    -0.00  -0.00  -0.00     0.00  -0.00  -0.00
     2   6    -0.00   0.00   0.00     0.00  -0.00   0.00     0.00  -0.00   0.00
     3   6    -0.00   0.00   0.00    -0.00   0.00  -0.00    -0.00   0.00  -0.00
     4   6     0.00   0.00   0.00    -0.00  -0.00   0.00     0.00   0.00   0.00
     5   6     0.00   0.00   0.00     0.00   0.00   0.00    -0.00  -0.00  -0.00
     6   6    -0.00   0.00   0.00    -0.01   0.04  -0.00     0.01  -0.04   0.00
     7   6     0.00  -0.00  -0.00     0.03  -0.01   0.00    -0.03   0.01  -0.00
     8   6    -0.00  -0.00  -0.00    -0.02  -0.02  -0.00     0.02   0.02   0.00
     9   6    -0.00   0.00  -0.00    -0.01   0.02  -0.00     0.00  -0.01   0.00
    10   1     0.00  -0.00  -0.00     0.07  -0.20   0.00    -0.06   0.18  -0.00
    11   1     0.00   0.00   0.00     0.19   0.21   0.00    -0.18  -0.21  -0.00
    12   1    -0.00   0.00  -0.00    -0.35   0.07  -0.00     0.38  -0.08   0.00
    13   1     0.01  -0.02  -0.00     0.16  -0.45   0.00    -0.17   0.47  -0.00
    14   6     0.00   0.00  -0.00    -0.01  -0.02   0.00    -0.00  -0.01   0.00
    15   6     0.00  -0.00   0.00    -0.02   0.02  -0.00    -0.01   0.02  -0.00
    16   6    -0.00  -0.00  -0.00     0.03   0.01  -0.00     0.03   0.01  -0.00
    17   6     0.00   0.00   0.00    -0.01  -0.04   0.00    -0.01  -0.04   0.00
    18   1    -0.01  -0.02   0.00     0.16   0.46  -0.00     0.16   0.46  -0.00
    19   1     0.00   0.00  -0.00    -0.37  -0.07   0.00    -0.37  -0.07   0.00
    20   1    -0.00   0.00   0.00     0.19  -0.21   0.00     0.18  -0.20   0.00
    21   1    -0.00  -0.00  -0.00     0.07   0.21  -0.00     0.05   0.17  -0.00
    22   6    -0.00  -0.05  -0.04    -0.00  -0.00  -0.00     0.00  -0.00  -0.00
    23   1     0.00   0.35   0.51    -0.00   0.00   0.00     0.00   0.01   0.01
    24   1    -0.20   0.13  -0.01     0.01  -0.01   0.00    -0.01   0.01  -0.00
    25   1     0.21   0.14  -0.01     0.01   0.01  -0.00     0.01   0.01  -0.00
    26   6    -0.00  -0.05   0.04    -0.00  -0.00   0.00     0.00  -0.00   0.00
    27   1     0.20   0.13   0.01     0.01   0.01   0.00     0.01   0.01   0.00
    28   1    -0.20   0.13   0.01     0.01  -0.01  -0.00    -0.01   0.01   0.00
    29   1     0.00   0.34  -0.50    -0.00   0.00  -0.00     0.00   0.01  -0.01
                     76                     77                     78
                      A                      A                      A
 Frequencies --   3162.7328              3164.3491              3173.6249
 Red. masses --      1.0881                 1.0882                 1.0927
 Frc consts  --      6.4128                 6.4199                 6.4843
 IR Inten    --      2.9543                 4.5652                 8.2852
  Atom  AN      X      Y      Z        X      Y      Z        X      Y      Z
     1   6     0.00   0.00  -0.00    -0.00   0.00   0.00    -0.00   0.00  -0.00
     2   6     0.00  -0.00  -0.00    -0.00   0.00   0.00     0.00   0.00  -0.00
     3   6     0.00  -0.00   0.00    -0.00   0.00  -0.00    -0.00   0.00  -0.00
     4   6     0.00   0.00  -0.00     0.00   0.00  -0.00    -0.00  -0.00   0.00
     5   6     0.00   0.00   0.00     0.00   0.00   0.00     0.00  -0.00   0.00
     6   6    -0.01   0.03  -0.00    -0.01   0.03  -0.00    -0.01   0.02  -0.00
     7   6     0.00  -0.00   0.00    -0.00  -0.00   0.00    -0.03   0.01  -0.00
     8   6     0.02   0.02   0.00     0.02   0.03   0.00     0.02   0.02   0.00
     9   6     0.01  -0.04   0.00     0.01  -0.03   0.00    -0.01   0.03  -0.00
    10   1    -0.15   0.46  -0.00    -0.13   0.40  -0.00     0.13  -0.39   0.00
    11   1    -0.23  -0.26  -0.00    -0.27  -0.30  -0.00    -0.20  -0.21  -0.00
    12   1    -0.04   0.01  -0.00     0.01  -0.00   0.00     0.40  -0.08   0.00
    13   1     0.13  -0.37   0.00     0.13  -0.36   0.00     0.10  -0.28   0.00
    14   6     0.01   0.04  -0.00    -0.01  -0.04   0.00    -0.01  -0.03   0.00
    15   6     0.02  -0.02   0.00    -0.02   0.03  -0.00     0.02  -0.02   0.00
    16   6     0.00   0.00  -0.00     0.00  -0.00   0.00    -0.03  -0.01   0.00
    17   6    -0.01  -0.03   0.00     0.01   0.03  -0.00    -0.01  -0.02   0.00
    18   1     0.13   0.36  -0.00    -0.13  -0.37   0.00     0.09   0.27  -0.00
    19   1    -0.04  -0.01   0.00    -0.01  -0.00   0.00     0.39   0.08  -0.00
    20   1    -0.23   0.25  -0.00     0.27  -0.30   0.00    -0.19   0.21  -0.00
    21   1    -0.15  -0.45   0.00     0.13   0.41  -0.00     0.13   0.39  -0.00
    22   6    -0.00   0.00   0.00     0.00   0.00   0.00    -0.00   0.00   0.00
    23   1    -0.00  -0.00  -0.00    -0.00  -0.00  -0.00    -0.00  -0.00  -0.00
    24   1     0.01  -0.00  -0.00     0.01  -0.00   0.00     0.00  -0.00  -0.00
    25   1     0.01   0.00   0.00    -0.01  -0.00   0.00     0.00   0.00   0.00
    26   6    -0.00   0.00  -0.00     0.00   0.00  -0.00    -0.00   0.00  -0.00
    27   1     0.01   0.00  -0.00    -0.01  -0.00  -0.00     0.00   0.00  -0.00
    28   1     0.01  -0.00   0.00     0.01  -0.00  -0.00     0.00  -0.00   0.00
    29   1    -0.00  -0.00   0.00    -0.00  -0.00   0.00    -0.00  -0.00   0.00
                     79                     80                     81
                      A                      A                      A
 Frequencies --   3174.9053              3186.1988              3186.9340
 Red. masses --      1.0926                 1.0972                 1.0971
 Frc consts  --      6.4890                 6.5629                 6.5654
 IR Inten    --     42.5371                52.9358                 9.0405
  Atom  AN      X      Y      Z        X      Y      Z        X      Y      Z
     1   6    -0.00  -0.00   0.00     0.00   0.00  -0.00    -0.00   0.00   0.00
     2   6     0.00   0.00  -0.00     0.00  -0.00  -0.00    -0.00   0.00  -0.00
     3   6    -0.00   0.00  -0.00     0.00  -0.00   0.00    -0.00   0.00  -0.00
     4   6     0.00   0.00  -0.00     0.00   0.00  -0.00     0.00   0.00  -0.00
     5   6    -0.00   0.00  -0.00     0.00   0.00   0.00     0.00   0.00  -0.00
     6   6     0.01  -0.02   0.00    -0.00   0.02  -0.00    -0.00   0.02  -0.00
     7   6     0.04  -0.01   0.00    -0.04   0.01  -0.00    -0.04   0.01  -0.00
     8   6    -0.01  -0.01  -0.00    -0.03  -0.03  -0.00    -0.03  -0.03  -0.00
     9   6     0.01  -0.04   0.00     0.01  -0.02   0.00     0.01  -0.02   0.00
    10   1    -0.14   0.43  -0.00    -0.07   0.22  -0.00    -0.09   0.25  -0.00
    11   1     0.15   0.16   0.00     0.31   0.35   0.00     0.31   0.35   0.00
    12   1    -0.40   0.08  -0.00     0.44  -0.09   0.00     0.42  -0.08   0.00
    13   1    -0.09   0.25  -0.00     0.05  -0.16   0.00     0.05  -0.16   0.00
    14   6    -0.01  -0.04   0.00     0.01   0.02  -0.00    -0.01  -0.02   0.00
    15   6     0.01  -0.01   0.00    -0.03   0.03  -0.00     0.03  -0.03   0.00
    16   6    -0.04  -0.01   0.00    -0.04  -0.01   0.00     0.04   0.01  -0.00
    17   6    -0.01  -0.02   0.00    -0.00  -0.02   0.00     0.00   0.02  -0.00
    18   1     0.09   0.25  -0.00     0.05   0.16  -0.00    -0.05  -0.16   0.00
    19   1     0.41   0.08  -0.00     0.44   0.09  -0.00    -0.42  -0.08   0.00
    20   1    -0.15   0.16  -0.00     0.31  -0.35   0.00    -0.31   0.35  -0.00
    21   1     0.14   0.44  -0.00    -0.07  -0.22   0.00     0.09   0.26  -0.00
    22   6    -0.00  -0.00  -0.00    -0.00   0.00   0.00    -0.00   0.00   0.00
    23   1     0.00   0.00   0.00     0.00  -0.00  -0.00    -0.00  -0.00  -0.00
    24   1    -0.00   0.00  -0.00     0.00  -0.00  -0.00     0.00  -0.00   0.00
    25   1     0.00   0.00  -0.00     0.00   0.00   0.00    -0.00  -0.00   0.00
    26   6    -0.00  -0.00   0.00    -0.00   0.00  -0.00    -0.00   0.00  -0.00
    27   1     0.00   0.00   0.00     0.00   0.00  -0.00    -0.00  -0.00  -0.00
    28   1    -0.00   0.00   0.00     0.00  -0.00   0.00     0.00  -0.00  -0.00
    29   1     0.00   0.00  -0.00     0.00  -0.00   0.00    -0.00  -0.00   0.00

 -------------------
 - Thermochemistry -
 -------------------
 Temperature   298.150 Kelvin.  Pressure   1.00000 Atm.
 Atom     1 has atomic number  6 and mass  12.00000
 Atom     2 has atomic number  6 and mass  12.00000
 Atom     3 has atomic number  6 and mass  12.00000
 Atom     4 has atomic number  6 and mass  12.00000
 Atom     5 has atomic number  6 and mass  12.00000
 Atom     6 has atomic number  6 and mass  12.00000
 Atom     7 has atomic number  6 and mass  12.00000
 Atom     8 has atomic number  6 and mass  12.00000
 Atom     9 has atomic number  6 and mass  12.00000
 Atom    10 has atomic number  1 and mass   1.00783
 Atom    11 has atomic number  1 and mass   1.00783
 Atom    12 has atomic number  1 and mass   1.00783
 Atom    13 has atomic number  1 and mass   1.00783
 Atom    14 has atomic number  6 and mass  12.00000
 Atom    15 has atomic number  6 and mass  12.00000
 Atom    16 has atomic number  6 and mass  12.00000
 Atom    17 has atomic number  6 and mass  12.00000
 Atom    18 has atomic number  1 and mass   1.00783
 Atom    19 has atomic number  1 and mass   1.00783
 Atom    20 has atomic number  1 and mass   1.00783
 Atom    21 has atomic number  1 and mass   1.00783
 Atom    22 has atomic number  6 and mass  12.00000
 Atom    23 has atomic number  1 and mass   1.00783
 Atom    24 has atomic number  1 and mass   1.00783
 Atom    25 has atomic number  1 and mass   1.00783
 Atom    26 has atomic number  6 and mass  12.00000
 Atom    27 has atomic number  1 and mass   1.00783
 Atom    28 has atomic number  1 and mass   1.00783
 Atom    29 has atomic number  1 and mass   1.00783
 Molecular mass:   194.10955 amu.
 Principal axes and moments of inertia in atomic units:
                           1         2         3
     Eigenvalues --  1703.778653276.909754590.96332
           X            1.00000  -0.00000   0.00000
           Y            0.00000   1.00000  -0.00000
           Z           -0.00000   0.00000   1.00000
 This molecule is an asymmetric top.
 Rotational symmetry number  1.
 Warning -- assumption of classical behavior for rotation
           may cause significant error
 Rotational temperatures (Kelvin)      0.05084     0.02643     0.01887
 Rotational constants (GHZ):           1.05926     0.55074     0.39311
 Zero-point vibrational energy     637694.5 (Joules/Mol)
                                  152.41265 (Kcal/Mol)
 Warning -- explicit consideration of  19 degrees of freedom as
           vibrations may cause significant error
 Vibrational temperatures:    110.75   167.84   174.53   278.51   294.08
          (Kelvin)            348.04   355.53   407.16   461.22   467.96
                              509.49   604.12   624.91   702.49   748.85
                              801.72   834.63   836.99   873.21   916.14
                             1032.91  1079.68  1097.15  1117.75  1119.70
                             1153.46  1158.70  1267.05  1276.64  1353.24
                             1360.91  1366.43  1369.04  1419.19  1422.20
                             1475.29  1483.26  1507.92  1509.33  1580.36
                             1595.36  1633.72  1655.66  1664.53  1701.40
                             1701.63  1765.22  1787.78  1827.92  1900.85
                             1901.42  1922.70  1984.38  2010.36  2042.58
                             2125.10  2129.27  2136.37  2142.40  2159.97
                             2163.42  2175.07  2179.76  2332.95  2338.19
                             2369.91  2371.65  4349.00  4355.19  4437.87
                             4445.69  4462.84  4465.47  4541.21  4541.89
                             4550.47  4552.79  4566.14  4567.98  4584.23
                             4585.29
 
 Zero-point correction=                           0.242885 (Hartree/Particle)
 Thermal correction to Energy=                    0.254833
 Thermal correction to Enthalpy=                  0.255777
 Thermal correction to Gibbs Free Energy=         0.205608
 Sum of electronic and zero-point Energies=           -579.945683
 Sum of electronic and thermal Energies=              -579.933735
 Sum of electronic and thermal Enthalpies=            -579.932791
 Sum of electronic and thermal Free Energies=         -579.982960
 
                     E (Thermal)             CV                S
                      KCal/Mol        Cal/Mol-Kelvin    Cal/Mol-Kelvin
 Total                  159.910             49.704            105.589
 Electronic               0.000              0.000              0.000
 Translational            0.889              2.981             41.695
 Rotational               0.889              2.981             31.617
 Vibrational            158.133             43.743             32.277
 Vibration     1          0.599              1.965              3.967
 Vibration     2          0.608              1.936              3.155
 Vibration     3          0.609              1.931              3.080
 Vibration     4          0.635              1.849              2.193
 Vibration     5          0.640              1.834              2.093
 Vibration     6          0.658              1.776              1.789
 Vibration     7          0.661              1.768              1.751
 Vibration     8          0.682              1.705              1.516
 Vibration     9          0.706              1.634              1.307
 Vibration    10          0.709              1.625              1.284
 Vibration    11          0.730              1.567              1.148
 Vibration    12          0.783              1.427              0.892
 Vibration    13          0.795              1.395              0.845
 Vibration    14          0.844              1.276              0.688
 Vibration    15          0.875              1.205              0.609
 Vibration    16          0.913              1.124              0.529
 Vibration    17          0.937              1.074              0.485
 Vibration    18          0.938              1.071              0.482
 Vibration    19          0.966              1.017              0.438
                       Q            Log10(Q)             Ln(Q)
 Total Bot       0.267168D-94        -94.573216       -217.762877
 Total V=0       0.139972D+18         17.146041         39.480219
 Vib (Bot)       0.138683-108       -108.857977       -250.654754
 Vib (Bot)    1  0.267678D+01          0.427612          0.984613
 Vib (Bot)    2  0.175317D+01          0.243824          0.561426
 Vib (Bot)    3  0.168418D+01          0.226389          0.521279
 Vib (Bot)    4  0.103258D+01          0.013925          0.032064
 Vib (Bot)    5  0.973879D+00         -0.011495         -0.026469
 Vib (Bot)    6  0.809885D+00         -0.091576         -0.210863
 Vib (Bot)    7  0.790901D+00         -0.101878         -0.234582
 Vib (Bot)    8  0.678324D+00         -0.168563         -0.388130
 Vib (Bot)    9  0.586206D+00         -0.231950         -0.534084
 Vib (Bot)   10  0.576134D+00         -0.239476         -0.551415
 Vib (Bot)   11  0.519624D+00         -0.284311         -0.654651
 Vib (Bot)   12  0.418219D+00         -0.378596         -0.871750
 Vib (Bot)   13  0.399798D+00         -0.398159         -0.916795
 Vib (Bot)   14  0.340104D+00         -0.468389         -1.078505
 Vib (Bot)   15  0.309988D+00         -0.508654         -1.171220
 Vib (Bot)   16  0.279676D+00         -0.553345         -1.274123
 Vib (Bot)   17  0.262657D+00         -0.580612         -1.336908
 Vib (Bot)   18  0.261487D+00         -0.582550         -1.341370
 Vib (Bot)   19  0.244281D+00         -0.612110         -1.409435
 Vib (V=0)       0.726576D+03          2.861281          6.588343
 Vib (V=0)    1  0.322307D+01          0.508270          1.170335
 Vib (V=0)    2  0.232308D+01          0.366064          0.842893
 Vib (V=0)    3  0.225683D+01          0.353499          0.813963
 Vib (V=0)    4  0.164727D+01          0.216765          0.499120
 Vib (V=0)    5  0.159473D+01          0.202688          0.466706
 Vib (V=0)    6  0.145180D+01          0.161905          0.372801
 Vib (V=0)    7  0.143569D+01          0.157062          0.361649
 Vib (V=0)    8  0.134269D+01          0.127975          0.294674
 Vib (V=0)    9  0.127048D+01          0.103967          0.239394
 Vib (V=0)   10  0.126284D+01          0.101350          0.233366
 Vib (V=0)   11  0.122112D+01          0.086757          0.199765
 Vib (V=0)   12  0.115185D+01          0.061396          0.141369
 Vib (V=0)   13  0.114019D+01          0.056976          0.131192
 Vib (V=0)   14  0.110471D+01          0.043247          0.099580
 Vib (V=0)   15  0.108830D+01          0.036747          0.084614
 Vib (V=0)   16  0.107290D+01          0.030561          0.070369
 Vib (V=0)   17  0.106479D+01          0.027264          0.062778
 Vib (V=0)   18  0.106425D+01          0.027043          0.062268
 Vib (V=0)   19  0.105648D+01          0.023863          0.054945
 Electronic      0.100000D+01          0.000000          0.000000
 Translational   0.106298D+09          8.026524         18.481755
 Rotational      0.181233D+07          6.258236         14.410122
 ***** Axes restored to original set *****
 -------------------------------------------------------------------
 Center     Atomic                   Forces (Hartrees/Bohr)
 Number     Number              X              Y              Z
 -------------------------------------------------------------------
      1        6          -0.000144656   -0.000238987   -0.000014104
      2        6           0.000066297    0.000183851    0.000003279
      3        6          -0.000067325   -0.000052243   -0.000000828
      4        6          -0.000079661   -0.000072800   -0.000002534
      5        6           0.000133835    0.000095540    0.000008839
      6        6          -0.000187021   -0.000115019    0.000001288
      7        6          -0.000235374    0.000013507   -0.000003784
      8        6           0.000127201    0.000208603    0.000002359
      9        6           0.000125850    0.000126853   -0.000003906
     10        1           0.000057846    0.000043718    0.000000136
     11        1          -0.000012159    0.000064735   -0.000002413
     12        1          -0.000056693    0.000040442   -0.000001869
     13        1          -0.000067747   -0.000009045   -0.000000523
     14        6           0.000094132    0.000127298    0.000000136
     15        6           0.000184676    0.000156447   -0.000002746
     16        6           0.000052509   -0.000243843    0.000006551
     17        6          -0.000100715   -0.000215753    0.000005079
     18        1          -0.000009217   -0.000065427   -0.000000780
     19        1           0.000046117   -0.000050344    0.000000690
     20        1           0.000064737    0.000003239    0.000000342
     21        1           0.000051119    0.000060127   -0.000000715
     22        6          -0.000058787   -0.000059959    0.000134268
     23        1           0.000025211    0.000020304   -0.000032229
     24        1           0.000013723    0.000004521   -0.000008905
     25        1          -0.000001464    0.000008530   -0.000001972
     26        6          -0.000055488   -0.000070409   -0.000133393
     27        1          -0.000003420    0.000008095    0.000002845
     28        1           0.000013134    0.000006002    0.000010552
     29        1           0.000023340    0.000022015    0.000034338
 -------------------------------------------------------------------
 Cartesian Forces:  Max     0.000243843 RMS     0.000086776
 FormGI is forming the generalized inverse of G from B-inverse, IUseBI=4.
 Leave Link  716 at Wed Mar 11 11:58:07 2026, MaxMem=   104857600 cpu:               0.0 elap:               0.0
 (Enter /sw/cluster/pub/apps//g16/l103.exe)

 GradGradGradGradGradGradGradGradGradGradGradGradGradGradGradGradGradGrad
 Berny optimization.
 Red2BG is reusing G-inverse.
 Internal  Forces:  Max     0.000337190 RMS     0.000076770
 Search for a local minimum.
 Step number   1 out of a maximum of    2
 All quantities printed in internal units (Hartrees-Bohrs-Radians)
 Second derivative matrix not updated -- analytic derivatives used.
 ITU=  0
     Eigenvalues ---    0.00281   0.00358   0.00570   0.01023   0.01350
     Eigenvalues ---    0.01512   0.01651   0.01697   0.01753   0.01816
     Eigenvalues ---    0.01957   0.02137   0.02177   0.02405   0.02456
     Eigenvalues ---    0.02495   0.02814   0.02837   0.02850   0.02862
     Eigenvalues ---    0.04177   0.04509   0.04517   0.04575   0.04622
     Eigenvalues ---    0.04854   0.06515   0.09400   0.10820   0.10919
     Eigenvalues ---    0.11173   0.11374   0.11836   0.12188   0.12199
     Eigenvalues ---    0.12266   0.12273   0.12304   0.14373   0.14420
     Eigenvalues ---    0.14951   0.15356   0.16637   0.17978   0.19126
     Eigenvalues ---    0.19186   0.19347   0.19412   0.19746   0.20242
     Eigenvalues ---    0.23301   0.23376   0.26311   0.27607   0.28846
     Eigenvalues ---    0.29154   0.31055   0.33040   0.33193   0.33289
     Eigenvalues ---    0.33470   0.34174   0.34245   0.34723   0.35208
     Eigenvalues ---    0.35232   0.35450   0.35502   0.35554   0.35721
     Eigenvalues ---    0.35735   0.36103   0.39247   0.40882   0.40927
     Eigenvalues ---    0.44560   0.45115   0.46188   0.46717   0.50045
     Eigenvalues ---    0.50327
 Angle between quadratic step and forces=  45.72 degrees.
 Linear search not attempted -- first point.
 Iteration  1 RMS(Cart)=  0.00050986 RMS(Int)=  0.00000014
 Iteration  2 RMS(Cart)=  0.00000016 RMS(Int)=  0.00000002
 ITry= 1 IFail=0 DXMaxC= 1.81D-03 DCOld= 1.00D+10 DXMaxT= 3.00D-01 DXLimC= 3.00D+00 Rises=F
 Variable       Old X    -DE/DX   Delta X   Delta X   Delta X     New X
                                 (Linear)    (Quad)   (Total)
    R1        2.88678   0.00019   0.00000   0.00075   0.00075   2.88753
    R2        2.88655   0.00024   0.00000   0.00097   0.00097   2.88753
    R3        2.91783   0.00009   0.00000   0.00028   0.00028   2.91811
    R4        2.91787   0.00009   0.00000   0.00024   0.00024   2.91811
    R5        2.65780   0.00013   0.00000   0.00006   0.00006   2.65785
    R6        2.62306   0.00027   0.00000   0.00059   0.00059   2.62364
    R7        2.77377   0.00024   0.00000   0.00064   0.00064   2.77441
    R8        2.63463   0.00028   0.00000   0.00062   0.00062   2.63525
    R9        2.65778   0.00013   0.00000   0.00007   0.00007   2.65785
   R10        2.63463   0.00028   0.00000   0.00062   0.00062   2.63525
   R11        2.62306   0.00027   0.00000   0.00058   0.00058   2.62364
   R12        2.64038   0.00022   0.00000   0.00038   0.00038   2.64076
   R13        2.05060   0.00006   0.00000   0.00015   0.00015   2.05075
   R14        2.63749   0.00033   0.00000   0.00077   0.00077   2.63826
   R15        2.04886   0.00007   0.00000   0.00018   0.00018   2.04904
   R16        2.63400   0.00020   0.00000   0.00032   0.00032   2.63431
   R17        2.04892   0.00006   0.00000   0.00017   0.00017   2.04909
   R18        2.04950   0.00007   0.00000   0.00018   0.00018   2.04969
   R19        2.63399   0.00020   0.00000   0.00032   0.00032   2.63431
   R20        2.04949   0.00008   0.00000   0.00020   0.00020   2.04969
   R21        2.63747   0.00034   0.00000   0.00079   0.00079   2.63826
   R22        2.04892   0.00006   0.00000   0.00017   0.00017   2.04909
   R23        2.64038   0.00022   0.00000   0.00038   0.00038   2.64076
   R24        2.04886   0.00007   0.00000   0.00017   0.00017   2.04904
   R25        2.05060   0.00006   0.00000   0.00015   0.00015   2.05075
   R26        2.06381  -0.00001   0.00000  -0.00004  -0.00004   2.06376
   R27        2.06674  -0.00001   0.00000  -0.00005  -0.00005   2.06669
   R28        2.06672  -0.00001   0.00000  -0.00004  -0.00004   2.06669
   R29        2.06673  -0.00001   0.00000  -0.00004  -0.00004   2.06669
   R30        2.06674  -0.00001   0.00000  -0.00005  -0.00005   2.06669
   R31        2.06381  -0.00001   0.00000  -0.00005  -0.00005   2.06376
    A1        1.76598  -0.00001   0.00000  -0.00031  -0.00031   1.76567
    A2        1.94341  -0.00001   0.00000  -0.00014  -0.00014   1.94327
    A3        1.94327  -0.00001   0.00000  -0.00001  -0.00001   1.94327
    A4        1.94351  -0.00001   0.00000  -0.00024  -0.00024   1.94327
    A5        1.94339  -0.00001   0.00000  -0.00012  -0.00012   1.94327
    A6        1.92023   0.00004   0.00000   0.00072   0.00072   1.92095
    A7        1.93561   0.00001   0.00000   0.00019   0.00019   1.93580
    A8        2.24908  -0.00007   0.00000  -0.00049  -0.00049   2.24859
    A9        2.09849   0.00006   0.00000   0.00031   0.00031   2.09880
   A10        1.89376   0.00000   0.00000  -0.00000  -0.00000   1.89376
   A11        2.10399  -0.00002   0.00000  -0.00012  -0.00012   2.10387
   A12        2.28544   0.00002   0.00000   0.00012   0.00012   2.28556
   A13        1.89372   0.00000   0.00000   0.00003   0.00003   1.89376
   A14        2.28563  -0.00001   0.00000  -0.00008  -0.00008   2.28556
   A15        2.10383   0.00001   0.00000   0.00005   0.00005   2.10387
   A16        1.93570  -0.00000   0.00000   0.00010   0.00010   1.93580
   A17        2.24883  -0.00003   0.00000  -0.00024  -0.00024   2.24859
   A18        2.09865   0.00003   0.00000   0.00015   0.00015   2.09880
   A19        2.08042  -0.00002   0.00000  -0.00013  -0.00013   2.08029
   A20        2.11045   0.00004   0.00000   0.00025   0.00025   2.11070
   A21        2.09231  -0.00002   0.00000  -0.00013  -0.00013   2.09219
   A22        2.10346  -0.00001   0.00000   0.00000   0.00000   2.10347
   A23        2.09024   0.00001   0.00000   0.00011   0.00011   2.09034
   A24        2.08949  -0.00000   0.00000  -0.00011  -0.00011   2.08938
   A25        2.10424  -0.00001   0.00000  -0.00001  -0.00001   2.10424
   A26        2.08882  -0.00001   0.00000  -0.00014  -0.00014   2.08867
   A27        2.09013   0.00002   0.00000   0.00015   0.00015   2.09028
   A28        2.07576  -0.00000   0.00000  -0.00006  -0.00006   2.07570
   A29        2.10936   0.00001   0.00000   0.00007   0.00007   2.10942
   A30        2.09807  -0.00001   0.00000  -0.00000  -0.00000   2.09806
   A31        2.07572   0.00000   0.00000  -0.00002  -0.00002   2.07570
   A32        2.10922   0.00002   0.00000   0.00020   0.00020   2.10942
   A33        2.09825  -0.00003   0.00000  -0.00019  -0.00019   2.09806
   A34        2.10416   0.00000   0.00000   0.00007   0.00007   2.10424
   A35        2.09024   0.00000   0.00000   0.00004   0.00004   2.09028
   A36        2.08878  -0.00001   0.00000  -0.00011  -0.00011   2.08867
   A37        2.10356  -0.00002   0.00000  -0.00009  -0.00009   2.10347
   A38        2.08945   0.00001   0.00000  -0.00007  -0.00007   2.08938
   A39        2.09018   0.00002   0.00000   0.00016   0.00016   2.09034
   A40        2.08045  -0.00003   0.00000  -0.00016  -0.00016   2.08029
   A41        2.11055   0.00003   0.00000   0.00016   0.00016   2.11070
   A42        2.09219  -0.00000   0.00000  -0.00000  -0.00000   2.09219
   A43        1.93817  -0.00006   0.00000  -0.00058  -0.00058   1.93758
   A44        1.93146  -0.00000   0.00000  -0.00003  -0.00003   1.93143
   A45        1.93137   0.00001   0.00000   0.00006   0.00006   1.93143
   A46        1.88897   0.00003   0.00000   0.00023   0.00023   1.88921
   A47        1.88903   0.00002   0.00000   0.00018   0.00018   1.88921
   A48        1.88311   0.00001   0.00000   0.00017   0.00017   1.88328
   A49        1.93136   0.00001   0.00000   0.00007   0.00007   1.93143
   A50        1.93149  -0.00001   0.00000  -0.00006  -0.00006   1.93143
   A51        1.93816  -0.00006   0.00000  -0.00057  -0.00057   1.93758
   A52        1.88312   0.00001   0.00000   0.00016   0.00016   1.88328
   A53        1.88900   0.00002   0.00000   0.00021   0.00021   1.88921
   A54        1.88898   0.00003   0.00000   0.00023   0.00023   1.88921
    D1       -0.00003  -0.00000   0.00000   0.00003   0.00003  -0.00000
    D2        3.14159  -0.00000   0.00000   0.00001   0.00001  -3.14159
    D3       -2.06671   0.00002   0.00000   0.00054   0.00054  -2.06617
    D4        1.07490   0.00002   0.00000   0.00052   0.00052   1.07542
    D5        2.06646  -0.00002   0.00000  -0.00029  -0.00029   2.06617
    D6       -1.07511  -0.00002   0.00000  -0.00031  -0.00031  -1.07542
    D7        0.00001   0.00000   0.00000  -0.00001  -0.00001   0.00000
    D8       -3.14156   0.00000   0.00000  -0.00003  -0.00003  -3.14159
    D9        2.06663  -0.00002   0.00000  -0.00045  -0.00045   2.06617
   D10       -1.07494  -0.00002   0.00000  -0.00048  -0.00048  -1.07542
   D11       -2.06639   0.00002   0.00000   0.00022   0.00022  -2.06617
   D12        1.07522   0.00002   0.00000   0.00020   0.00020   1.07542
   D13        0.97878  -0.00001   0.00000  -0.00072  -0.00072   0.97806
   D14        3.07710  -0.00002   0.00000  -0.00083  -0.00083   3.07627
   D15       -1.11956  -0.00001   0.00000  -0.00060  -0.00060  -1.12015
   D16       -0.97794   0.00001   0.00000  -0.00011  -0.00011  -0.97806
   D17        1.12038   0.00000   0.00000  -0.00023  -0.00023   1.12015
   D18       -3.07628   0.00001   0.00000   0.00001   0.00001  -3.07627
   D19       -3.14128  -0.00000   0.00000  -0.00031  -0.00031  -3.14159
   D20       -1.04296  -0.00001   0.00000  -0.00042  -0.00042  -1.04338
   D21        1.04357   0.00001   0.00000  -0.00019  -0.00019   1.04338
   D22        1.11953   0.00001   0.00000   0.00063   0.00063   1.12015
   D23       -3.07710   0.00002   0.00000   0.00083   0.00083  -3.07627
   D24       -0.97876   0.00001   0.00000   0.00070   0.00070  -0.97806
   D25        3.07610  -0.00001   0.00000   0.00017   0.00017   3.07627
   D26       -1.12053  -0.00000   0.00000   0.00038   0.00038  -1.12015
   D27        0.97781  -0.00001   0.00000   0.00024   0.00024   0.97806
   D28       -1.04368  -0.00000   0.00000   0.00030   0.00030  -1.04338
   D29        1.04288   0.00001   0.00000   0.00050   0.00050   1.04338
   D30        3.14122  -0.00000   0.00000   0.00037   0.00037   3.14159
   D31        0.00003   0.00000   0.00000  -0.00003  -0.00003   0.00000
   D32       -3.14154   0.00000   0.00000  -0.00005  -0.00005  -3.14159
   D33       -3.14158   0.00000   0.00000  -0.00001  -0.00001   3.14159
   D34        0.00003  -0.00000   0.00000  -0.00003  -0.00003   0.00000
   D35        3.14155  -0.00000   0.00000   0.00004   0.00004   3.14159
   D36       -0.00008   0.00000   0.00000   0.00008   0.00008  -0.00000
   D37       -0.00002  -0.00000   0.00000   0.00002   0.00002  -0.00000
   D38        3.14154   0.00000   0.00000   0.00006   0.00006   3.14159
   D39       -0.00002   0.00000   0.00000   0.00002   0.00002  -0.00000
   D40       -3.14159  -0.00000   0.00000  -0.00000  -0.00000  -3.14159
   D41        3.14155   0.00000   0.00000   0.00004   0.00004   3.14159
   D42       -0.00002   0.00000   0.00000   0.00002   0.00002  -0.00000
   D43       -0.00003   0.00000   0.00000   0.00003   0.00003  -0.00000
   D44        3.14158   0.00000   0.00000   0.00001   0.00001   3.14159
   D45        3.14159  -0.00000   0.00000   0.00001   0.00001  -3.14159
   D46        0.00001  -0.00000   0.00000  -0.00001  -0.00001   0.00000
   D47        0.00001  -0.00000   0.00000  -0.00001  -0.00001  -0.00000
   D48        3.14158  -0.00000   0.00000   0.00001   0.00001   3.14159
   D49        3.14158  -0.00000   0.00000   0.00001   0.00001   3.14159
   D50       -0.00003   0.00000   0.00000   0.00003   0.00003  -0.00000
   D51        3.14157   0.00000   0.00000   0.00002   0.00002   3.14159
   D52       -0.00000   0.00000   0.00000   0.00000   0.00000  -0.00000
   D53        0.00001   0.00000   0.00000  -0.00001  -0.00001   0.00000
   D54       -3.14157  -0.00000   0.00000  -0.00002  -0.00002  -3.14159
   D55        3.14159   0.00000   0.00000   0.00000   0.00000  -3.14159
   D56        0.00001   0.00000   0.00000  -0.00001  -0.00001   0.00000
   D57        0.00002   0.00000   0.00000  -0.00002  -0.00002   0.00000
   D58       -3.14156  -0.00000   0.00000  -0.00003  -0.00003  -3.14159
   D59        0.00002  -0.00000   0.00000  -0.00002  -0.00002   0.00000
   D60       -3.14157  -0.00000   0.00000  -0.00002  -0.00002  -3.14159
   D61       -3.14158   0.00000   0.00000  -0.00001  -0.00001   3.14159
   D62        0.00001   0.00000   0.00000  -0.00001  -0.00001  -0.00000
   D63       -0.00005   0.00000   0.00000   0.00005   0.00005  -0.00000
   D64       -3.14158  -0.00000   0.00000  -0.00001  -0.00001   3.14159
   D65        3.14155   0.00000   0.00000   0.00005   0.00005   3.14159
   D66        0.00001  -0.00000   0.00000  -0.00001  -0.00001  -0.00000
   D67        0.00003  -0.00000   0.00000  -0.00003  -0.00003   0.00000
   D68       -3.14158  -0.00000   0.00000  -0.00002  -0.00002   3.14159
   D69        3.14157   0.00000   0.00000   0.00003   0.00003  -3.14159
   D70       -0.00004   0.00000   0.00000   0.00004   0.00004  -0.00000
   D71        0.00001  -0.00000   0.00000  -0.00001  -0.00001   0.00000
   D72       -3.14158  -0.00000   0.00000  -0.00001  -0.00001   3.14159
   D73        3.14159  -0.00000   0.00000   0.00000   0.00000  -3.14159
   D74       -0.00000  -0.00000   0.00000   0.00000   0.00000   0.00000
   D75       -0.00000   0.00000   0.00000   0.00000   0.00000   0.00000
   D76       -3.14157  -0.00000   0.00000  -0.00002  -0.00002  -3.14159
   D77        3.14159   0.00000   0.00000   0.00000   0.00000  -3.14159
   D78        0.00002  -0.00000   0.00000  -0.00002  -0.00002   0.00000
   D79        0.00001  -0.00000   0.00000  -0.00001  -0.00001   0.00000
   D80       -3.14155  -0.00000   0.00000  -0.00004  -0.00004  -3.14159
   D81        3.14157   0.00000   0.00000   0.00002   0.00002  -3.14159
   D82        0.00002  -0.00000   0.00000  -0.00002  -0.00002   0.00000
         Item               Value     Threshold  Converged?
 Maximum Force            0.000337     0.000450     YES
 RMS     Force            0.000077     0.000300     YES
 Maximum Displacement     0.001807     0.001800     NO 
 RMS     Displacement     0.000510     0.001200     YES
 Predicted change in Energy=-1.270185D-06
                           ----------------------------
                           ! Non-Optimized Parameters !
                           ! (Angstroms and Degrees)  !
 --------------------------                            --------------------------
 ! Name  Definition              Value          Derivative Info.                !
 --------------------------------------------------------------------------------
 ! R1    R(1,2)                  1.528          -DE/DX =    0.0002              !
 ! R2    R(1,5)                  1.528          -DE/DX =    0.0002              !
 ! R3    R(1,22)                 1.5442         -DE/DX =    0.0001              !
 ! R4    R(1,26)                 1.5442         -DE/DX =    0.0001              !
 ! R5    R(2,3)                  1.4065         -DE/DX =    0.0001              !
 ! R6    R(2,17)                 1.3884         -DE/DX =    0.0003              !
 ! R7    R(3,4)                  1.4682         -DE/DX =    0.0002              !
 ! R8    R(3,14)                 1.3945         -DE/DX =    0.0003              !
 ! R9    R(4,5)                  1.4065         -DE/DX =    0.0001              !
 ! R10   R(4,9)                  1.3945         -DE/DX =    0.0003              !
 ! R11   R(5,6)                  1.3884         -DE/DX =    0.0003              !
 ! R12   R(6,7)                  1.3974         -DE/DX =    0.0002              !
 ! R13   R(6,13)                 1.0852         -DE/DX =    0.0001              !
 ! R14   R(7,8)                  1.3961         -DE/DX =    0.0003              !
 ! R15   R(7,12)                 1.0843         -DE/DX =    0.0001              !
 ! R16   R(8,9)                  1.394          -DE/DX =    0.0002              !
 ! R17   R(8,11)                 1.0843         -DE/DX =    0.0001              !
 ! R18   R(9,10)                 1.0846         -DE/DX =    0.0001              !
 ! R19   R(14,15)                1.394          -DE/DX =    0.0002              !
 ! R20   R(14,21)                1.0846         -DE/DX =    0.0001              !
 ! R21   R(15,16)                1.3961         -DE/DX =    0.0003              !
 ! R22   R(15,20)                1.0843         -DE/DX =    0.0001              !
 ! R23   R(16,17)                1.3974         -DE/DX =    0.0002              !
 ! R24   R(16,19)                1.0843         -DE/DX =    0.0001              !
 ! R25   R(17,18)                1.0852         -DE/DX =    0.0001              !
 ! R26   R(22,23)                1.0921         -DE/DX =    0.0                 !
 ! R27   R(22,24)                1.0936         -DE/DX =    0.0                 !
 ! R28   R(22,25)                1.0936         -DE/DX =    0.0                 !
 ! R29   R(26,27)                1.0936         -DE/DX =    0.0                 !
 ! R30   R(26,28)                1.0936         -DE/DX =    0.0                 !
 ! R31   R(26,29)                1.0921         -DE/DX =    0.0                 !
 ! A1    A(2,1,5)              101.1655         -DE/DX =    0.0                 !
 ! A2    A(2,1,22)             111.341          -DE/DX =    0.0                 !
 ! A3    A(2,1,26)             111.341          -DE/DX =    0.0                 !
 ! A4    A(5,1,22)             111.341          -DE/DX =    0.0                 !
 ! A5    A(5,1,26)             111.341          -DE/DX =    0.0                 !
 ! A6    A(22,1,26)            110.0622         -DE/DX =    0.0                 !
 ! A7    A(1,2,3)              110.913          -DE/DX =    0.0                 !
 ! A8    A(1,2,17)             128.8345         -DE/DX =   -0.0001              !
 ! A9    A(3,2,17)             120.2524         -DE/DX =    0.0001              !
 ! A10   A(2,3,4)              108.5042         -DE/DX =    0.0                 !
 ! A11   A(2,3,14)             120.5431         -DE/DX =    0.0                 !
 ! A12   A(4,3,14)             130.9527         -DE/DX =    0.0                 !
 ! A13   A(3,4,5)              108.5042         -DE/DX =    0.0                 !
 ! A14   A(3,4,9)              130.9527         -DE/DX =    0.0                 !
 ! A15   A(5,4,9)              120.5431         -DE/DX =    0.0                 !
 ! A16   A(1,5,4)              110.913          -DE/DX =    0.0                 !
 ! A17   A(1,5,6)              128.8345         -DE/DX =    0.0                 !
 ! A18   A(4,5,6)              120.2524         -DE/DX =    0.0                 !
 ! A19   A(5,6,7)              119.192          -DE/DX =    0.0                 !
 ! A20   A(5,6,13)             120.9345         -DE/DX =    0.0                 !
 ! A21   A(7,6,13)             119.8735         -DE/DX =    0.0                 !
 ! A22   A(6,7,8)              120.5197         -DE/DX =    0.0                 !
 ! A23   A(6,7,12)             119.7679         -DE/DX =    0.0                 !
 ! A24   A(8,7,12)             119.7124         -DE/DX =    0.0                 !
 ! A25   A(7,8,9)              120.5638         -DE/DX =    0.0                 !
 ! A26   A(7,8,11)             119.6721         -DE/DX =    0.0                 !
 ! A27   A(9,8,11)             119.7641         -DE/DX =    0.0                 !
 ! A28   A(4,9,8)              118.9289         -DE/DX =    0.0                 !
 ! A29   A(4,9,10)             120.8611         -DE/DX =    0.0                 !
 ! A30   A(8,9,10)             120.21           -DE/DX =    0.0                 !
 ! A31   A(3,14,15)            118.9289         -DE/DX =    0.0                 !
 ! A32   A(3,14,21)            120.8611         -DE/DX =    0.0                 !
 ! A33   A(15,14,21)           120.21           -DE/DX =    0.0                 !
 ! A34   A(14,15,16)           120.5638         -DE/DX =    0.0                 !
 ! A35   A(14,15,20)           119.7641         -DE/DX =    0.0                 !
 ! A36   A(16,15,20)           119.6721         -DE/DX =    0.0                 !
 ! A37   A(15,16,17)           120.5197         -DE/DX =    0.0                 !
 ! A38   A(15,16,19)           119.7124         -DE/DX =    0.0                 !
 ! A39   A(17,16,19)           119.7679         -DE/DX =    0.0                 !
 ! A40   A(2,17,16)            119.192          -DE/DX =    0.0                 !
 ! A41   A(2,17,18)            120.9345         -DE/DX =    0.0                 !
 ! A42   A(16,17,18)           119.8735         -DE/DX =    0.0                 !
 ! A43   A(1,22,23)            111.0153         -DE/DX =   -0.0001              !
 ! A44   A(1,22,24)            110.6628         -DE/DX =    0.0                 !
 ! A45   A(1,22,25)            110.6628         -DE/DX =    0.0                 !
 ! A46   A(23,22,24)           108.2436         -DE/DX =    0.0                 !
 ! A47   A(23,22,25)           108.2436         -DE/DX =    0.0                 !
 ! A48   A(24,22,25)           107.9042         -DE/DX =    0.0                 !
 ! A49   A(1,26,27)            110.6628         -DE/DX =    0.0                 !
 ! A50   A(1,26,28)            110.6628         -DE/DX =    0.0                 !
 ! A51   A(1,26,29)            111.0153         -DE/DX =   -0.0001              !
 ! A52   A(27,26,28)           107.9042         -DE/DX =    0.0                 !
 ! A53   A(27,26,29)           108.2436         -DE/DX =    0.0                 !
 ! A54   A(28,26,29)           108.2436         -DE/DX =    0.0                 !
 ! D1    D(5,1,2,3)              0.0            -DE/DX =    0.0                 !
 ! D2    D(5,1,2,17)          -180.0            -DE/DX =    0.0                 !
 ! D3    D(22,1,2,3)          -118.383          -DE/DX =    0.0                 !
 ! D4    D(22,1,2,17)           61.617          -DE/DX =    0.0                 !
 ! D5    D(26,1,2,3)           118.383          -DE/DX =    0.0                 !
 ! D6    D(26,1,2,17)          -61.6169         -DE/DX =    0.0                 !
 ! D7    D(2,1,5,4)              0.0            -DE/DX =    0.0                 !
 ! D8    D(2,1,5,6)           -180.0            -DE/DX =    0.0                 !
 ! D9    D(22,1,5,4)           118.383          -DE/DX =    0.0                 !
 ! D10   D(22,1,5,6)           -61.617          -DE/DX =    0.0                 !
 ! D11   D(26,1,5,4)          -118.383          -DE/DX =    0.0                 !
 ! D12   D(26,1,5,6)            61.617          -DE/DX =    0.0                 !
 ! D13   D(2,1,22,23)           56.0387         -DE/DX =    0.0                 !
 ! D14   D(2,1,22,24)          176.2573         -DE/DX =    0.0                 !
 ! D15   D(2,1,22,25)          -64.18           -DE/DX =    0.0                 !
 ! D16   D(5,1,22,23)          -56.0386         -DE/DX =    0.0                 !
 ! D17   D(5,1,22,24)           64.1801         -DE/DX =    0.0                 !
 ! D18   D(5,1,22,25)         -176.2573         -DE/DX =    0.0                 !
 ! D19   D(26,1,22,23)        -180.0            -DE/DX =    0.0                 !
 ! D20   D(26,1,22,24)         -59.7813         -DE/DX =    0.0                 !
 ! D21   D(26,1,22,25)          59.7813         -DE/DX =    0.0                 !
 ! D22   D(2,1,26,27)           64.18           -DE/DX =    0.0                 !
 ! D23   D(2,1,26,28)         -176.2574         -DE/DX =    0.0                 !
 ! D24   D(2,1,26,29)          -56.0387         -DE/DX =    0.0                 !
 ! D25   D(5,1,26,27)          176.2573         -DE/DX =    0.0                 !
 ! D26   D(5,1,26,28)          -64.1801         -DE/DX =    0.0                 !
 ! D27   D(5,1,26,29)           56.0386         -DE/DX =    0.0                 !
 ! D28   D(22,1,26,27)         -59.7813         -DE/DX =    0.0                 !
 ! D29   D(22,1,26,28)          59.7813         -DE/DX =    0.0                 !
 ! D30   D(22,1,26,29)         180.0            -DE/DX =    0.0                 !
 ! D31   D(1,2,3,4)              0.0            -DE/DX =    0.0                 !
 ! D32   D(1,2,3,14)          -180.0            -DE/DX =    0.0                 !
 ! D33   D(17,2,3,4)           180.0            -DE/DX =    0.0                 !
 ! D34   D(17,2,3,14)            0.0            -DE/DX =    0.0                 !
 ! D35   D(1,2,17,16)          180.0            -DE/DX =    0.0                 !
 ! D36   D(1,2,17,18)            0.0            -DE/DX =    0.0                 !
 ! D37   D(3,2,17,16)            0.0            -DE/DX =    0.0                 !
 ! D38   D(3,2,17,18)          180.0            -DE/DX =    0.0                 !
 ! D39   D(2,3,4,5)              0.0            -DE/DX =    0.0                 !
 ! D40   D(2,3,4,9)           -180.0            -DE/DX =    0.0                 !
 ! D41   D(14,3,4,5)           180.0            -DE/DX =    0.0                 !
 ! D42   D(14,3,4,9)             0.0            -DE/DX =    0.0                 !
 ! D43   D(2,3,14,15)            0.0            -DE/DX =    0.0                 !
 ! D44   D(2,3,14,21)          180.0            -DE/DX =    0.0                 !
 ! D45   D(4,3,14,15)         -180.0            -DE/DX =    0.0                 !
 ! D46   D(4,3,14,21)            0.0            -DE/DX =    0.0                 !
 ! D47   D(3,4,5,1)              0.0            -DE/DX =    0.0                 !
 ! D48   D(3,4,5,6)            180.0            -DE/DX =    0.0                 !
 ! D49   D(9,4,5,1)            180.0            -DE/DX =    0.0                 !
 ! D50   D(9,4,5,6)              0.0            -DE/DX =    0.0                 !
 ! D51   D(3,4,9,8)            180.0            -DE/DX =    0.0                 !
 ! D52   D(3,4,9,10)             0.0            -DE/DX =    0.0                 !
 ! D53   D(5,4,9,8)              0.0            -DE/DX =    0.0                 !
 ! D54   D(5,4,9,10)          -180.0            -DE/DX =    0.0                 !
 ! D55   D(1,5,6,7)           -180.0            -DE/DX =    0.0                 !
 ! D56   D(1,5,6,13)             0.0            -DE/DX =    0.0                 !
 ! D57   D(4,5,6,7)              0.0            -DE/DX =    0.0                 !
 ! D58   D(4,5,6,13)          -180.0            -DE/DX =    0.0                 !
 ! D59   D(5,6,7,8)              0.0            -DE/DX =    0.0                 !
 ! D60   D(5,6,7,12)          -180.0            -DE/DX =    0.0                 !
 ! D61   D(13,6,7,8)           180.0            -DE/DX =    0.0                 !
 ! D62   D(13,6,7,12)            0.0            -DE/DX =    0.0                 !
 ! D63   D(6,7,8,9)              0.0            -DE/DX =    0.0                 !
 ! D64   D(6,7,8,11)           180.0            -DE/DX =    0.0                 !
 ! D65   D(12,7,8,9)           180.0            -DE/DX =    0.0                 !
 ! D66   D(12,7,8,11)            0.0            -DE/DX =    0.0                 !
 ! D67   D(7,8,9,4)              0.0            -DE/DX =    0.0                 !
 ! D68   D(7,8,9,10)           180.0            -DE/DX =    0.0                 !
 ! D69   D(11,8,9,4)          -180.0            -DE/DX =    0.0                 !
 ! D70   D(11,8,9,10)            0.0            -DE/DX =    0.0                 !
 ! D71   D(3,14,15,16)           0.0            -DE/DX =    0.0                 !
 ! D72   D(3,14,15,20)         180.0            -DE/DX =    0.0                 !
 ! D73   D(21,14,15,16)       -180.0            -DE/DX =    0.0                 !
 ! D74   D(21,14,15,20)          0.0            -DE/DX =    0.0                 !
 ! D75   D(14,15,16,17)          0.0            -DE/DX =    0.0                 !
 ! D76   D(14,15,16,19)       -180.0            -DE/DX =    0.0                 !
 ! D77   D(20,15,16,17)       -180.0            -DE/DX =    0.0                 !
 ! D78   D(20,15,16,19)          0.0            -DE/DX =    0.0                 !
 ! D79   D(15,16,17,2)           0.0            -DE/DX =    0.0                 !
 ! D80   D(15,16,17,18)       -180.0            -DE/DX =    0.0                 !
 ! D81   D(19,16,17,2)        -180.0            -DE/DX =    0.0                 !
 ! D82   D(19,16,17,18)          0.0            -DE/DX =    0.0                 !
 --------------------------------------------------------------------------------
 GradGradGradGradGradGradGradGradGradGradGradGradGradGradGradGradGradGrad

 Leave Link  103 at Wed Mar 11 11:58:07 2026, MaxMem=   104857600 cpu:               0.0 elap:               0.0
 (Enter /sw/cluster/pub/apps//g16/l9999.exe)

 ----------------------------------------------------------------------

 Electric dipole moment (input orientation):
 (Debye = 10**-18 statcoulomb cm , SI units = C m)
                  (au)            (Debye)         (10**-30 SI)
   Tot        0.173043D+00      0.439832D+00      0.146712D+01
   x         -0.114009D+00     -0.289781D+00     -0.966605D+00
   y         -0.130169D+00     -0.330855D+00     -0.110361D+01
   z          0.148775D-02      0.378147D-02      0.126136D-01

 Dipole polarizability, Alpha (input orientation).
 (esu units = cm**3 , SI units = C**2 m**2 J**-1)
 Alpha(0;0):
               (au)            (10**-24 esu)      (10**-40 SI)
   iso        0.162230D+03      0.240400D+02      0.267481D+02
   aniso      0.125536D+03      0.186025D+02      0.206980D+02
   xx         0.204742D+03      0.303396D+02      0.337574D+02
   yx        -0.252668D+02     -0.374415D+01     -0.416593D+01
   yy         0.198005D+03      0.293412D+02      0.326465D+02
   zx         0.134236D+01      0.198917D+00      0.221325D+00
   zy        -0.222144D+01     -0.329184D+00     -0.366266D+00
   zz         0.839436D+02      0.124392D+02      0.138404D+02

 ----------------------------------------------------------------------

 Dipole orientation:
     6          0.05604244          0.05094240         -0.01988367
     6          1.75966316         -1.38968878         -1.85175257
     6          1.11627374         -0.84543842         -4.37241265
     6         -1.00161066          0.94574781         -4.37330121
     6         -1.64631664          1.49081295         -1.85316801
     6         -3.60735504          3.14934121         -1.32020046
     6         -4.92787463          4.26628581         -3.31525919
     6         -4.28691598          3.72426991         -5.81560411
     6         -2.31970439          2.06060061         -6.36352773
     1         -1.83078883          1.64719553         -8.31045484
     1         -5.32882522          4.60558290         -7.34393623
     1         -6.46265314          5.56435653         -2.91867284
     1         -4.12221650          3.58470982          0.61637560
     6          2.43510563         -1.96079228         -6.36186959
     6          4.40206856         -3.62432856         -5.81267989
     6          5.04186850         -4.16550195         -3.31187124
     6          3.72052436         -3.04805511         -1.31763611
     1          4.23485290         -3.48299839          0.61917988
     1          6.57654118         -5.46338041         -2.91421426
     1          5.44477311         -4.50613112         -7.34018506
     1          1.94672546         -1.54768660         -8.30898093
     6          1.59916027          1.87621005          1.65370852
     1          2.70439677          3.18358449          0.50109311
     1          0.34841303          2.98478985          2.86948071
     1          2.90032848          0.82715695          2.86935590
     6         -1.48810017         -1.77429457          1.65287342
     1         -0.23782838         -2.88370419          2.86835202
     1         -2.78915132         -0.72534768          2.86876429
     1         -2.59364504         -3.08085933          0.49962449

 Electric dipole moment (dipole orientation):
 (Debye = 10**-18 statcoulomb cm , SI units = C m)
                  (au)            (Debye)         (10**-30 SI)
   Tot        0.173043D+00      0.439832D+00      0.146712D+01
   x          0.000000D+00      0.000000D+00      0.000000D+00
   y          0.000000D+00      0.000000D+00      0.000000D+00
   z          0.173043D+00      0.439832D+00      0.146712D+01

 Dipole polarizability, Alpha (dipole orientation).
 (esu units = cm**3 , SI units = C**2 m**2 J**-1)
 Alpha(0;0):
               (au)            (10**-24 esu)      (10**-40 SI)
   iso        0.162230D+03      0.240400D+02      0.267481D+02
   aniso      0.125536D+03      0.186025D+02      0.206980D+02
   xx         0.167270D+03      0.247868D+02      0.275791D+02
   yx        -0.705141D+02     -0.104491D+02     -0.116262D+02
   yy         0.143531D+03      0.212690D+02      0.236650D+02
   zx         0.628304D-02      0.931050D-03      0.103593D-02
   zy        -0.106600D-01     -0.157964D-02     -0.175759D-02
   zz         0.175890D+03      0.260642D+02      0.290003D+02

 ----------------------------------------------------------------------
 1\1\GINC-N07\Freq\RB3LYP\6-311G(d,p)\C15H14\UNKNOWN\11-Mar-2026\0\\#P 
 Geom=AllCheck Guess=TCheck SCRF=Check GenChk RB3LYP/6-311G(d,p) Freq\\
 OPT FREQ F1 6-31G(d,p)\\0,1\C,0.0105790059,0.0051761046,0.0397267619\C
 ,1.5373794413,-0.0432605041,0.0518894441\C,2.0807379137,1.2538458162,0
 .0327527851\C,0.9768937199,2.220987033,0.0073637638\C,-0.2378051067,1.
 5120706152,0.0110261179\C,-1.4460027034,2.1951036181,-0.0100567072\C,-
 1.4389170089,3.5920924787,-0.0349117815\C,-0.2330397189,4.2948146368,-
 0.0385768074\C,0.983569844,3.6149356747,-0.0174562281\H,1.9172277815,4
 .1667732882,-0.0204172743\H,-0.2434235006,5.3788349746,-0.0579685517\H
 ,-2.3773490699,4.1348429019,-0.0514864925\H,-2.3895838192,1.6592349878
 ,-0.0074457964\C,3.4619122783,1.4437544074,0.0395246407\C,4.2959089636
 ,0.3272505523,0.0656029191\C,3.7575895175,-0.9603055198,0.0846226337\C
 ,2.3734477518,-1.1509766981,0.077829771\H,1.9663179301,-2.156725557,0.
 0928248294\H,4.4190305283,-1.819142815,0.104850482\H,5.3720629037,0.45
 93260862,0.0711741776\H,3.8861315533,2.4417814658,0.0248367767\C,-0.58
 23822085,-0.6382706371,1.31191355\H,-0.18732554,-0.1631512855,2.212422
 7032\H,-1.6715307191,-0.5394811497,1.3226626127\H,-0.3412165344,-1.704
 2018451,1.3535009466\C,-0.5634654023,-0.683162092,-1.2175804858\H,-0.3
 218884512,-1.749812203,-1.2177643658\H,-1.6523124148,-0.5851919142,-1.
 2481067753\H,-0.154896935,-0.2401334208,-2.1283656491\\Version=ES64L-G
 16RevA.03\State=1-A\HF=-580.188568\RMSD=2.978e-09\RMSF=8.678e-05\ZeroP
 oint=0.242885\Thermal=0.2548329\Dipole=-0.1140086,-0.1301685,0.0014877
 \DipoleDeriv=0.0921565,-0.0499981,0.0001303,-0.049949,0.0789313,0.0016
 067,0.0000875,0.0015626,0.1912899,0.1472064,0.0803321,0.000634,0.16345
 74,-0.2468279,0.0033593,-0.0008425,0.0027538,-0.1268452,0.0914471,-0.0
 752065,0.0020236,-0.2631307,0.0704308,-0.0032246,0.0053782,-0.0018391,
 -0.0012336,0.1149456,-0.2601076,0.0054925,-0.0720809,0.0470155,-0.0013
 941,0.0021307,-0.0027673,-0.0012377,-0.2718443,0.107905,-0.0029876,0.0
 248196,0.1720971,-0.0051075,-0.0015047,-0.0045057,-0.1267132,0.177589,
 0.0188973,0.0018564,0.0162277,-0.0400659,-0.0013168,0.0019097,-0.00129
 21,-0.1199325,0.0532571,-0.0446238,0.0022011,0.0829588,-0.0998564,-0.0
 000639,-0.0000752,-0.001013,-0.138169,-0.1648988,0.0762818,-0.0015592,
 -0.0417183,0.1346629,-0.0051774,0.0005511,-0.0042717,-0.138055,0.05867
 4,0.0960168,-0.0004745,0.0534338,-0.0174059,-0.001234,0.0002765,-0.000
 9363,-0.1085984,-0.0592916,-0.0962691,0.000376,-0.0599463,0.0314837,0.
 0011788,-0.0002697,0.0009202,0.1223664,0.0641941,0.0065589,-0.0005998,
 0.0210824,-0.138655,0.0049418,-0.0008568,0.0048144,0.129652,-0.0767972
 ,0.0954232,-0.0032247,0.0868655,0.0062804,0.0028504,-0.0030742,0.00291
 65,0.1302423,-0.0606429,-0.0621944,-0.0001968,-0.1057016,0.0278225,0.0
 008093,0.0005783,0.0011305,0.1169099,-0.0356251,0.0409444,-0.0001951,0
 .0834495,0.0767761,-0.0026931,-0.0009393,-0.0030069,-0.1085621,0.12511
 11,-0.0033216,0.0019954,0.1146809,-0.1551694,0.0011461,-0.0001232,0.00
 02856,-0.1381197,-0.1022098,0.062315,-0.0008382,-0.065191,0.0555172,-0
 .0039392,0.0014473,-0.0030107,-0.138137,-0.0409216,-0.0127075,0.000791
 7,-0.0101375,0.1783681,-0.0054058,0.0007447,-0.0054388,-0.1198546,0.04
 81528,-0.0912426,0.0011231,-0.0477696,-0.0809761,0.0031854,0.0003484,0
 .0028703,0.1168762,-0.0189556,0.0945346,-0.0027905,0.1030968,-0.051573
 5,0.0040098,-0.0029483,0.0039535,0.1302221,-0.1388189,-0.0058233,-0.00
 18751,-0.0203132,0.0643205,0.0010188,-0.0016135,0.0011252,0.129713,0.0
 502929,-0.0453752,0.0002784,-0.0817394,-0.0780203,0.0029746,0.0009274,
 0.003239,0.1223335,0.0411216,0.0218737,0.0072729,0.0206071,0.0458106,0
 .0087521,-0.039721,-0.0448382,0.0393963,0.0409395,-0.0275971,-0.067448
 ,-0.0267681,0.0308195,-0.0810224,-0.0366694,-0.0458533,-0.0865589,-0.1
 732937,-0.0180272,0.0314379,0.0258728,0.0711778,0.0110664,0.0011853,0.
 0148053,0.0432546,0.0653381,0.05771,0.0060655,0.0132292,-0.1670085,0.0
 378148,0.0147993,0.0094632,0.042877,0.0406555,0.0209341,-0.0079943,0.0
 221358,0.0470857,-0.0086901,0.0390335,0.0449312,0.0385456,0.0656542,0.
 0575543,-0.0077844,0.0132167,-0.1684151,-0.0301258,-0.0149422,-0.00112
 15,0.0439472,-0.1727754,-0.0189819,-0.0340147,0.0259002,0.0702232,-0.0
 116559,-0.0053529,-0.0160545,0.0436705,0.0393393,-0.0258055,0.0703039,
 -0.0265885,0.035151,0.0763364,0.039535,0.0411781,-0.0892795\Polar=204.
 7418912,-25.2667697,198.0045391,1.3423607,-2.2214414,83.9436105\Quadru
 pole=3.20314,3.3099147,-6.5130547,0.4154928,0.0641667,-0.1723261\PG=C0
 1 [X(C15H14)]\NImag=0\\0.47457089,0.02838816,0.48226498,-0.00016770,-0
 .00081928,0.42577487,-0.16217584,0.01476775,-0.00094182,0.61032764,-0.
 00589780,-0.08768849,0.00027248,-0.06772450,0.69771488,-0.00057479,0.0
 0042474,-0.07015008,0.00439533,-0.00975495,0.17939390,-0.02212921,-0.0
 2323446,0.00022267,-0.14450815,-0.03447095,0.00009562,0.74472743,-0.01
 672697,-0.00393508,0.00001832,-0.09349775,-0.25240649,0.00249149,0.019
 15808,0.59596206,0.00010407,-0.00002764,0.00413585,0.00115026,0.002924
 99,-0.07419388,0.00401225,-0.00774977,0.15386481,0.00095229,-0.0136704
 3,0.00021768,0.00901298,0.01731979,-0.00029778,-0.16864116,0.06792629,
 -0.00200280,0.59367510,-0.02018197,-0.02701001,0.00040744,0.01855517,-
 0.05381407,0.00123086,0.05325454,-0.15256096,0.00202158,-0.00088207,0.
 74697447,0.00033647,0.00045430,0.00412887,-0.00032035,0.00122288,0.007
 53135,-0.00174233,0.00213032,-0.06127883,0.00326462,-0.01058810,0.1539
 0652,-0.09013797,0.00366440,-0.00021113,-0.02491626,0.03522630,-0.0008
 2701,-0.05742337,0.00851863,-0.00063198,-0.23394956,-0.04631612,-0.000
 35635,0.71404291,0.02432568,-0.15986182,0.00178302,0.02292529,-0.01720
 413,0.00051457,0.00975328,0.01259969,-0.00001781,-0.10534620,-0.163006
 13,0.00080628,-0.05398638,0.59421116,-0.00057940,0.00162759,-0.0701693
 6,-0.00061096,0.00060885,0.00220943,-0.00065387,-0.00002683,0.00755206
 ,0.00069756,0.00124159,-0.07416713,0.00490805,-0.00779323,0.17936868,0
 .00544719,0.00810255,-0.00010122,0.00088094,-0.00360502,0.00007005,-0.
 00081832,-0.00438453,0.00003857,-0.05634783,-0.01960095,-0.00012613,-0
 .29125109,0.11307076,-0.00370452,0.71832845,0.02321980,-0.01257205,0.0
 0038952,-0.00094013,-0.00466466,0.00007740,-0.00661749,-0.00011983,0.0
 0003422,0.02441483,0.05937326,-0.00073254,0.05851846,-0.17272823,0.002
 40243,0.03250715,0.66535134,-0.00037169,0.00027922,-0.00026255,0.00002
 263,0.00005744,0.00005218,0.00007818,0.00005096,0.00454749,-0.00091196
 ,-0.00105720,0.00822214,-0.00273028,0.00280461,-0.06228155,0.00373357,
 -0.00925991,0.13281249,-0.00429846,0.00183215,-0.00011139,-0.00098173,
 -0.00019749,-0.00000604,-0.00171804,0.00184812,-0.00003929,-0.01632701
 ,-0.03236344,0.00050787,0.03204970,0.03185392,-0.00038123,-0.12604499,
 0.03021601,-0.00102376,0.71051047,0.00331094,0.00545275,0.00004273,0.0
 0076086,-0.00269527,0.00005849,0.00047599,-0.00028422,-0.00000684,-0.0
 2992360,-0.05015395,0.00055030,0.07898865,-0.03045486,0.00124512,-0.03
 595254,-0.32343245,0.00442795,-0.03535198,0.66675616,-0.00013797,0.000
 03051,0.00641553,-0.00002294,0.00005163,0.00028891,-0.00001476,0.00000
 334,-0.00085841,0.00046450,0.00053265,-0.00693605,-0.00122275,0.000897
 58,0.00669790,0.00015694,0.00491545,-0.06027381,0.00489247,-0.00981231
 ,0.13122731,-0.00265950,-0.00301274,0.00003958,0.00058204,0.00456598,-
 0.00007679,0.00439493,-0.00711090,0.00011142,0.03070478,0.07935172,-0.
 00123841,-0.06702059,0.00145997,-0.00047585,0.03374264,-0.07605239,0.0
 0155110,-0.27330904,-0.05248092,-0.00061624,0.65045356,-0.00060878,0.0
 0005346,-0.00002119,0.00037979,-0.00122745,0.00002468,-0.00368731,-0.0
 0306020,0.00014388,0.03217838,-0.02988352,0.00089023,-0.00205430,0.000
 49335,-0.00013112,-0.02745104,-0.02924739,0.00045136,-0.11906590,-0.17
 763276,0.00118401,-0.00217821,0.73286628,-0.00000234,-0.00003856,-0.00
 086298,-0.00000244,0.00005565,0.00000501,0.00005008,0.00011837,0.00651
 941,-0.00039654,0.00123765,0.00665545,-0.00041309,-0.00010562,-0.00602
 375,0.00068350,0.00009218,0.00736723,0.00057043,0.00167443,-0.06215643
 ,0.00386389,-0.01073846,0.13184157,-0.00347944,-0.00072880,-0.00005854
 ,-0.00543466,0.00014067,-0.00005876,0.00706478,0.02792548,-0.00045764,
 -0.12701627,-0.03565007,0.00016333,0.03240037,-0.02878177,0.00070626,-
 0.01694979,0.02991475,-0.00062021,-0.05961573,-0.02451742,-0.00005882,
 -0.28270539,0.11890854,-0.00376904,0.71351371,-0.00286314,-0.00162494,
 0.00012002,0.00198774,0.00671920,-0.00006597,0.01005079,-0.02315138,0.
 00051489,0.01488983,-0.32373994,0.00476156,-0.06816737,-0.02428616,0.0
 0004175,0.02667769,-0.04789558,0.00095830,0.02492937,0.06217757,-0.000
 78939,0.05446133,-0.17491587,0.00245847,0.03610752,0.67248995,-0.00002
 144,0.00013614,0.00631156,-0.00009146,-0.00007992,0.00217324,-0.000138
 41,0.00064629,0.00152922,-0.00073836,0.00438947,-0.06305986,0.00140912
 ,0.00033173,0.00623721,-0.00056296,0.00098280,-0.00521145,-0.00094002,
 -0.00115443,0.00762889,-0.00262007,0.00293459,-0.05973793,0.00365708,-
 0.00940103,0.13089542,-0.00004621,0.00029596,-0.00000610,0.00010204,-0
 .00030467,0.00000603,-0.00056858,0.00036381,0.00001417,0.00359114,0.00
 008856,0.00000414,0.00174215,0.00076596,-0.00005317,0.00021140,0.00059
 077,-0.00000358,-0.00277122,0.00419815,-0.00014960,-0.01865031,-0.0167
 1400,0.00013995,-0.26092573,-0.11912182,0.00046155,0.27702507,-0.00148
 020,-0.00016167,-0.00000682,-0.00025777,-0.00016451,0.00000139,-0.0001
 7297,0.00165718,-0.00009096,-0.02930827,-0.01000344,0.00001252,0.00174
 983,-0.00512727,0.00023110,0.00076588,-0.00081406,0.00000711,0.0031222
 9,-0.00073095,0.00016728,0.01453017,0.01159938,-0.00004956,-0.12063986
 ,-0.13092181,0.00081539,0.13035595,0.13442599,0.00002563,0.00000618,0.
 00006468,0.00000513,0.00000111,0.00002020,0.00002367,-0.00008687,-0.00
 336534,0.00052850,0.00022921,0.00282222,-0.00007054,0.00022374,0.00709
 259,-0.00000671,0.00000594,-0.00073252,-0.00013043,0.00017530,0.007348
 00,-0.00041802,-0.00028037,0.00281487,0.00048933,0.00082681,-0.0353808
 9,-0.00045994,-0.00100795,0.02407388,0.00002905,-0.00000664,0.00000606
 ,-0.00036997,0.00024470,-0.00000511,0.00075707,0.00090089,-0.00001427,
 -0.00476048,0.00242188,-0.00013330,-0.00129311,0.00011013,-0.00000533,
 -0.00435044,-0.00226145,-0.00004167,0.00454826,-0.02837093,0.00052076,
 -0.05895668,0.00250340,-0.00021826,0.00391197,0.02849731,-0.00049785,0
 .00101854,-0.00052604,0.00004660,0.05841639,0.00004830,0.00001563,-0.0
 0001377,0.00026856,-0.00020614,0.00000088,-0.00062617,-0.00027437,0.00
 000932,0.00312843,0.00074937,0.00014239,-0.00009431,0.00073172,-0.0000
 2861,-0.00310632,0.00060295,0.00008741,0.00309232,-0.01183435,0.000278
 12,0.00252747,-0.33405256,0.00534109,-0.00253931,-0.01135646,0.0002289
 0,0.00029464,0.00080964,-0.00008399,-0.00285710,0.35489145,0.00000509,
 -0.00001416,-0.00077734,-0.00000560,0.00000063,-0.00026810,0.00001298,
 0.00002068,0.00050545,-0.00014618,0.00013705,0.00744069,-0.00000146,-0
 .00002716,-0.00083257,-0.00002645,0.00009381,0.00678710,-0.00004011,0.
 00004685,0.00249715,-0.00021817,0.00533911,-0.03549367,0.00005490,0.00
 045900,0.00253531,0.00003197,-0.00009018,-0.00402450,0.00029570,-0.005
 89623,0.02532642,0.00011882,-0.00030852,0.00000258,-0.00000044,0.00007
 300,-0.00000134,0.00009677,0.00001132,0.00000571,0.00022361,-0.0009523
 1,0.00002506,0.00174236,-0.00049817,-0.00002935,0.00347687,-0.00238141
 ,0.00004834,-0.26533260,0.11924385,-0.00382069,-0.01866752,0.01623349,
 -0.00044577,-0.00290519,-0.00395174,-0.00000042,-0.00103601,0.00075497
 ,-0.00002286,0.00091763,-0.00032442,0.00004109,0.28067363,0.00130144,0
 .00044514,0.00001106,-0.00008773,-0.00058498,0.00000986,0.00006655,0.0
 0011034,-0.00001410,-0.00079440,-0.00084441,-0.00000636,-0.00123053,-0
 .00591975,0.00022036,0.02860063,-0.01085858,0.00045166,0.11930299,-0.1
 2781651,0.00253582,-0.01520029,0.01138455,-0.00026910,-0.00310666,-0.0
 0083987,0.00011244,-0.00079879,0.00035442,-0.00000814,0.00052519,0.000
 81003,-0.00007990,-0.12853736,0.13269326,-0.00002625,-0.00000085,0.000
 52236,0.00000158,0.00001110,0.00000520,0.00000483,-0.00001459,-0.00070
 801,0.00002221,-0.00000731,-0.00087310,-0.00001660,0.00022578,0.006945
 76,-0.00050395,0.00022368,0.00266427,-0.00382170,0.00253536,-0.0348602
 3,0.00011474,-0.00003800,0.00256848,-0.00001564,0.00010622,0.00674686,
 0.00000492,0.00000335,0.00023143,0.00002604,-0.00008613,-0.00388747,0.
 00417329,-0.00286986,0.02481575,0.00072065,-0.00127678,0.00005423,-0.0
 0026017,0.00012487,-0.00000273,-0.00087095,-0.00120970,0.00001417,-0.0
 0228748,0.00388929,-0.00014278,-0.01985516,-0.01608707,0.00011556,-0.2
 6481040,-0.11654006,0.00039750,0.00303655,0.00198675,-0.00003395,0.001
 95173,0.00037971,-0.00004522,0.00003942,0.00091251,-0.00001125,-0.0000
 4948,-0.00014071,0.00001200,-0.00001221,0.00015914,-0.00000464,0.00076
 519,-0.00036708,0.00004095,0.28126773,-0.00042308,-0.00007193,-0.00006
 500,0.00008352,0.00032271,-0.00000857,0.00061845,0.00048112,-0.0000017
 2,0.00316534,-0.00095434,0.00017761,0.01262676,0.01279194,-0.00007448,
 -0.11484956,-0.12473114,0.00072849,-0.02931872,-0.01041956,0.00002058,
 0.00149535,-0.00544086,0.00023591,0.00074375,-0.00065363,0.00000569,-0
 .00008560,0.00007760,-0.00002591,-0.00138729,-0.00068636,0.00000622,0.
 00045514,0.00107367,-0.00008550,0.12666630,0.12901378,0.00003892,-0.00
 007123,-0.00353874,-0.00000194,-0.00000824,-0.00019558,-0.00001843,-0.
 00001523,0.00012715,-0.00013000,0.00018313,0.00769226,-0.00039664,-0.0
 0028578,0.00340125,0.00036776,0.00071588,-0.03647157,0.00052437,0.0002
 5134,0.00283225,-0.00006538,0.00022770,0.00717144,-0.00000806,0.000006
 76,-0.00064215,0.00001106,-0.00002633,-0.00133925,0.00002293,0.0000175
 6,0.00023275,0.00002623,-0.00009155,-0.00390764,-0.00037175,-0.0009242
 4,0.02491894,-0.00119074,-0.00255896,-0.00001012,-0.01067593,-0.073871
 07,0.00119459,-0.31770269,-0.01039937,-0.00168877,-0.02759314,0.005458
 86,-0.00031182,0.00623327,0.00353473,-0.00003257,-0.00218572,0.0018532
 2,-0.00005138,0.00046212,-0.00148029,0.00003024,-0.00081633,-0.0001876
 6,-0.00000180,0.00173668,-0.00445757,0.00008959,0.00036216,-0.00031193
 ,0.00001006,0.00005510,-0.00000987,0.00000065,-0.00006170,-0.00000237,
 -0.00000081,-0.00011121,0.00011050,-0.00000143,0.66391039,-0.00042503,
 -0.00391166,0.00018016,-0.03448414,0.01878560,-0.00047831,-0.06095216,
 -0.13310566,0.00080281,0.02333880,0.01148678,-0.00000580,0.00168879,-0
 .00494545,0.00013934,0.00158416,0.00053473,0.00000763,0.00039112,0.000
 74209,-0.00001143,-0.00091842,-0.00011228,-0.00000689,0.00115074,0.001
 29755,-0.00000803,-0.00010829,-0.00071195,0.00000753,0.00007109,-0.000
 09299,0.00000201,0.00000117,-0.00001766,0.00000121,0.00050505,-0.00026
 095,0.00000512,0.02950621,0.72210595,-0.00004798,0.00016335,0.00631102
 ,0.00049081,-0.00076854,0.00624948,-0.00078571,0.00117558,-0.06300968,
 -0.00063150,-0.00013710,0.00154272,-0.00000015,0.00015322,0.00216979,-
 0.00004670,0.00000951,0.00030455,-0.00000310,-0.00002526,-0.00005969,0
 .00001129,-0.00000156,-0.00012253,-0.00001043,-0.00004939,0.00037249,0
 .00000640,0.00000608,-0.00024196,-0.00000080,0.00000143,-0.00000892,-0
 .00000084,0.00000118,0.00004947,-0.00000851,0.00000223,-0.00018226,0.0
 0339901,-0.01033941,0.13091083,0.00047843,-0.00019259,0.00001314,-0.00
 058824,0.00674883,-0.00008004,-0.04338103,0.02236108,-0.00076797,-0.00
 152946,-0.00447179,0.00002062,-0.00184114,0.00005878,-0.00001476,-0.00
 014691,-0.00056123,0.00001091,0.00020514,-0.00003977,0.00000158,0.0002
 0201,0.00049499,-0.00000683,0.00001967,-0.00007691,0.00000239,0.000081
 28,0.00044301,-0.00000666,-0.00003424,0.00001144,-0.00000018,0.0000243
 2,0.00004005,-0.00000002,-0.00007977,0.00006080,-0.00000165,-0.1994166
 4,0.12995161,-0.00334950,0.73221511,-0.00259638,-0.00308280,0.00001963
 ,0.01026383,-0.06591071,0.00114475,0.06953527,0.04417891,-0.00015737,-
 0.00789528,0.00286094,0.00000747,0.00424515,0.00119485,0.00001049,-0.0
 0168004,0.00154585,-0.00004491,0.00002683,-0.00173302,0.00003272,0.000
 96944,0.00039596,-0.00000128,-0.00080776,-0.00094798,0.00000880,-0.000
 00961,0.00011713,-0.00000362,-0.00001311,-0.00001248,-0.00000054,-0.00
 001053,-0.00000473,-0.00000122,-0.00001636,0.00007433,-0.00000149,0.06
 551431,-0.25819780,0.00402667,0.00863872,0.65114917,0.00005633,0.00003
 821,-0.00086373,-0.00014343,0.00111910,-0.00604345,-0.00160969,-0.0005
 0515,0.00667906,0.00008158,0.00003245,0.00652066,-0.00008933,-0.000020
 79,0.00000591,0.00003099,-0.00003664,-0.00027695,0.00000035,0.00003228
 ,0.00008892,-0.00001533,-0.00000474,-0.00007244,0.00001546,0.00001411,
 -0.00012278,0.00000139,-0.00000036,-0.00008641,0.00000026,-0.00000035,
 -0.00003717,0.00000087,-0.00000083,-0.00006797,-0.00000026,-0.00000095
 ,-0.00000374,-0.00219959,0.00450179,-0.05976118,0.00427078,-0.00921174
 ,0.13181721,0.00461419,0.00449002,-0.00009241,-0.04382671,0.06893033,-
 0.00160302,-0.04147243,-0.03325429,0.00033958,-0.00061174,0.00062249,-
 0.00000952,-0.00274046,0.00052791,-0.00003217,0.00111679,-0.00078516,0
 .00002274,0.00019979,0.00148986,-0.00002523,-0.00169857,-0.00029202,-0
 .00000792,0.00087965,-0.00142500,0.00003233,0.00008185,0.00004216,0.00
 000007,-0.00002490,0.00005498,-0.00000112,-0.00000898,0.00002946,-0.00
 000061,-0.00011986,-0.00003750,-0.00000028,0.06003872,-0.00865304,0.00
 054088,-0.15697883,-0.03707631,-0.00003765,0.67688026,0.00301140,-0.00
 345632,0.00019876,0.02179529,0.04539843,-0.00052939,-0.03569373,-0.025
 02626,0.00006031,0.00199347,-0.00139002,0.00002420,-0.00043074,-0.0009
 3749,0.00001855,0.00032466,-0.00119659,0.00002244,0.00040304,0.0004504
 5,-0.00000480,-0.00022539,0.00016999,-0.00000308,0.00044652,0.00032490
 ,-0.00000361,0.00001471,0.00009220,-0.00000223,-0.00000370,-0.00002243
 ,0.00000031,0.00002858,-0.00003649,0.00000092,0.00004898,0.00000677,0.
 00000037,0.04079101,-0.05744341,0.00146192,-0.10366372,-0.29394370,0.0
 0337485,-0.03977469,0.70038834,-0.00006746,0.00020935,0.00641310,-0.00
 076164,-0.00018278,0.00672005,0.00038261,0.00007795,-0.00692902,-0.000
 03378,0.00001410,-0.00085901,-0.00001477,0.00002579,0.00028930,0.00000
 294,0.00001437,-0.00006954,-0.00000582,0.00000317,0.00001438,-0.000009
 13,-0.00000358,0.00008954,-0.00000103,-0.00001734,-0.00005981,0.000000
 61,-0.00000200,-0.00003709,-0.00000009,0.00000074,-0.00000327,-0.00000
 059,0.00000092,0.00000250,-0.00000181,-0.00000026,0.00000762,-0.000341
 54,0.00109803,0.00759426,0.00115149,0.00386647,-0.06219077,0.00473530,
 -0.01046478,0.13123636,-0.01632925,0.02031968,-0.00048245,-0.19718382,
 0.07100767,-0.00226316,0.05676516,0.03941127,-0.00034660,0.00130131,-0
 .00633776,0.00008916,-0.00397647,-0.00158435,-0.00000136,-0.00003164,0
 .00225820,-0.00005317,-0.00109706,-0.00107860,0.00001173,0.00180937,-0
 .00030202,0.00002073,0.00003971,0.00214851,-0.00004026,-0.00010547,0.0
 0001442,-0.00000166,0.00014585,-0.00006808,0.00000288,-0.00000576,0.00
 015037,-0.00000018,0.00012173,-0.00006963,0.00000207,-0.05475057,0.024
 90196,-0.00080962,-0.01468007,-0.08246989,0.00131036,-0.31934062,0.004
 58658,-0.00199158,0.65790685,0.00521405,0.00921380,-0.00012973,0.12554
 330,-0.26677023,0.00457809,-0.00460484,-0.05371212,0.00107207,-0.00410
 329,-0.00223874,0.00009073,-0.00424931,0.00019183,-0.00003431,0.001015
 37,0.00040309,0.00003107,0.00003133,0.00101644,-0.00001913,-0.00142082
 ,-0.00040961,-0.00000811,0.00187941,-0.00169011,0.00004941,0.00002970,
 0.00015897,-0.00000103,0.00008429,-0.00002638,-0.00000032,-0.00000177,
 0.00012034,-0.00000832,-0.00002239,-0.00007141,0.00000123,0.02166449,-
 0.01010572,0.00024724,-0.03386514,0.01916255,-0.00046035,-0.06159005,-
 0.13017963,0.00079670,0.02447461,0.72572640,-0.00021201,-0.00001882,-0
 .00025941,-0.00323588,0.00417805,-0.06230189,0.00043901,0.00139521,0.0
 0818881,0.00004940,0.00007429,0.00454598,0.00004610,-0.00001444,0.0000
 5391,-0.00003112,0.00004032,0.00172101,-0.00000819,-0.00002745,-0.0000
 6893,0.00004085,0.00000014,-0.00027741,-0.00003556,0.00005153,0.000303
 96,-0.00000198,-0.00000110,0.00009063,0.00000017,-0.00000147,-0.000080
 47,0.00000252,-0.00000719,-0.00034502,0.00000125,0.00000090,0.00000768
 ,-0.00075164,0.00027095,-0.00519984,0.00044251,-0.00081814,0.00738051,
 -0.00080957,0.00128438,-0.06021593,0.00343181,-0.01042082,0.13282895,0
 .00016380,-0.00049775,0.00003603,0.01268258,0.01693913,-0.00023439,-0.
 00189923,0.00321738,-0.00012807,0.00053484,0.00080497,-0.00001130,0.00
 028563,0.00015618,0.00000085,-0.00005606,-0.00009323,0.00000119,0.0000
 0308,-0.00002115,0.00000034,0.00006587,0.00008011,-0.00000092,-0.00033
 862,0.00008029,-0.00000257,0.00000495,-0.00000584,0.00000010,-0.000028
 16,0.00001313,-0.00000068,0.00000185,-0.00001271,0.00000030,-0.0000210
 3,0.00001352,-0.00000048,-0.00085772,0.00062505,-0.00001277,-0.0055607
 5,0.00049894,-0.00010268,-0.00663212,-0.03060429,0.00047731,-0.0969941
 7,-0.09257155,0.00121024,0.09863444,-0.00135069,0.00048446,-0.00008196
 ,-0.01177069,-0.01973210,0.00032674,0.00394108,-0.00134286,0.00019078,
 -0.00102348,-0.00092431,0.00001119,0.00019753,-0.00022295,0.00000192,-
 0.00004605,0.00010629,-0.00000210,0.00006529,-0.00011621,0.00000269,0.
 00000302,-0.00007129,0.00000122,0.00047486,-0.00003351,0.00000083,-0.0
 0002162,0.00002297,-0.00000046,0.00004882,-0.00003437,0.00000155,0.000
 01228,-0.00000344,0.,0.00007183,-0.00000969,0.00000090,0.00079326,0.00
 024310,-0.00001000,-0.00061681,0.00206984,0.00008689,0.00070436,-0.000
 76157,0.00006951,-0.09426977,-0.29248933,0.00388523,0.10242927,0.31158
 825,0.00005150,-0.00007557,-0.00353852,0.00027903,0.00053709,0.0033898
 6,-0.00014082,0.00018519,0.00769281,0.00002132,0.00002466,0.00012705,0
 .00000008,0.00000167,-0.00019566,0.00000034,-0.00000246,0.00000770,-0.
 00000121,0.00000205,0.00000759,0.00000047,0.00000179,-0.00000381,-0.00
 000964,-0.00000204,-0.00018219,0.00000038,-0.00000035,0.00000625,-0.00
 000132,0.00000128,0.00003182,-0.00000015,-0.00000018,-0.00000818,-0.00
 000152,0.00000047,0.00001124,-0.00001593,-0.00001115,-0.00064205,-0.00
 008299,0.00009473,0.00717391,-0.00008238,-0.00016134,0.00283658,0.0012
 4053,0.00389941,-0.03652337,-0.00128932,-0.00437324,0.02497410,0.00031
 054,0.00132637,-0.00002515,-0.00556611,-0.00219865,-0.00005309,-0.0005
 9838,-0.00090356,0.00001817,0.00010023,0.00006699,0.00000477,-0.000573
 11,-0.00016368,-0.00000139,0.00009891,0.00016427,0.00000034,-0.0000435
 9,0.00002487,-0.00000078,-0.00000805,0.00003576,-0.00000020,-0.0000182
 7,0.00000338,-0.00000056,0.00000700,0.00003016,-0.00000090,-0.00000292
 ,0.00001176,-0.00000028,-0.00000726,0.00002827,-0.00000128,-0.00000327
 ,-0.00001339,0.00000027,0.00004195,-0.00271616,-0.00000101,0.01073306,
 -0.01130439,0.00026218,-0.16129335,0.13308638,-0.00331135,-0.01403439,
 0.02627930,-0.00059281,0.00105817,-0.00032772,0.00004252,0.16877225,-0
 .00028322,0.00025402,0.00000274,-0.00146680,0.00138621,0.00008858,-0.0
 0106148,-0.00002255,-0.00002301,0.00001173,0.00010692,-0.00001447,-0.0
 0000287,-0.00001249,0.00000029,0.00001211,0.00001569,-0.00000636,0.000
 02399,-0.00000190,0.00000026,-0.00001482,0.00002765,-0.00000182,0.0000
 0694,-0.00006107,0.00000202,-0.00000504,0.00005033,0.00000006,0.000003
 91,-0.00001165,0.00000035,0.00001070,-0.00000207,0.00000187,0.00001160
 ,0.00000170,-0.00000009,-0.00356119,-0.00378709,0.00016195,0.02013011,
 -0.01800965,0.00051617,0.13302755,-0.23181499,0.00450217,-0.00470339,0
 .00664339,-0.00010564,0.00049363,0.00078132,-0.00008020,-0.14336153,0.
 24455743,0.00000355,0.00001448,0.00052269,-0.00006595,0.00008297,0.006
 94699,0.00002117,-0.00002175,-0.00087298,0.00000571,-0.00001400,-0.000
 70748,-0.00000420,-0.00000081,0.00000528,0.00000308,-0.00000527,-0.000
 34510,-0.00000075,0.00000030,0.00000252,0.00000066,-0.00000144,-0.0000
 6803,-0.00000061,0.00000196,0.00004947,-0.00000026,0.00000031,0.000055
 59,-0.00000014,0.00000041,0.00000622,-0.00000096,0.00000199,0.00009789
 ,-0.00000017,-0.00000028,-0.00000818,0.00001398,0.00016816,0.00674548,
 -0.00029932,0.00028364,0.00256042,-0.00331036,0.00450345,-0.03489237,-
 0.00003937,0.00012288,0.00266928,0.00002773,-0.00008636,-0.00390806,0.
 00362437,-0.00498566,0.02485082,0.00001059,0.00004587,0.00000500,0.000
 69496,0.00016900,0.00000824,-0.00007027,0.00374988,-0.00012233,-0.0002
 9274,-0.00076525,0.00000778,-0.00027585,0.00028102,-0.00000507,-0.0000
 2550,-0.00009079,0.00000202,-0.00002915,0.00005442,-0.00000116,-0.0000
 1264,0.00001431,-0.00000008,-0.00009843,-0.00003022,-0.00000012,0.0000
 2800,0.00000721,-0.00000024,-0.00002011,0.00002956,-0.00000069,-0.0000
 1354,0.00001035,-0.00000033,-0.00004234,0.00001124,-0.00000075,-0.0144
 7530,-0.00497693,-0.00003650,-0.33005318,-0.03338444,-0.00157513,-0.00
 826455,0.00139461,-0.00010419,0.00121504,-0.00236854,0.00000125,-0.000
 51511,0.00009238,-0.00000718,0.00078739,-0.00034156,0.00004056,0.35061
 985,-0.00000908,0.00003401,-0.00001457,0.00037366,-0.00125590,0.000010
 31,0.00304310,-0.00393882,0.00022560,0.00076196,0.00077487,0.00000079,
 0.00025727,-0.00030029,0.00000247,0.00006155,0.00014492,-0.00000356,-0
 .00000425,-0.00001820,0.00000024,-0.00001023,-0.00003408,-0.00000013,0
 .00005077,0.00006053,-0.00000086,-0.00001984,-0.00002794,0.00000111,0.
 00001605,-0.00001406,0.00000041,0.00000250,-0.00000104,0.00000015,0.00
 004695,-0.00002018,0.00000127,0.02605724,0.00703222,0.00011179,-0.0334
 0347,-0.06304062,0.00024743,-0.03006990,0.00097235,-0.00019433,-0.0015
 2372,-0.00496006,0.00019864,-0.00145381,-0.00018402,-0.00000329,0.0005
 0762,0.00094045,-0.00008252,0.03585249,0.06277437,0.00000597,-0.000014
 11,-0.00077783,0.00000455,0.00000895,-0.00083297,-0.00010980,0.0002307
 9,0.00743996,-0.00001943,-0.00001048,0.00050574,-0.00000468,0.00000261
 ,-0.00026819,-0.00000068,-0.00000469,-0.00008042,-0.00000012,0.0000006
 7,-0.00000327,0.00000036,0.00000005,-0.00003719,-0.00000157,-0.0000014
 6,-0.00000890,0.00000025,0.00000131,0.00004272,-0.00000045,0.00000051,
 0.00000210,-0.00000019,0.00000021,0.00000623,-0.00000138,0.00000101,0.
 00003183,-0.00059048,-0.00011701,0.00254027,-0.00157463,0.00024789,-0.
 03541399,0.00045730,0.00003736,0.00250173,-0.00001374,0.00019229,0.006
 78593,0.00002043,0.00000814,0.00023258,0.00002545,-0.00008882,-0.00388
 755,0.00175752,-0.00040629,0.02523936,-0.00000556,-0.00147459,0.000025
 91,-0.00533925,0.00081104,-0.00010603,-0.00596699,-0.03058007,0.000480
 91,0.00159498,0.00011353,0.00003451,-0.00008636,-0.00028278,0.00000426
 ,0.00014870,0.00004809,-0.00000043,0.00008469,0.00004255,0.00000014,0.
 00006002,0.00044011,-0.00000679,-0.00063860,-0.00044452,0.00000502,-0.
 00012886,0.00078747,-0.00001859,-0.00002532,0.00000012,-0.00000050,0.0
 0004631,0.00003536,-0.00000070,0.00002627,-0.00000303,0.00000020,-0.10
 191471,-0.09953081,0.00128646,0.01136602,0.01850779,-0.00026727,-0.001
 72334,0.00326156,-0.00012509,-0.00097326,0.00060898,-0.00001263,0.0001
 0530,-0.00012019,0.00001278,0.00033631,0.00093705,-0.00001597,0.000844
 36,-0.00055041,0.00004570,0.10291134,0.00030121,-0.00020254,0.00000701
 ,-0.00017296,0.00195236,0.00009055,-0.00117901,-0.00045502,0.00004982,
 0.00065119,-0.00050553,-0.00004629,-0.00032970,0.00002395,-0.00000251,
 0.00006341,-0.00009507,0.00000378,0.00001508,0.00008943,-0.00000215,-0
 .00001245,0.00013821,-0.00000410,-0.00024084,0.00028896,-0.00001125,0.
 00030844,0.00001648,0.00001072,-0.00002689,0.00002540,0.00000011,0.000
 00016,0.00001102,0.00000080,-0.00001878,0.00000167,-0.00000006,-0.0980
 2203,-0.28990171,0.00382100,-0.01273219,-0.01839713,0.00028464,0.00433
 726,-0.00177858,0.00019497,0.00043314,0.00037030,-0.00001649,-0.000065
 09,-0.00007716,-0.00002301,-0.00061690,-0.00101711,0.00001776,0.000271
 64,0.00098293,-0.00008741,0.10725191,0.30849967,-0.00000594,-0.0000060
 3,0.00006421,-0.00008836,0.00009791,0.00709434,-0.00004396,-0.00016651
 ,0.00282705,0.00002504,-0.00005032,-0.00336659,0.00000509,-0.00000219,
 0.00002024,-0.00000072,0.00000367,0.00009073,0.00000062,-0.00000196,-0
 .00003707,0.00000133,-0.00000076,-0.00008644,0.00000138,-0.00001270,-0
 .00024164,-0.00001004,0.00001424,0.00048965,-0.00000002,0.00000031,0.0
 0004273,-0.00000007,0.00000105,0.00005554,0.00000048,0.00000006,0.0000
 0624,0.00125951,0.00380947,-0.03542627,0.00029023,0.00051499,0.0028038
 9,-0.00014423,0.00018705,0.00734767,-0.00000947,-0.00001523,-0.0007319
 7,0.00001180,-0.00002347,-0.00133932,0.00001176,0.00002916,0.00023126,
 0.00003105,-0.00009346,-0.00402404,-0.00133356,-0.00428675,0.02412425,
 -0.08532969,-0.01117150,0.03148493,-0.01892136,-0.01514142,0.02789437,
 -0.00302559,0.00122638,-0.00021930,-0.00081832,0.00197074,0.00097703,0
 .00326016,-0.00250683,-0.00606128,0.00040931,0.00156386,0.00013959,-0.
 00014546,-0.00032588,0.00027804,0.00000668,0.00044262,-0.00007529,0.00
 027678,-0.00037354,0.00024057,0.00002149,0.00016112,0.00002261,-0.0000
 1184,-0.00003378,0.00000992,-0.00001982,0.00008455,-0.00001824,-0.0004
 5871,0.00018451,-0.00043573,-0.00037975,-0.00046923,-0.00135396,-0.000
 49068,-0.00039106,0.00014040,0.00061957,-0.00049602,-0.00084379,0.0000
 0519,-0.00053274,-0.00004178,-0.00006796,0.00015009,0.00028725,-0.0000
 1294,0.00006594,0.00013030,-0.00000206,-0.00000798,0.00007764,-0.00030
 257,-0.00010244,-0.00010282,0.54756593,-0.01134692,-0.08687186,0.03447
 847,-0.00502674,0.00079050,-0.00258933,0.00162299,-0.00041391,0.001012
 43,0.00148441,-0.00263961,0.00000572,-0.01295239,-0.02035462,0.0274227
 8,-0.00045671,0.00009649,-0.00002610,-0.00056370,0.00050062,-0.0008418
 2,-0.00033666,-0.00048923,0.00013604,-0.00034774,-0.00052790,-0.001341
 19,-0.00005800,-0.00030042,-0.00009367,-0.00001113,-0.00000662,0.00007
 979,0.00006250,0.00000761,0.00013037,0.00009274,-0.00001725,0.00024003
 ,-0.00047244,0.00016840,0.00003953,0.00037098,0.00000180,-0.00004658,-
 0.00022189,-0.00023455,0.00016450,0.00145820,0.00056383,0.00016819,0.0
 0024686,-0.00042163,-0.00038236,0.00008337,0.00000035,0.00000088,-0.00
 003353,-0.00001704,0.00002012,0.00011424,0.00002821,0.00001359,-0.0186
 6109,0.54491018,0.02484089,0.02690151,-0.13022853,0.00993091,0.0004240
 5,-0.00107781,-0.00113498,-0.00170120,-0.00042101,-0.00158288,-0.00124
 778,-0.00040514,-0.00047577,0.01027890,-0.00211329,0.00081216,-0.00168
 514,0.00034703,0.00045940,0.00037538,-0.00001470,-0.00030958,-0.000306
 58,0.00002113,-0.00003487,-0.00020730,-0.00027023,-0.00004538,-0.00012
 106,0.00005627,0.00000806,-0.00002906,0.00001894,0.00003367,-0.0000926
 1,-0.00001876,0.00009039,-0.00001166,0.00011998,-0.00019298,-0.0000841
 7,-0.00031046,-0.00028516,-0.00035707,0.00002689,0.00033353,0.00049725
 ,-0.00004410,-0.00181994,0.00056304,0.00028249,-0.00003427,0.00010472,
 0.00013384,-0.00009807,0.00002245,-0.00001841,-0.00002966,0.00000479,0
 .00001971,-0.00012604,-0.00006302,0.00005173,0.04402796,0.04820484,0.4
 8579932,0.00346110,0.00639939,0.01076491,0.00078376,0.00067984,0.00058
 108,0.00012128,-0.00006941,-0.00009566,0.00029866,0.00003081,-0.000011
 69,0.00027331,0.00029896,-0.00025339,-0.00029768,-0.00007685,0.0000105
 9,0.00009384,0.00017970,0.00010313,-0.00009426,0.00002911,-0.00000699,
 -0.00000758,-0.00005977,0.00003190,0.00000193,-0.00000798,0.00000229,-
 0.00000040,0.00000974,-0.00001439,-0.00000875,-0.00000165,-0.00001478,
 0.00005563,-0.00006245,-0.00010222,-0.00002670,0.00000305,-0.00001077,
 0.00003818,0.00004896,0.00001405,-0.00012281,0.00000309,-0.00006614,0.
 00004867,0.00010885,-0.00007118,0.00002853,-0.00001463,0.00006745,0.00
 000390,-0.00000643,0.00000358,0.00000424,0.00000075,0.00000839,0.00001
 969,0.00001049,0.00001038,-0.08362425,-0.04362759,-0.08068295,0.087110
 19,0.00587196,0.00512680,0.01179038,0.00033239,0.00038781,-0.00016395,
 0.00001967,0.00029735,-0.00002676,-0.00004098,0.00012711,-0.00009809,0
 .00059363,0.00088522,0.00056458,0.00005813,0.00006139,-0.00006294,0.00
 003143,-0.00010026,-0.00005140,0.00003163,0.00004938,0.00001321,0.0000
 0856,-0.00003304,-0.00000800,0.00000786,0.00002090,0.00000981,0.000000
 07,0.00000579,0.00000678,-0.00000813,0.00000340,0.00000105,-0.00001115
 ,0.00001886,0.00005309,-0.00006184,-0.00001167,0.00002745,0.00004719,-
 0.00008328,-0.00000218,0.00014825,0.00011833,0.00009523,-0.00002072,-0
 .00029819,0.00001364,-0.00006444,0.00004463,-0.00009722,0.00000090,-0.
 00001003,-0.00001456,0.00001068,0.00000082,-0.00001285,-0.00000507,0.0
 0000237,0.00000276,-0.04359540,-0.09966019,-0.09678880,0.04876559,0.10
 483805,-0.00911006,-0.01090840,-0.02095136,-0.00156359,-0.00032025,0.0
 0057472,0.00046398,0.00015345,0.00017859,0.00009594,0.00048233,0.00017
 216,-0.00013427,-0.00159307,0.00058936,-0.00024489,0.00036687,0.000233
 09,-0.00007916,0.00000173,-0.00005781,0.00001849,0.00001652,-0.0000072
 2,0.00009930,0.00005046,-0.00007950,-0.00000073,0.00002260,-0.00002527
 ,0.00000537,-0.00000182,0.00001165,0.00000305,0.00001816,-0.00001364,0
 .00005623,-0.00003608,-0.00001511,0.00003994,0.00010362,-0.00008174,0.
 00001419,0.00002384,-0.00000689,0.00000648,-0.00008227,-0.00005974,0.0
 0039185,-0.00017911,0.00024539,-0.00004057,0.00004929,-0.00001320,0.00
 001806,0.00000516,-0.00001287,-0.00000294,0.00000537,0.00001200,0.0000
 2384,0.00000192,-0.00002451,-0.07944587,-0.09537403,-0.22190129,0.0857
 0744,0.10311899,0.24345794,-0.01285221,0.00048053,-0.00001383,0.000768
 22,-0.00150921,0.00251163,-0.00031524,0.00050832,0.00030628,-0.0005525
 3,-0.00001570,-0.00003722,0.00041598,0.00111742,-0.00009953,-0.0002252
 8,-0.00007974,-0.00023707,0.00027543,-0.00035935,-0.00014014,0.0002034
 1,0.00008303,0.00000482,0.00006110,0.00014308,-0.00003214,-0.00000060,
 0.00001512,0.00001239,0.00003788,0.00000303,0.00002911,0.00000218,-0.0
 0003316,-0.00000539,0.00045593,0.00005456,0.00020646,-0.00023084,-0.00
 008765,-0.00020099,-0.00009769,-0.00024811,0.00003033,0.00022988,-0.00
 000009,-0.00006614,-0.00002160,-0.00030734,0.00008107,0.00005474,0.000
 02114,-0.00004872,-0.00005166,0.00002101,-0.00000515,-0.00002004,-0.00
 001275,0.00000803,-0.00009168,-0.00003254,-0.00003876,-0.30315508,0.02
 563197,-0.00112957,-0.01062686,0.00147900,0.00008455,0.33059583,-0.014
 62606,-0.00011677,0.00109498,0.00003007,-0.00059468,0.00259448,-0.0005
 2275,-0.00009900,-0.00007984,-0.00040765,0.00015066,0.00006870,-0.0005
 7882,0.00089995,-0.00066311,-0.00032085,0.00002663,-0.00006709,0.00014
 508,-0.00029488,-0.00011295,0.00014767,0.00005895,0.00003505,0.0000413
 9,0.00013025,0.00002107,0.00001211,0.00001769,-0.00000563,0.00003129,0
 .00001592,0.00001602,-0.00001308,0.00000562,0.00001050,0.00030307,-0.0
 0028848,0.00042385,0.00017443,-0.00005849,-0.00023722,-0.00013731,0.00
 011255,0.00002674,-0.00014480,-0.00002183,-0.00031029,-0.00007145,-0.0
 0015957,-0.00006006,-0.00014504,0.00023832,0.00034805,-0.00003241,0.00
 000104,-0.00000503,0.00000987,0.00001466,0.00004728,-0.00005554,-0.000
 01902,0.00002029,0.02620399,-0.04942375,-0.00089535,-0.01477500,0.0009
 8575,0.00076831,-0.02769291,0.05013192,0.02752149,-0.00270778,-0.00190
 906,0.00046437,0.00263047,-0.00399057,0.00104165,-0.00007482,0.0001361
 9,0.00041089,-0.00017927,-0.00006870,-0.00046186,-0.00102121,0.0007161
 2,0.00029808,0.00003953,-0.00005666,-0.00021632,0.00015206,-0.00000469
 ,-0.00008922,-0.00009972,-0.00000050,-0.00005097,-0.00005581,-0.000012
 36,-0.00000032,-0.00002010,-0.00001437,-0.00002593,-0.00000405,-0.0000
 1016,0.00001041,0.00000379,0.00002200,-0.00024008,0.00030633,-0.000085
 76,0.00010700,0.00018788,0.00032372,0.00016531,0.00014503,-0.00005966,
 -0.00011226,-0.00005492,0.00019579,0.00033514,0.00015900,0.00022385,-0
 .00005720,-0.00014990,-0.00011959,0.00005011,-0.00001689,-0.00001712,0
 .00000629,-0.00000097,-0.00001946,0.00011090,0.00003395,0.00001442,-0.
 00202706,-0.00055035,-0.04672782,-0.02621987,0.00391808,0.00090046,-0.
 00040730,-0.00215039,0.05007357,0.00164293,-0.01339190,0.00149046,0.00
 086131,-0.00052646,-0.00062762,0.00019766,-0.00031589,0.00008752,-0.00
 009138,-0.00052407,-0.00011334,-0.00050638,-0.00009118,0.00233735,-0.0
 0010927,-0.00009379,-0.00007667,0.00001033,-0.00017864,-0.00029968,0.0
 0015522,-0.00010755,0.00003058,-0.00007158,0.00018703,-0.00022345,-0.0
 0000995,-0.00004699,0.00002565,0.00001329,0.00001534,0.00004629,0.0000
 0232,-0.00002667,-0.00000319,0.00024570,-0.00010871,0.00036347,0.00010
 554,0.00004930,0.00002720,0.00003280,0.00012825,0.00003211,-0.00025923
 ,0.00007714,-0.00010189,0.00007545,-0.00028986,-0.00002516,-0.00034078
 ,0.00021387,0.00038128,0.00001129,-0.00001187,0.00001113,0.00001153,0.
 00002878,0.00001191,0.00001453,0.00001396,-0.00000682,-0.06056980,0.05
 846924,-0.00244954,0.00230746,-0.01233085,0.00107228,-0.00632891,0.031
 84771,-0.00067222,0.06234986,0.00223873,-0.01385903,0.00046591,0.00115
 470,0.00047762,-0.00015171,0.00007852,-0.00058766,-0.00001424,0.000523
 91,-0.00028281,0.00031636,-0.00167293,0.00063145,0.00268461,-0.0003179
 3,-0.00006380,0.00007077,-0.00002859,0.00020168,-0.00010738,-0.0002121
 0,-0.00013956,0.00002991,-0.00005685,-0.00021853,-0.00021970,-0.000020
 19,-0.00010008,-0.00003367,-0.00000858,-0.00001934,0.00001394,0.000027
 67,-0.00005125,-0.00000426,0.00004422,0.00003977,-0.00000486,0.0001488
 2,0.00008425,-0.00002733,0.00005809,0.00022919,0.00000564,-0.00042211,
 0.00022918,-0.00017042,-0.00003362,-0.00027079,-0.00023994,-0.00004783
 ,0.00049071,0.00024645,-0.00003172,-0.00000364,-0.00000421,-0.00000122
 ,0.00004206,0.00002981,0.00001632,0.00000349,0.00001162,0.05788045,-0.
 29186335,0.00591707,0.00339088,-0.01274082,0.00059005,0.00064728,-0.00
 200912,-0.00027090,-0.06337302,0.31824837,-0.00626899,0.02685758,-0.00
 266439,-0.00097397,-0.00060038,0.00069307,-0.00022674,0.00038690,-0.00
 008110,-0.00022921,0.00101878,0.00009719,0.00267628,0.00069861,-0.0039
 4268,0.00011223,0.00035731,0.00021528,-0.00004384,-0.00012336,0.000191
 92,0.00013257,0.00018212,-0.00006056,0.00016329,0.00014810,0.00032429,
 0.00001891,0.00011584,0.00001377,-0.00000073,0.00000650,-0.00001869,-0
 .00002345,0.00004755,-0.00001879,-0.00013254,-0.00008310,-0.00011180,-
 0.00004912,-0.00005883,-0.00001115,-0.00008774,-0.00010363,0.00000023,
 0.00018237,-0.00019794,0.00000556,0.00000415,0.00029885,-0.00005865,0.
 00032976,-0.00020562,-0.00006815,0.00000283,0.00001111,0.00002222,-0.0
 0000003,-0.00002672,-0.00000991,-0.00001954,-0.00000304,-0.00001524,-0
 .00197526,0.00508928,-0.04688777,0.00730294,-0.02548829,0.00169555,-0.
 00033352,0.00015776,-0.00104951,-0.00030196,-0.00852286,0.05022008,-0.
 08449631,-0.01185340,-0.03040024,-0.01836459,-0.01611852,-0.02759779,-
 0.00304314,0.00120641,0.00013746,-0.00082707,0.00191528,-0.00105220,0.
 00315746,-0.00213846,0.00621246,0.00042378,0.00153282,-0.00019313,-0.0
 0013455,-0.00032984,-0.00026799,0.00000090,0.00044041,0.00005920,0.000
 27945,-0.00038503,-0.00021840,0.00002119,0.00015827,-0.00002879,-0.000
 01157,-0.00003455,-0.00000915,-0.00001956,0.00008377,0.00001524,-0.000
 46355,0.00019928,0.00042018,-0.00040296,-0.00042100,0.00136882,-0.0004
 9308,-0.00040162,-0.00013377,0.00061231,-0.00045794,0.00087047,-0.0000
 2349,-0.00052241,0.00005529,-0.00006418,0.00014110,-0.00029545,-0.0000
 1241,0.00006159,-0.00013252,-0.00000134,-0.00001069,-0.00007763,-0.000
 30576,-0.00009972,0.00010113,0.00549651,0.00523276,0.01005397,-0.00082
 913,-0.00115951,0.00308247,0.00036959,0.00029016,0.00094726,0.00007879
 ,0.00014991,-0.00050012,0.54886946,-0.01168001,-0.08910035,-0.03611617
 ,-0.00541890,0.00085827,0.00243096,0.00167650,-0.00038894,-0.00098895,
 0.00153808,-0.00259102,0.00009487,-0.01251963,-0.02167905,-0.02691743,
 -0.00048530,0.00015712,0.00002537,-0.00059198,0.00051667,0.00081443,-0
 .00032366,-0.00048283,-0.00012275,-0.00036537,-0.00047252,0.00134342,-
 0.00005784,-0.00029220,0.00010519,-0.00001025,-0.00000839,-0.00007906,
 0.00006319,0.00000629,-0.00013036,0.00009284,-0.00002510,-0.00023352,-
 0.00046483,0.00016911,-0.00006297,0.00038007,0.00001593,0.00005254,-0.
 00023078,-0.00025782,-0.00016008,0.00152447,0.00053752,-0.00015488,0.0
 0024185,-0.00041090,0.00040559,0.00008681,-0.00000046,-0.00000029,-0.0
 0003217,-0.00001789,-0.00001928,0.00011870,0.00002999,-0.00001106,0.00
 471621,0.00680867,0.01049928,-0.00118532,-0.00100524,0.00340680,0.0001
 7327,0.00010092,-0.00032936,0.00020414,0.00041924,0.00093024,-0.019459
 50,0.54139711,-0.02375279,-0.02853500,-0.12879677,-0.01000789,-0.00073
 845,-0.00171010,0.00103680,0.00171934,-0.00042777,0.00152416,0.0013541
 4,-0.00044537,0.00099576,-0.00962197,-0.00069272,-0.00079425,0.0017152
 9,0.00027092,-0.00044065,-0.00039968,-0.00004089,0.00032131,0.00033134
 ,0.00001997,0.00005584,0.00020885,-0.00032808,0.00004698,0.00013580,0.
 00004844,-0.00000815,0.00002952,0.00002047,-0.00003593,0.00009296,-0.0
 0001771,-0.00010246,0.00001976,0.00013278,0.00020832,0.00006060,-0.000
 28797,0.00026431,0.00035181,0.00001451,-0.00031615,-0.00049682,-0.0000
 1251,0.00176293,-0.00057976,0.00033562,0.00002277,-0.00008332,0.000119
 34,0.00009513,-0.00002215,-0.00001815,0.00003050,-0.00000360,0.0000198
 4,0.00011655,0.00006235,0.00005323,-0.00960875,-0.01194858,-0.03610748
 ,0.00211125,0.00229917,-0.00404495,-0.00106557,-0.00095689,0.00182473,
 -0.00085800,-0.00114500,0.00179521,-0.04243470,-0.05049102,0.48798095,
 0.00156747,-0.01303431,-0.00096648,0.00083772,-0.00051347,0.00064813,0
 .00019546,-0.00031305,-0.00007238,-0.00009664,-0.00050474,0.00012846,-
 0.00043230,-0.00016182,-0.00228130,-0.00010865,-0.00008573,0.00007494,
 0.00000508,-0.00016986,0.00030321,0.00015770,-0.00010590,-0.00002356,-
 0.00007232,0.00019706,0.00021074,-0.00000931,-0.00004616,-0.00002439,0
 .00001395,0.00001379,-0.00004635,0.00000192,-0.00002583,0.00000443,0.0
 0024890,-0.00012262,-0.00035402,0.00010529,0.00004743,-0.00002723,0.00
 003197,0.00012559,-0.00003616,-0.00025815,0.00007764,0.00009537,0.0000
 7517,-0.00028414,0.00003744,-0.00032985,0.00019700,-0.00039252,0.00001
 149,-0.00001210,-0.00001089,0.00001170,0.00002795,-0.00001260,0.000014
 14,0.00001416,0.00000677,0.00005876,0.00024760,0.00082408,-0.00013256,
 -0.00011683,0.00008159,0.00001772,0.00018638,-0.00005427,0.00028744,0.
 00010558,0.00013095,-0.06061360,0.05854206,0.00016877,0.06231709,0.002
 46449,-0.01481617,0.00000162,0.00118662,0.00050501,0.00017640,0.000086
 28,-0.00060061,0.00003409,0.00053612,-0.00032941,-0.00029327,-0.001724
 30,0.00050432,-0.00287001,-0.00032086,-0.00007880,-0.00006507,-0.00002
 870,0.00020985,0.00010644,-0.00021621,-0.00014714,-0.00002997,-0.00006
 595,-0.00021525,0.00023807,-0.00002139,-0.00010285,0.00003751,-0.00000
 833,-0.00002006,-0.00001405,0.00002843,-0.00005274,0.00000589,0.000048
 99,0.00004264,-0.00000008,0.00015020,0.00008724,0.00002601,0.00006130,
 0.00023255,-0.00001304,-0.00043097,0.00024177,0.00015572,-0.00003726,-
 0.00027233,0.00024730,-0.00005570,0.00048846,-0.00026738,-0.00003187,-
 0.00000386,0.00000466,-0.00000076,0.00004188,-0.00003168,0.00001720,0.
 00000317,-0.00001203,0.00014949,0.00042852,0.00119595,-0.00017975,0.00
 034348,0.00001860,-0.00006203,0.00003420,-0.00005702,0.00010899,0.0007
 4606,-0.00054747,0.05794829,-0.29190090,0.00363847,-0.06339081,0.31846
 804,0.00624162,-0.02662157,-0.00163287,0.00093549,0.00059962,0.0006894
 3,0.00022784,-0.00037318,-0.00006627,0.00020698,-0.00101094,0.00014934
 ,-0.00256415,-0.00085991,-0.00389006,-0.00010563,-0.00034844,0.0002298
 5,0.00004215,0.00012036,0.00018896,-0.00012187,-0.00018077,-0.00005529
 ,-0.00016680,-0.00012608,0.00032192,-0.00001854,-0.00011238,0.00001593
 ,0.00000151,-0.00000625,-0.00001866,0.00002275,-0.00004672,-0.00001690
 ,0.00013625,0.00007577,-0.00011812,0.00004563,0.00005604,-0.00001387,0
 .00008615,0.00009736,-0.00000227,-0.00017114,0.00019071,-0.00000828,-0
 .00000083,-0.00029570,-0.00005609,-0.00033180,0.00018876,-0.00007695,-
 0.00000186,-0.00001037,0.00002225,0.00000039,0.00002530,-0.00000993,0.
 00001937,0.00000260,-0.00001454,0.00046886,-0.00087787,0.00180561,-0.0
 0015448,0.00028247,0.00031981,0.00004812,0.00005672,-0.00015747,-0.000
 12361,0.00050671,-0.00045047,-0.00028421,0.00447425,-0.04680362,0.0027
 3293,-0.00193710,0.05003155,-0.01243993,0.00043746,-0.00015846,0.00081
 022,-0.00155582,-0.00238724,-0.00029462,0.00049577,-0.00033061,-0.0005
 4713,-0.00001704,0.00003080,0.00040799,0.00110481,0.00005584,-0.000224
 30,-0.00007080,0.00023727,0.00026995,-0.00035180,0.00015682,0.00020213
 ,0.00008135,-0.00000474,0.00005993,0.00014331,0.00002812,-0.00000042,0
 .00001438,-0.00001271,0.00003791,0.00000194,-0.00002849,0.00000226,-0.
 00003290,0.00000627,0.00045522,0.00005182,-0.00020056,-0.00023217,-0.0
 0007770,0.00019571,-0.00009488,-0.00024690,-0.00002204,0.00022726,0.00
 000139,0.00006664,-0.00001546,-0.00030794,-0.00007377,0.00005305,0.000
 02078,0.00005048,-0.00005099,0.00002093,0.00000391,-0.00001983,-0.0000
 1303,-0.00000758,-0.00009058,-0.00003067,0.00003833,0.00036829,0.00020
 529,0.00103742,0.00036642,-0.00010916,0.00001190,0.00071125,0.00015465
 ,-0.00053402,0.00001753,-0.00006441,-0.00004334,-0.30313705,0.02555650
 ,-0.00361213,-0.00633652,0.00065228,0.00023155,0.33051183,-0.01557617,
 -0.00006759,-0.00139322,0.00005442,-0.00078417,-0.00270829,-0.00056058
 ,-0.00009358,0.00007962,-0.00042121,0.00015417,-0.00008284,-0.00057218
 ,0.00096015,0.00064590,-0.00033191,0.00002759,0.00005942,0.00015091,-0
 .00029602,0.00012568,0.00015136,0.00006121,-0.00003502,0.00004351,0.00
 013139,-0.00002554,0.00001204,0.00001857,0.00000463,0.00003243,0.00001
 547,-0.00001648,-0.00001329,0.00000511,-0.00001010,0.00031758,-0.00031
 385,-0.00041111,0.00016697,-0.00005611,0.00025328,-0.00014274,0.000106
 31,-0.00003475,-0.00014552,-0.00000877,0.00031553,-0.00008417,-0.00016
 246,0.00007263,-0.00013754,0.00023067,-0.00036272,-0.00003424,0.000001
 79,0.00000386,0.00001034,0.00001297,-0.00004830,-0.00005915,-0.0000209
 3,-0.00001991,0.00024106,0.00014896,0.00102060,-0.00004473,-0.00016375
 ,0.00009329,0.00017310,0.00032317,0.00004420,0.00018918,0.00003397,-0.
 00006072,0.02615397,-0.04935206,0.00137972,0.03184776,-0.00199219,0.00
 035199,-0.02759406,0.05026448,-0.02714126,0.00263905,-0.00236917,-0.00
 039583,-0.00276788,-0.00384363,-0.00102846,0.00008993,0.00011045,-0.00
 040343,0.00017099,-0.00007778,0.00047801,0.00103002,0.00066415,-0.0002
 8893,-0.00004364,-0.00005808,0.00021516,-0.00014693,0.00000184,0.00008
 695,0.00009877,-0.00000159,0.00005055,0.00005286,-0.00001225,0.0000001
 0,0.00001914,-0.00001544,0.00002551,0.00000317,-0.00000976,-0.00001023
 ,-0.00000369,0.00002244,0.00023686,-0.00029731,-0.00005983,-0.00012144
 ,-0.00017536,0.00032285,-0.00016100,-0.00015482,-0.00005602,0.00011813
 ,0.00006228,0.00018532,-0.00033623,-0.00014980,0.00022093,0.00006466,0
 .00013774,-0.00011050,-0.00004943,0.00001652,-0.00001855,-0.00000666,-
 0.00000038,-0.00001799,-0.00011042,-0.00003318,0.00001528,-0.00097789,
 0.00039172,0.00177840,0.00030239,-0.00010741,0.00032882,0.00054559,-0.
 00006929,-0.00045045,0.00005020,0.00004940,-0.00015718,-0.00273642,0.0
 0102644,-0.04681984,-0.00053593,0.00031441,-0.00105809,0.00558200,0.00
 173080,0.05002425,0.00348241,0.00586308,-0.01061614,0.00076883,0.00065
 390,-0.00060234,0.00012685,-0.00006359,0.00009713,0.00030003,0.0000384
 6,0.00001211,0.00026789,0.00028387,0.00023834,-0.00030113,-0.00007195,
 -0.00001591,0.00009421,0.00017601,-0.00010722,-0.00009410,0.00002958,0
 .00000465,-0.00000564,-0.00006013,-0.00002865,0.00000195,-0.00000771,-
 0.00000161,-0.00000053,0.00001021,0.00001385,-0.00000893,-0.00000085,0
 .00001489,0.00005492,-0.00005925,0.00010540,-0.00002641,0.00000502,0.0
 0001147,0.00003861,0.00004873,-0.00001513,-0.00012362,0.00000425,0.000
 06508,0.00005358,0.00010844,0.00006437,0.00002891,-0.00001631,-0.00006
 623,0.00000421,-0.00000647,-0.00000309,0.00000432,0.00000052,-0.000008
 53,0.00002018,0.00001016,-0.00001010,-0.00075282,-0.00120661,-0.002020
 80,0.00075419,0.00011713,-0.00065486,0.00037106,-0.00005420,-0.0003000
 1,-0.00013367,-0.00017399,0.00015382,-0.08606610,-0.04208913,0.0842760
 5,0.00243092,0.00313623,-0.00740268,-0.01101738,-0.01382711,0.02654744
 ,0.08972725,0.00637934,0.00506603,-0.01262253,0.00038515,0.00040538,0.
 00017524,0.00000280,0.00029287,0.00002262,-0.00004570,0.00011368,0.000
 09936,0.00060648,0.00092110,-0.00056809,0.00006559,0.00005088,0.000070
 24,0.00003351,-0.00009835,0.00005333,0.00003109,0.00004828,-0.00001475
 ,0.00000497,-0.00003473,0.00000653,0.00000804,0.00001970,-0.00001130,-
 0.00000003,0.00000563,-0.00000656,-0.00000821,0.00000270,-0.00000174,-
 0.00001234,0.00001818,-0.00005442,-0.00006284,-0.00001642,-0.00003067,
 0.00004664,-0.00008396,0.00000560,0.00014940,0.00011771,-0.00009936,-0
 .00003464,-0.00029179,0.00000504,-0.00006434,0.00004632,0.00009408,0.0
 0000004,-0.00000970,0.00001446,0.00001058,0.00000111,0.00001340,-0.000
 00586,0.00000218,-0.00000380,-0.00123210,-0.00121222,-0.00241903,0.000
 15235,0.00078900,-0.00080235,-0.00011127,-0.00016264,0.00012312,-0.000
 11549,0.00033272,-0.00028458,-0.04212180,-0.09303118,0.09162312,-0.012
 74264,-0.01184490,0.02577864,0.00152957,0.00081552,-0.00388355,0.04715
 171,0.09773693,0.00925653,0.01007680,-0.02091205,0.00155395,0.00033642
 ,0.00057071,-0.00046539,-0.00015822,0.00017796,-0.00009227,-0.00047989
 ,0.00018472,0.00010854,0.00158585,0.00055800,0.00023465,-0.00036144,0.
 00024714,0.00008032,0.00000235,-0.00006009,-0.00002094,-0.00001800,-0.
 00000634,-0.00009852,-0.00005311,-0.00007982,0.00000085,-0.00002433,-0
 .00002407,-0.00000556,0.00000219,0.00001195,-0.00000270,-0.00001876,-0
 .00001275,-0.00005481,0.00003401,-0.00001368,-0.00003710,-0.00010596,-
 0.00007735,-0.00001515,-0.00002046,-0.00000669,-0.00001267,0.00007606,
 -0.00005829,-0.00039370,0.00019972,0.00023405,0.00004352,-0.00005170,-
 0.00001510,-0.00001782,-0.00000538,-0.00001351,0.00000246,-0.00000498,
 0.00001164,-0.00002300,-0.00000273,-0.00002480,-0.00299246,-0.00352644
 ,-0.00391453,0.00068275,0.00072575,-0.00142444,-0.00000736,-0.00007664
 ,0.00032304,-0.00008430,-0.00002174,0.00033168,0.08303856,0.09020777,-
 0.22608207,-0.00060972,-0.00006296,0.00067510,-0.00031737,-0.00097213,
 0.00146143,-0.08975131,-0.09728205,0.24793818\\0.00014466,0.00023899,0
 .00001410,-0.00006630,-0.00018385,-0.00000328,0.00006733,0.00005224,0.
 00000083,0.00007966,0.00007280,0.00000253,-0.00013384,-0.00009554,-0.0
 0000884,0.00018702,0.00011502,-0.00000129,0.00023537,-0.00001351,0.000
 00378,-0.00012720,-0.00020860,-0.00000236,-0.00012585,-0.00012685,0.00
 000391,-0.00005785,-0.00004372,-0.00000014,0.00001216,-0.00006473,0.00
 000241,0.00005669,-0.00004044,0.00000187,0.00006775,0.00000904,0.00000
 052,-0.00009413,-0.00012730,-0.00000014,-0.00018468,-0.00015645,0.0000
 0275,-0.00005251,0.00024384,-0.00000655,0.00010071,0.00021575,-0.00000
 508,0.00000922,0.00006543,0.00000078,-0.00004612,0.00005034,-0.0000006
 9,-0.00006474,-0.00000324,-0.00000034,-0.00005112,-0.00006013,0.000000
 72,0.00005879,0.00005996,-0.00013427,-0.00002521,-0.00002030,0.0000322
 3,-0.00001372,-0.00000452,0.00000890,0.00000146,-0.00000853,0.00000197
 ,0.00005549,0.00007041,0.00013339,0.00000342,-0.00000809,-0.00000285,-
 0.00001313,-0.00000600,-0.00001055,-0.00002334,-0.00002202,-0.00003434
 \\\@


 KNOWLEDGE IS CHIMERA - FOR BEYOND IT LIES OTHER KNOWLEDGE,
 AND THE INCOMPLETENESS OF WHAT IS KNOWN RENDERS THE KNOWING FALSE.
     -- THE THOMAS COVENANT CHRONICLES
 Job cpu time:       0 days  0 hours 26 minutes  2.3 seconds.
 Elapsed time:       0 days  0 hours 26 minutes  4.2 seconds.
 File lengths (MBytes):  RWF=    346 Int=      0 D2E=      0 Chk=     12 Scr=      1
 Normal termination of Gaussian 16 at Wed Mar 11 11:58:07 2026.
