#p b3lyp/6-31g nosymm density=current sp

Verify additional points: Sm atoms correspond to centroids, Am to +1Å, and Lr to -1Å

0 1
C 1.297441 -0.508530 -0.000000
C 0.208320 -1.377877 -0.000000
C -1.089125 -0.869348 0.000000
C -1.297441 0.508530 -0.000000
C -0.208320 1.377877 0.000000
C 1.089125 0.869348 -0.000000
H 2.306796 -0.904141 0.000001
H 0.370392 -2.449810 0.000000
H -1.936412 -1.545670 -0.000000
H -2.306796 0.904141 -0.000000
H -0.370392 2.449810 -0.000000
H 1.936412 1.545670 -0.000000
Sm   0.000000 -0.000000  0.000000
Am   0.000000 -0.000000  1.000000
Lr   0.000000 -0.000000 -1.000000