 Entering Gaussian System, Link 0=g16
 Initial command:
 /sw/cluster/pub/apps//g16/l1.exe "/data/mmaximo/52018/Gau-982763.inp" -scrdir="/data/mmaximo/52018/"
 Entering Link 1 = /sw/cluster/pub/apps//g16/l1.exe PID=    982771.
  
 Copyright (c) 1988,1990,1992,1993,1995,1998,2003,2009,2016,
            Gaussian, Inc.  All Rights Reserved.
  
 This is part of the Gaussian(R) 16 program.  It is based on
 the Gaussian(R) 09 system (copyright 2009, Gaussian, Inc.),
 the Gaussian(R) 03 system (copyright 2003, Gaussian, Inc.),
 the Gaussian(R) 98 system (copyright 1998, Gaussian, Inc.),
 the Gaussian(R) 94 system (copyright 1995, Gaussian, Inc.),
 the Gaussian 92(TM) system (copyright 1992, Gaussian, Inc.),
 the Gaussian 90(TM) system (copyright 1990, Gaussian, Inc.),
 the Gaussian 88(TM) system (copyright 1988, Gaussian, Inc.),
 the Gaussian 86(TM) system (copyright 1986, Carnegie Mellon
 University), and the Gaussian 82(TM) system (copyright 1983,
 Carnegie Mellon University). Gaussian is a federally registered
 trademark of Gaussian, Inc.
  
 This software contains proprietary and confidential information,
 including trade secrets, belonging to Gaussian, Inc.
  
 This software is provided under written license and may be
 used, copied, transmitted, or stored only in accord with that
 written license.
  
 The following legend is applicable only to US Government
 contracts under FAR:
  
                    RESTRICTED RIGHTS LEGEND
  
 Use, reproduction and disclosure by the US Government is
 subject to restrictions as set forth in subparagraphs (a)
 and (c) of the Commercial Computer Software - Restricted
 Rights clause in FAR 52.227-19.
  
 Gaussian, Inc.
 340 Quinnipiac St., Bldg. 40, Wallingford CT 06492
  
  
 ---------------------------------------------------------------
 Warning -- This program may not be used in any manner that
 competes with the business of Gaussian, Inc. or will provide
 assistance to any competitor of Gaussian, Inc.  The licensee
 of this program is prohibited from giving any competitor of
 Gaussian, Inc. access to this program.  By using this program,
 the user acknowledges that Gaussian, Inc. is engaged in the
 business of creating and licensing software in the field of
 computational chemistry and represents and warrants to the
 licensee that it is not a competitor of Gaussian, Inc. and that
 it will not use this program in any manner prohibited above.
 ---------------------------------------------------------------
  

 Cite this work as:
 Gaussian 16, Revision A.03,
 M. J. Frisch, G. W. Trucks, H. B. Schlegel, G. E. Scuseria, 
 M. A. Robb, J. R. Cheeseman, G. Scalmani, V. Barone, 
 G. A. Petersson, H. Nakatsuji, X. Li, M. Caricato, A. V. Marenich, 
 J. Bloino, B. G. Janesko, R. Gomperts, B. Mennucci, H. P. Hratchian, 
 J. V. Ortiz, A. F. Izmaylov, J. L. Sonnenberg, D. Williams-Young, 
 F. Ding, F. Lipparini, F. Egidi, J. Goings, B. Peng, A. Petrone, 
 T. Henderson, D. Ranasinghe, V. G. Zakrzewski, J. Gao, N. Rega, 
 G. Zheng, W. Liang, M. Hada, M. Ehara, K. Toyota, R. Fukuda, 
 J. Hasegawa, M. Ishida, T. Nakajima, Y. Honda, O. Kitao, H. Nakai, 
 T. Vreven, K. Throssell, J. A. Montgomery, Jr., J. E. Peralta, 
 F. Ogliaro, M. J. Bearpark, J. J. Heyd, E. N. Brothers, K. N. Kudin, 
 V. N. Staroverov, T. A. Keith, R. Kobayashi, J. Normand, 
 K. Raghavachari, A. P. Rendell, J. C. Burant, S. S. Iyengar, 
 J. Tomasi, M. Cossi, J. M. Millam, M. Klene, C. Adamo, R. Cammi, 
 J. W. Ochterski, R. L. Martin, K. Morokuma, O. Farkas, 
 J. B. Foresman, and D. J. Fox, Gaussian, Inc., Wallingford CT, 2016.
 
 ******************************************
 Gaussian 16:  ES64L-G16RevA.03 25-Dec-2016
                21-Aug-2026 
 ******************************************
 %chk=bz_SP.chk
 ---------------------------------------------------------------------
 #p b3lyp/6-31g(d) nosymm density=current sp EmpiricalDispersion=GD3BJ
 ---------------------------------------------------------------------
 1/30=1,38=1,172=1/1;
 2/12=2,15=1,17=6,18=5,40=1/2;
 3/5=1,6=6,7=1,11=2,25=1,30=1,74=-5,124=41/1,2,3;
 4//1;
 5/5=2,38=5/2;
 6/7=2,8=2,9=2,10=2,22=-1,28=1/1;
 99/5=1,9=1/99;
 Leave Link    1 at Fri Aug 21 09:57:39 2026, MaxMem=           0 cpu:               0.0 elap:               0.2
 (Enter /sw/cluster/pub/apps//g16/l101.exe)
 ----------------------------------------------
 Generated by extraQ₂ - dispersion correction
 ----------------------------------------------
 Symbolic Z-matrix:
 Charge =  0 Multiplicity = 1
 C                    -1.20872  -0.69786   0. 
 C                    -1.20872   0.69786   0. 
 C                     0.        1.39571   0. 
 C                     1.20872   0.69786   0. 
 C                     1.20872  -0.69786   0. 
 C                     0.       -1.39571   0. 
 H                    -2.14968  -1.24112   0. 
 H                    -2.14968   1.24112   0. 
 H                    0.         2.48224   0. 
 H                     2.14968   1.24112   0. 
 H                     2.14968  -1.24112   0. 
 H                     0.       -2.48224   0. 
 
 ITRead=  0  0  0  0  0  0  0  0  0  0  0  0
 MicOpt= -1 -1 -1 -1 -1 -1 -1 -1 -1 -1 -1 -1
 NAtoms=     12 NQM=       12 NQMF=       0 NMMI=      0 NMMIF=      0
                NMic=       0 NMicF=      0.
                    Isotopes and Nuclear Properties:
 (Nuclear quadrupole moments (NQMom) in fm**2, nuclear magnetic moments (NMagM)
  in nuclear magnetons)

  Atom         1           2           3           4           5           6           7           8           9          10
 IAtWgt=          12          12          12          12          12          12           1           1           1           1
 AtmWgt=  12.0000000  12.0000000  12.0000000  12.0000000  12.0000000  12.0000000   1.0078250   1.0078250   1.0078250   1.0078250
 NucSpn=           0           0           0           0           0           0           1           1           1           1
 AtZEff=  -0.0000000  -0.0000000  -0.0000000  -0.0000000  -0.0000000  -0.0000000  -0.0000000  -0.0000000  -0.0000000  -0.0000000
 NQMom=    0.0000000   0.0000000   0.0000000   0.0000000   0.0000000   0.0000000   0.0000000   0.0000000   0.0000000   0.0000000
 NMagM=    0.0000000   0.0000000   0.0000000   0.0000000   0.0000000   0.0000000   2.7928460   2.7928460   2.7928460   2.7928460
 AtZNuc=   6.0000000   6.0000000   6.0000000   6.0000000   6.0000000   6.0000000   1.0000000   1.0000000   1.0000000   1.0000000

  Atom        11          12
 IAtWgt=           1           1
 AtmWgt=   1.0078250   1.0078250
 NucSpn=           1           1
 AtZEff=  -0.0000000  -0.0000000
 NQMom=    0.0000000   0.0000000
 NMagM=    2.7928460   2.7928460
 AtZNuc=   1.0000000   1.0000000
 Leave Link  101 at Fri Aug 21 09:57:43 2026, MaxMem=   104857600 cpu:               0.0 elap:               0.0
 (Enter /sw/cluster/pub/apps//g16/l202.exe)
                          Input orientation:                          
 ---------------------------------------------------------------------
 Center     Atomic      Atomic             Coordinates (Angstroms)
 Number     Number       Type             X           Y           Z
 ---------------------------------------------------------------------
      1          6           0       -1.208722   -0.697855    0.000000
      2          6           0       -1.208722    0.697857    0.000000
      3          6           0        0.000000    1.395713    0.000000
      4          6           0        1.208722    0.697855    0.000000
      5          6           0        1.208722   -0.697857    0.000000
      6          6           0        0.000000   -1.395713    0.000000
      7          1           0       -2.149681   -1.241116    0.000000
      8          1           0       -2.149681    1.241119    0.000000
      9          1           0       -0.000002    2.482238    0.000000
     10          1           0        2.149681    1.241116    0.000000
     11          1           0        2.149681   -1.241119    0.000000
     12          1           0        0.000002   -2.482238    0.000000
 ---------------------------------------------------------------------
                    Distance matrix (angstroms):
                    1          2          3          4          5
     1  C    0.000000
     2  C    1.395712   0.000000
     3  C    2.417444   1.395712   0.000000
     4  C    2.791423   2.417444   1.395713   0.000000
     5  C    2.417444   2.791425   2.417446   1.395712   0.000000
     6  C    1.395713   2.417446   2.791426   2.417444   1.395712
     7  H    1.086525   2.155231   3.402058   3.877948   3.402058
     8  H    2.155232   1.086525   2.155233   3.402059   3.877950
     9  H    3.402058   2.155231   1.086525   2.155235   3.402061
    10  H    3.877948   3.402058   2.155233   1.086525   2.155231
    11  H    3.402059   3.877950   3.402060   2.155232   1.086525
    12  H    2.155235   3.402061   3.877951   3.402058   2.155231
                    6          7          8          9         10
     6  C    0.000000
     7  H    2.155233   0.000000
     8  H    3.402060   2.482235   0.000000
     9  H    3.877951   4.299359   2.482236   0.000000
    10  H    3.402058   4.964473   4.299362   2.482241   0.000000
    11  H    2.155233   4.299362   4.964476   4.299363   2.482235
    12  H    1.086525   2.482241   4.299363   4.964476   4.299359
                   11         12
    11  H    0.000000
    12  H    2.482236   0.000000
 Symmetry turned off by external request.
 Stoichiometry    C6H6
 Framework group  C2H[SGH(C6H6)]
 Deg. of freedom    11
 Full point group                 C2H     NOp   4
 Rotational constants (GHZ):           5.6939286           5.6939175           2.8469615
 Leave Link  202 at Fri Aug 21 09:57:43 2026, MaxMem=   104857600 cpu:               0.0 elap:               0.0
 (Enter /sw/cluster/pub/apps//g16/l301.exe)
 Standard basis: 6-31G(d) (6D, 7F)
 Ernie: Thresh=  0.10000D-02 Tol=  0.10000D-05 Strict=F.
   102 basis functions,   192 primitive gaussians,   102 cartesian basis functions
    21 alpha electrons       21 beta electrons
       nuclear repulsion energy       203.3121674080 Hartrees.
 IExCor=  402 DFT=T Ex+Corr=B3LYP ExCW=0 ScaHFX=  0.200000
 ScaDFX=  0.800000  0.720000  1.000000  0.810000 ScalE2=  1.000000  1.000000
 IRadAn=      5 IRanWt=     -1 IRanGd=            0 ICorTp=0 IEmpDi=141
 NAtoms=   12 NActive=   12 NUniq=   12 SFac= 1.00D+00 NAtFMM=   60 NAOKFM=F Big=F
 Integral buffers will be    131072 words long.
 Raffenetti 2 integral format.
 Two-electron integral symmetry is turned off.
 R6Disp:  Grimme-D3(BJ) Dispersion energy=       -0.0189075728 Hartrees.
 Nuclear repulsion after empirical dispersion term =      203.2932598352 Hartrees.
 Leave Link  301 at Fri Aug 21 09:57:43 2026, MaxMem=   104857600 cpu:               0.0 elap:               0.0
 (Enter /sw/cluster/pub/apps//g16/l302.exe)
 NPDir=0 NMtPBC=     1 NCelOv=     1 NCel=       1 NClECP=     1 NCelD=      1
         NCelK=      1 NCelE2=     1 NClLst=     1 CellRange=     0.0.
 One-electron integrals computed using PRISM.
 NBasis=   102 RedAO= T EigKep=  5.18D-04  NBF=   102
 NBsUse=   102 1.00D-06 EigRej= -1.00D+00 NBFU=   102
 Precomputing XC quadrature grid using
 IXCGrd= 4 IRadAn=           5 IRanWt=          -1 IRanGd=           0 AccXCQ= 0.00D+00.
 Generated NRdTot=       0 NPtTot=           0 NUsed=           0 NTot=          32
 NSgBfM=   102   102   102   102   102 MxSgAt=    12 MxSgA2=    12.
 Leave Link  302 at Fri Aug 21 09:57:43 2026, MaxMem=   104857600 cpu:               0.1 elap:               0.1
 (Enter /sw/cluster/pub/apps//g16/l303.exe)
 DipDrv:  MaxL=1.
 Leave Link  303 at Fri Aug 21 09:57:43 2026, MaxMem=   104857600 cpu:               0.0 elap:               0.0
 (Enter /sw/cluster/pub/apps//g16/l401.exe)
 ExpMin= 1.61D-01 ExpMax= 3.05D+03 ExpMxC= 4.57D+02 IAcc=3 IRadAn=         5 AccDes= 0.00D+00
 Harris functional with IExCor=  402 and IRadAn=       5 diagonalized for initial guess.
 HarFok:  IExCor=  402 AccDes= 0.00D+00 IRadAn=         5 IDoV= 1 UseB2=F ITyADJ=14
 ICtDFT=  3500011 ScaDFX=  1.000000  1.000000  1.000000  1.000000
 FoFCou: FMM=F IPFlag=           0 FMFlag=      100000 FMFlg1=           0
         NFxFlg=           0 DoJE=T BraDBF=F KetDBF=T FulRan=T
         wScrn=  0.000000 ICntrl=       500 IOpCl=  0 I1Cent=   200000004 NGrid=           0
         NMat0=    1 NMatS0=      1 NMatT0=    0 NMatD0=    1 NMtDS0=    0 NMtDT0=    0
 Symmetry not used in FoFCou.
 Harris En= -232.296925127733    
 JPrj=0 DoOrth=F DoCkMO=F.
 Leave Link  401 at Fri Aug 21 09:57:44 2026, MaxMem=   104857600 cpu:               0.7 elap:               0.8
 (Enter /sw/cluster/pub/apps//g16/l502.exe)
 Keep R1 ints in memory in canonical form, NReq=14725894.
 FoFCou: FMM=F IPFlag=           0 FMFlag=           0 FMFlg1=           0
         NFxFlg=           0 DoJE=F BraDBF=F KetDBF=F FulRan=T
         wScrn=  0.000000 ICntrl=       600 IOpCl=  0 I1Cent=           0 NGrid=           0
         NMat0=    1 NMatS0=   5253 NMatT0=    0 NMatD0=    1 NMtDS0=    0 NMtDT0=    0
 Symmetry not used in FoFCou.
 Two-electron integral symmetry not used.
 Closed shell SCF:
 Using DIIS extrapolation, IDIIS=  1040.
 NGot=   104857600 LenX=    91035519 LenY=    91024674
 Requested convergence on RMS density matrix=1.00D-08 within 128 cycles.
 Requested convergence on MAX density matrix=1.00D-06.
 Requested convergence on             energy=1.00D-06.
 No special actions if energy rises.
 Integral accuracy reduced to 1.0D-05 until final iterations.

 Cycle   1  Pass 0  IDiag  1:
 E= -232.112065749287    
 DIIS: error= 4.80D-02 at cycle   1 NSaved=   1.
 NSaved= 1 IEnMin= 1 EnMin= -232.112065749287     IErMin= 1 ErrMin= 4.80D-02
 ErrMax= 4.80D-02  0.00D+00 EMaxC= 1.00D-01 BMatC= 1.35D-01 BMatP= 1.35D-01
 IDIUse=3 WtCom= 5.20D-01 WtEn= 4.80D-01
 Coeff-Com:  0.100D+01
 Coeff-En:   0.100D+01
 Coeff:      0.100D+01
 Gap=     0.250 Goal=   None    Shift=    0.000
 GapD=    0.250 DampG=1.000 DampE=0.500 DampFc=0.5000 IDamp=-1.
 Damping current iteration by 5.00D-01
 RMSDP=8.40D-03 MaxDP=1.14D-01              OVMax= 1.58D-01

 Cycle   2  Pass 0  IDiag  1:
 E= -232.185941236535     Delta-E=       -0.073875487248 Rises=F Damp=T
 DIIS: error= 8.17D-03 at cycle   2 NSaved=   2.
 NSaved= 2 IEnMin= 2 EnMin= -232.185941236535     IErMin= 2 ErrMin= 8.17D-03
 ErrMax= 8.17D-03  0.00D+00 EMaxC= 1.00D-01 BMatC= 6.52D-03 BMatP= 1.35D-01
 IDIUse=3 WtCom= 9.18D-01 WtEn= 8.17D-02
 Coeff-Com:  0.690D-02 0.993D+00
 Coeff-En:   0.598D-02 0.994D+00
 Coeff:      0.683D-02 0.993D+00
 Gap=     0.253 Goal=   None    Shift=    0.000
 RMSDP=1.76D-03 MaxDP=1.82D-02 DE=-7.39D-02 OVMax= 9.16D-02

 Cycle   3  Pass 0  IDiag  1:
 E= -232.266632370724     Delta-E=       -0.080691134190 Rises=F Damp=F
 DIIS: error= 4.52D-03 at cycle   3 NSaved=   3.
 NSaved= 3 IEnMin= 3 EnMin= -232.266632370724     IErMin= 3 ErrMin= 4.52D-03
 ErrMax= 4.52D-03  0.00D+00 EMaxC= 1.00D-01 BMatC= 1.00D-03 BMatP= 6.52D-03
 IDIUse=3 WtCom= 9.55D-01 WtEn= 4.52D-02
 Coeff-Com: -0.383D-01 0.240D+00 0.799D+00
 Coeff-En:   0.000D+00 0.000D+00 0.100D+01
 Coeff:     -0.366D-01 0.229D+00 0.808D+00
 Gap=     0.250 Goal=   None    Shift=    0.000
 RMSDP=4.36D-04 MaxDP=3.58D-03 DE=-8.07D-02 OVMax= 7.75D-03

 Cycle   4  Pass 0  IDiag  1:
 E= -232.267534079089     Delta-E=       -0.000901708365 Rises=F Damp=F
 DIIS: error= 6.41D-04 at cycle   4 NSaved=   4.
 NSaved= 4 IEnMin= 4 EnMin= -232.267534079089     IErMin= 4 ErrMin= 6.41D-04
 ErrMax= 6.41D-04  0.00D+00 EMaxC= 1.00D-01 BMatC= 3.00D-05 BMatP= 1.00D-03
 IDIUse=3 WtCom= 9.94D-01 WtEn= 6.41D-03
 Coeff-Com: -0.852D-02 0.174D-01 0.182D+00 0.809D+00
 Coeff-En:   0.000D+00 0.000D+00 0.000D+00 0.100D+01
 Coeff:     -0.847D-02 0.173D-01 0.181D+00 0.810D+00
 Gap=     0.250 Goal=   None    Shift=    0.000
 RMSDP=5.63D-05 MaxDP=4.31D-04 DE=-9.02D-04 OVMax= 9.85D-04

 Cycle   5  Pass 0  IDiag  1:
 E= -232.267561212901     Delta-E=       -0.000027133812 Rises=F Damp=F
 DIIS: error= 2.12D-05 at cycle   5 NSaved=   5.
 NSaved= 5 IEnMin= 5 EnMin= -232.267561212901     IErMin= 5 ErrMin= 2.12D-05
 ErrMax= 2.12D-05  0.00D+00 EMaxC= 1.00D-01 BMatC= 2.62D-08 BMatP= 3.00D-05
 IDIUse=1 WtCom= 1.00D+00 WtEn= 0.00D+00
 Coeff-Com: -0.298D-03-0.327D-03 0.654D-02 0.514D-01 0.943D+00
 Coeff:     -0.298D-03-0.327D-03 0.654D-02 0.514D-01 0.943D+00
 Gap=     0.250 Goal=   None    Shift=    0.000
 RMSDP=2.96D-06 MaxDP=2.52D-05 DE=-2.71D-05 OVMax= 3.98D-05

 Initial convergence to 1.0D-05 achieved.  Increase integral accuracy.
 Cycle   6  Pass 1  IDiag  1:
 E= -232.267551645665     Delta-E=        0.000009567236 Rises=F Damp=F
 DIIS: error= 4.56D-06 at cycle   1 NSaved=   1.
 NSaved= 1 IEnMin= 1 EnMin= -232.267551645665     IErMin= 1 ErrMin= 4.56D-06
 ErrMax= 4.56D-06  0.00D+00 EMaxC= 1.00D-01 BMatC= 6.58D-10 BMatP= 6.58D-10
 IDIUse=1 WtCom= 1.00D+00 WtEn= 0.00D+00
 Coeff-Com:  0.100D+01
 Coeff:      0.100D+01
 Gap=     0.250 Goal=   None    Shift=    0.000
 RMSDP=2.96D-06 MaxDP=2.52D-05 DE= 9.57D-06 OVMax= 1.37D-05

 Cycle   7  Pass 1  IDiag  1:
 E= -232.267551646569     Delta-E=       -0.000000000904 Rises=F Damp=F
 DIIS: error= 1.34D-06 at cycle   2 NSaved=   2.
 NSaved= 2 IEnMin= 2 EnMin= -232.267551646569     IErMin= 2 ErrMin= 1.34D-06
 ErrMax= 1.34D-06  0.00D+00 EMaxC= 1.00D-01 BMatC= 1.33D-10 BMatP= 6.58D-10
 IDIUse=1 WtCom= 1.00D+00 WtEn= 0.00D+00
 Coeff-Com:  0.240D+00 0.760D+00
 Coeff:      0.240D+00 0.760D+00
 Gap=     0.250 Goal=   None    Shift=    0.000
 RMSDP=2.09D-07 MaxDP=2.17D-06 DE=-9.04D-10 OVMax= 3.81D-06

 Cycle   8  Pass 1  IDiag  1:
 E= -232.267551646662     Delta-E=       -0.000000000093 Rises=F Damp=F
 DIIS: error= 7.14D-07 at cycle   3 NSaved=   3.
 NSaved= 3 IEnMin= 3 EnMin= -232.267551646662     IErMin= 3 ErrMin= 7.14D-07
 ErrMax= 7.14D-07  0.00D+00 EMaxC= 1.00D-01 BMatC= 4.20D-11 BMatP= 1.33D-10
 IDIUse=1 WtCom= 1.00D+00 WtEn= 0.00D+00
 Coeff-Com: -0.161D-01 0.353D+00 0.663D+00
 Coeff:     -0.161D-01 0.353D+00 0.663D+00
 Gap=     0.250 Goal=   None    Shift=    0.000
 RMSDP=7.34D-08 MaxDP=1.01D-06 DE=-9.32D-11 OVMax= 1.65D-06

 Cycle   9  Pass 1  IDiag  1:
 E= -232.267551646705     Delta-E=       -0.000000000043 Rises=F Damp=F
 DIIS: error= 5.35D-08 at cycle   4 NSaved=   4.
 NSaved= 4 IEnMin= 4 EnMin= -232.267551646705     IErMin= 4 ErrMin= 5.35D-08
 ErrMax= 5.35D-08  0.00D+00 EMaxC= 1.00D-01 BMatC= 2.76D-13 BMatP= 4.20D-11
 IDIUse=1 WtCom= 1.00D+00 WtEn= 0.00D+00
 Coeff-Com: -0.926D-02 0.899D-01 0.195D+00 0.725D+00
 Coeff:     -0.926D-02 0.899D-01 0.195D+00 0.725D+00
 Gap=     0.250 Goal=   None    Shift=    0.000
 RMSDP=6.04D-09 MaxDP=1.46D-07 DE=-4.27D-11 OVMax= 1.84D-07

 SCF Done:  E(RB3LYP) =  -232.267551647     A.U. after    9 cycles
            NFock=  9  Conv=0.60D-08     -V/T= 2.0101
 KE= 2.299434833320D+02 PE=-9.439762642435D+02 EE= 2.784719694296D+02
 Leave Link  502 at Fri Aug 21 09:57:48 2026, MaxMem=   104857600 cpu:               4.5 elap:               4.6
 (Enter /sw/cluster/pub/apps//g16/l601.exe)
 Copying SCF densities to generalized density rwf, IOpCl= 0 IROHF=0.

 **********************************************************************

            Population analysis using the SCF density.

 **********************************************************************

 Alpha  occ. eigenvalues --  -10.18744 -10.18717 -10.18717 -10.18662 -10.18662
 Alpha  occ. eigenvalues --  -10.18635  -0.84676  -0.74006  -0.74006  -0.59763
 Alpha  occ. eigenvalues --   -0.59763  -0.51884  -0.45921  -0.43833  -0.41736
 Alpha  occ. eigenvalues --   -0.41736  -0.35968  -0.34026  -0.34026  -0.24639
 Alpha  occ. eigenvalues --   -0.24639
 Alpha virt. eigenvalues --    0.00383   0.00383   0.09085   0.14481   0.14481
 Alpha virt. eigenvalues --    0.16442   0.18213   0.18213   0.19059   0.30305
 Alpha virt. eigenvalues --    0.30305   0.31963   0.31963   0.47465   0.52729
 Alpha virt. eigenvalues --    0.55011   0.55056   0.56483   0.59251   0.60193
 Alpha virt. eigenvalues --    0.60193   0.60254   0.60254   0.62697   0.62697
 Alpha virt. eigenvalues --    0.66764   0.66764   0.74506   0.84029   0.84029
 Alpha virt. eigenvalues --    0.84169   0.86505   0.86505   0.93944   0.93944
 Alpha virt. eigenvalues --    0.94093   0.95875   1.08288   1.08288   1.14297
 Alpha virt. eigenvalues --    1.14297   1.20178   1.26191   1.39590   1.43703
 Alpha virt. eigenvalues --    1.43703   1.48729   1.48729   1.51551   1.51551
 Alpha virt. eigenvalues --    1.75708   1.79066   1.85799   1.89684   1.97447
 Alpha virt. eigenvalues --    1.97447   2.06750   2.06750   2.15231   2.15232
 Alpha virt. eigenvalues --    2.15575   2.15575   2.31041   2.31041   2.32285
 Alpha virt. eigenvalues --    2.54643   2.54643   2.65871   2.70749   2.70749
 Alpha virt. eigenvalues --    2.72297   2.72297   2.76071   3.01807   3.41322
 Alpha virt. eigenvalues --    4.08636   4.11810   4.11810   4.33065   4.33065
 Alpha virt. eigenvalues --    4.66681
          Condensed to atoms (all electrons):
               1          2          3          4          5          6
     1  C    4.848238   0.551862  -0.031917  -0.041106  -0.031917   0.551861
     2  C    0.551862   4.848238   0.551861  -0.031917  -0.041106  -0.031917
     3  C   -0.031917   0.551861   4.848237   0.551861  -0.031917  -0.041106
     4  C   -0.041106  -0.031917   0.551861   4.848238   0.551862  -0.031917
     5  C   -0.031917  -0.041106  -0.031917   0.551862   4.848238   0.551861
     6  C    0.551861  -0.031917  -0.041106  -0.031917   0.551861   4.848237
     7  H    0.358957  -0.043877   0.004809   0.000584   0.004809  -0.043876
     8  H   -0.043876   0.358957  -0.043876   0.004809   0.000584   0.004809
     9  H    0.004809  -0.043877   0.358957  -0.043877   0.004809   0.000584
    10  H    0.000584   0.004809  -0.043876   0.358957  -0.043877   0.004809
    11  H    0.004809   0.000584   0.004809  -0.043876   0.358957  -0.043876
    12  H   -0.043877   0.004809   0.000584   0.004809  -0.043877   0.358957
               7          8          9         10         11         12
     1  C    0.358957  -0.043876   0.004809   0.000584   0.004809  -0.043877
     2  C   -0.043877   0.358957  -0.043877   0.004809   0.000584   0.004809
     3  C    0.004809  -0.043876   0.358957  -0.043876   0.004809   0.000584
     4  C    0.000584   0.004809  -0.043877   0.358957  -0.043876   0.004809
     5  C    0.004809   0.000584   0.004809  -0.043877   0.358957  -0.043877
     6  C   -0.043876   0.004809   0.000584   0.004809  -0.043876   0.358957
     7  H    0.602339  -0.005911  -0.000183   0.000016  -0.000183  -0.005911
     8  H   -0.005911   0.602339  -0.005911  -0.000183   0.000016  -0.000183
     9  H   -0.000183  -0.005911   0.602340  -0.005911  -0.000183   0.000016
    10  H    0.000016  -0.000183  -0.005911   0.602339  -0.005911  -0.000183
    11  H   -0.000183   0.000016  -0.000183  -0.005911   0.602339  -0.005911
    12  H   -0.005911  -0.000183   0.000016  -0.000183  -0.005911   0.602340
 Mulliken charges:
               1
     1  C   -0.128429
     2  C   -0.128428
     3  C   -0.128427
     4  C   -0.128429
     5  C   -0.128428
     6  C   -0.128427
     7  H    0.128428
     8  H    0.128428
     9  H    0.128427
    10  H    0.128428
    11  H    0.128428
    12  H    0.128427
 Sum of Mulliken charges =  -0.00000
 Mulliken charges with hydrogens summed into heavy atoms:
               1
     1  C   -0.000001
     2  C   -0.000000
     3  C    0.000001
     4  C   -0.000001
     5  C   -0.000000
     6  C    0.000001
 Electronic spatial extent (au):  <R**2>=            457.8396
 Charge=             -0.0000 electrons
 Dipole moment (field-independent basis, Debye):
    X=             -0.0000    Y=             -0.0000    Z=              0.0000  Tot=              0.0000
 Quadrupole moment (field-independent basis, Debye-Ang):
   XX=            -31.4065   YY=            -31.4065   ZZ=            -38.5859
   XY=             -0.0000   XZ=             -0.0000   YZ=              0.0000
 Traceless Quadrupole moment (field-independent basis, Debye-Ang):
   XX=              2.3932   YY=              2.3931   ZZ=             -4.7863
   XY=             -0.0000   XZ=             -0.0000   YZ=              0.0000
 Octapole moment (field-independent basis, Debye-Ang**2):
  XXX=             -0.0000  YYY=             -0.0000  ZZZ=              0.0000  XYY=             -0.0000
  XXY=              0.0000  XXZ=              0.0000  XZZ=             -0.0000  YZZ=             -0.0000
  YYZ=              0.0000  XYZ=              0.0000
 Hexadecapole moment (field-independent basis, Debye-Ang**3):
 XXXX=           -269.8869 YYYY=           -269.8872 ZZZZ=            -40.0251 XXXY=              0.0001
 XXXZ=             -0.0000 YYYX=              0.0000 YYYZ=              0.0000 ZZZX=             -0.0000
 ZZZY=              0.0000 XXYY=            -89.9624 XXZZ=            -60.2905 YYZZ=            -60.2906
 XXYZ=             -0.0000 YYXZ=             -0.0000 ZZXY=              0.0000
 N-N= 2.032932598352D+02 E-N=-9.439762693720D+02  KE= 2.299434833320D+02
 No NMR shielding tensors so no spin-rotation constants.
 Leave Link  601 at Fri Aug 21 09:57:48 2026, MaxMem=   104857600 cpu:               0.0 elap:               0.0
 (Enter /sw/cluster/pub/apps//g16/l9999.exe)
 1\1\GINC-N05\SP\RB3LYP\6-31G(d)\C6H6\UNKNOWN\21-Aug-2026\0\\#p b3lyp/6
 -31g(d) nosymm density=current sp EmpiricalDispersion=GD3BJ\\Generated
  by extraQ₂ - dispersion correction\\0,1\C,0,-1.208722,-0.697855,0.\
 C,0,-1.208722,0.697857,0.\C,0,0.,1.395713,0.\C,0,1.208722,0.697855,0.\
 C,0,1.208722,-0.697857,0.\C,0,0.,-1.395713,0.\H,0,-2.149681,-1.241116,
 0.\H,0,-2.149681,1.241119,0.\H,0,-0.000002,2.482238,0.\H,0,2.149681,1.
 241116,0.\H,0,2.149681,-1.241119,0.\H,0,0.000002,-2.482238,0.\\Version
 =ES64L-G16RevA.03\HF=-232.2675516\RMSD=6.042e-09\Dipole=0.,0.,0.\Quadr
 upole=1.7792597,1.7792387,-3.5584984,-0.0000131,0.,0.\PG=C02H [SGH(C6H
 6)]\\@


 "THE ACADEMIC HIERARCHY"


 THE PRESIDENT:
   LEAPS TALL BUILDINGS IN A SINGLE BOUND,
     IS MORE POWERFUL THAN A LOCOMOTIVE,
       IS FASTER THAN A SPEEDING BULLET,
         WALKS ON WATER,
           GIVES POLICY TO GOD.

 THE VICE PRESIDENT FOR ACADEMIC AFFAIRS:
   LEAPS SHORT BUILDINGS IN A SINGLE BOUND,
     IS MORE POWERFUL THAN A SWITCH ENGINE,
       IS JUST AS FAST AS A SPEEDING BULLET,
         WALKS ON WATER IF SEA IS CALM,
           TALKS WITH GOD.

 PROFESSOR:
   LEAPS SHORT BUILDINGS WITH A RUNNING START AND FAVORABLE WINDS,
     IS ALMOST AS POWERFUL AS A SWITCH ENGINE,
       CAN FIRE A SPEEDING BULLET,
         WALKS ON WATER IN AN INDOOR SWIMMING POOL,
          TALKS WITH GOD IF SPECIAL REQUEST IS APPROVED.

 ASSOCIATE PROFESSOR:
   BARELY CLEARS A QUONSET HUT,
     LOSES TUG OF WAR WITH LOCOMOTIVE,
       MISFIRES FREQUENTLY,
         SWIMS WELL,
           IS OCCASIONALLY ADDRESSED BY GOD.

 ASSISTANT PROFESSOR:
   MAKES HIGH MARKS ON WALLS WHEN TRYING TO LEAP TALL BUILDINGS,
     IS RUN OVER BY LOCOMOTIVES,
       CAN SOMETIMES HANDLE A GUN WITHOUT INFLICTING SELF INJURY,
         DOG PADDLES,
           TALKS TO ANIMALS.

 GRADUATE STUDENT:
   RUNS INTO BUILDINGS,
     RECOGNIZES LOCOMOTIVES TWO OUT OF THREE TIMES,
       IS NOT ISSUED AMMUNITION,
         CAN STAY AFLOAT WITH A LIFE JACKET,
           TALKS TO WALLS.

 UNDERGRADUATE AND WORK STUDY STUDENT:
   FALLS OVER DOORSTEP WHEN TRYING TO ENTER BUILDINGS,
     SAYS, "LOOK AT THE CHOO-CHOO,"
       WETS HIMSELF WITH A WATER PISTOL,
        PLAYS IN MUD PUDDLES,
          MUMBLES TO HIMSELF.

 DEPARTMENT SECRETARY:
   LIFTS TALL BUILDINGS AND WALKS UNDER THEM,
     KICKS LOCOMOTIVES OFF THE TRACKS,
       CATCHES SPEEDING BULLETS IN HER TEETH AND EATS THEM,
         FREEZES WATER WITH A SINGLE GLANCE,
           IS GOD.
 Job cpu time:       0 days  0 hours  0 minutes  5.5 seconds.
 Elapsed time:       0 days  0 hours  0 minutes  5.8 seconds.
 File lengths (MBytes):  RWF=     10 Int=      0 D2E=      0 Chk=      2 Scr=      1
 Normal termination of Gaussian 16 at Fri Aug 21 09:57:49 2026.
