%chk=bz_SP.chk
#p b3lyp/6-31g(d) nosymm density=current sp EmpiricalDispersion=GD3BJ

Generated by extraQ₂ - dispersion correction

0 1
C        -1.20872200      -0.69785500       0.00000000
C        -1.20872200       0.69785700       0.00000000
C         0.00000000       1.39571300       0.00000000
C         1.20872200       0.69785500       0.00000000
C         1.20872200      -0.69785700       0.00000000
C         0.00000000      -1.39571300       0.00000000
H        -2.14968100      -1.24111600       0.00000000
H        -2.14968100       1.24111900       0.00000000
H        -0.00000200       2.48223800       0.00000000
H         2.14968100       1.24111600       0.00000000
H         2.14968100      -1.24111900       0.00000000
H         0.00000200      -2.48223800       0.00000000



