53
Generated from .fchk
C -0.828800 1.096698 1.400937
C 0.828882 -1.096888 1.400783
H -0.702523 -0.509485 2.800948
H 0.702750 0.509223 2.800917
C -0.194043 1.751846 0.176961
C 2.137615 -0.575761 0.811649
C 2.241163 -0.904318 -0.547120
C -1.035632 1.634959 -0.940875
C -2.241153 0.904341 -0.546936
C 1.035566 -1.634778 -0.941126
C 0.194031 -1.751794 0.176735
C -2.137513 0.575564 0.811773
C -3.176871 -0.080266 1.451191
C -0.986794 -2.470886 0.081287
C -4.314039 -0.427961 0.723397
C -1.340057 -3.044871 -1.138129
C -0.513324 -2.909567 -2.251425
C -4.408673 -0.115344 -0.631179
C -3.374663 0.556227 -1.274659
C 0.683173 -2.207909 -2.159149
H 1.331142 -2.117960 -3.022470
H -3.457199 0.803534 -2.325931
H -5.297320 -0.392103 -1.184682
H -0.802077 -3.360776 -3.192581
H -5.131124 -0.941464 1.214728
H -2.267122 -3.597752 -1.220985
H -3.118689 -0.326488 2.505435
H -1.641838 -2.584946 0.935169
C -0.683350 2.208324 -2.158818
C 3.374661 -0.556166 -1.274843
C 0.513091 2.910089 -2.251041
C 4.408757 0.115213 -0.631299
C 1.339873 3.045263 -1.137769
C 4.314218 0.427598 0.723336
C 3.177059 0.079867 1.451129
C 0.986718 2.471044 0.081571
H 3.118958 0.325904 2.505421
H 1.641804 2.585009 0.935434
H 2.266890 3.598232 -1.220576
H 5.131371 0.940947 1.214716
H 0.801760 3.361475 -3.192139
H 5.297396 0.392004 -1.184799
H -1.331357 2.118469 -3.022120
H 3.457128 -0.803309 -2.326159
C -1.152915 2.186684 2.453078
H -1.799819 2.953558 2.026386
H -1.662059 1.752030 3.316013
H -0.237679 2.666533 2.804569
C 0.000078 -0.000102 2.135544
C 1.152941 -2.187009 2.452781
H 1.662060 -1.752483 3.315797
H 0.237692 -2.666900 2.804182
H 1.799855 -2.953839 2.026021