 Entering Gaussian System, Link 0=g16
 Initial command:
 /sw/cluster/pub/apps//g16/l1.exe "/data/mmaximo/44348/Gau-1913231.inp" -scrdir="/data/mmaximo/44348/"
 Entering Link 1 = /sw/cluster/pub/apps//g16/l1.exe PID=   1913232.
  
 Copyright (c) 1988,1990,1992,1993,1995,1998,2003,2009,2016,
            Gaussian, Inc.  All Rights Reserved.
  
 This is part of the Gaussian(R) 16 program.  It is based on
 the Gaussian(R) 09 system (copyright 2009, Gaussian, Inc.),
 the Gaussian(R) 03 system (copyright 2003, Gaussian, Inc.),
 the Gaussian(R) 98 system (copyright 1998, Gaussian, Inc.),
 the Gaussian(R) 94 system (copyright 1995, Gaussian, Inc.),
 the Gaussian 92(TM) system (copyright 1992, Gaussian, Inc.),
 the Gaussian 90(TM) system (copyright 1990, Gaussian, Inc.),
 the Gaussian 88(TM) system (copyright 1988, Gaussian, Inc.),
 the Gaussian 86(TM) system (copyright 1986, Carnegie Mellon
 University), and the Gaussian 82(TM) system (copyright 1983,
 Carnegie Mellon University). Gaussian is a federally registered
 trademark of Gaussian, Inc.
  
 This software contains proprietary and confidential information,
 including trade secrets, belonging to Gaussian, Inc.
  
 This software is provided under written license and may be
 used, copied, transmitted, or stored only in accord with that
 written license.
  
 The following legend is applicable only to US Government
 contracts under FAR:
  
                    RESTRICTED RIGHTS LEGEND
  
 Use, reproduction and disclosure by the US Government is
 subject to restrictions as set forth in subparagraphs (a)
 and (c) of the Commercial Computer Software - Restricted
 Rights clause in FAR 52.227-19.
  
 Gaussian, Inc.
 340 Quinnipiac St., Bldg. 40, Wallingford CT 06492
  
  
 ---------------------------------------------------------------
 Warning -- This program may not be used in any manner that
 competes with the business of Gaussian, Inc. or will provide
 assistance to any competitor of Gaussian, Inc.  The licensee
 of this program is prohibited from giving any competitor of
 Gaussian, Inc. access to this program.  By using this program,
 the user acknowledges that Gaussian, Inc. is engaged in the
 business of creating and licensing software in the field of
 computational chemistry and represents and warrants to the
 licensee that it is not a competitor of Gaussian, Inc. and that
 it will not use this program in any manner prohibited above.
 ---------------------------------------------------------------
  

 Cite this work as:
 Gaussian 16, Revision A.03,
 M. J. Frisch, G. W. Trucks, H. B. Schlegel, G. E. Scuseria, 
 M. A. Robb, J. R. Cheeseman, G. Scalmani, V. Barone, 
 G. A. Petersson, H. Nakatsuji, X. Li, M. Caricato, A. V. Marenich, 
 J. Bloino, B. G. Janesko, R. Gomperts, B. Mennucci, H. P. Hratchian, 
 J. V. Ortiz, A. F. Izmaylov, J. L. Sonnenberg, D. Williams-Young, 
 F. Ding, F. Lipparini, F. Egidi, J. Goings, B. Peng, A. Petrone, 
 T. Henderson, D. Ranasinghe, V. G. Zakrzewski, J. Gao, N. Rega, 
 G. Zheng, W. Liang, M. Hada, M. Ehara, K. Toyota, R. Fukuda, 
 J. Hasegawa, M. Ishida, T. Nakajima, Y. Honda, O. Kitao, H. Nakai, 
 T. Vreven, K. Throssell, J. A. Montgomery, Jr., J. E. Peralta, 
 F. Ogliaro, M. J. Bearpark, J. J. Heyd, E. N. Brothers, K. N. Kudin, 
 V. N. Staroverov, T. A. Keith, R. Kobayashi, J. Normand, 
 K. Raghavachari, A. P. Rendell, J. C. Burant, S. S. Iyengar, 
 J. Tomasi, M. Cossi, J. M. Millam, M. Klene, C. Adamo, R. Cammi, 
 J. W. Ochterski, R. L. Martin, K. Morokuma, O. Farkas, 
 J. B. Foresman, and D. J. Fox, Gaussian, Inc., Wallingford CT, 2016.
 
 ******************************************
 Gaussian 16:  ES64L-G16RevA.03 25-Dec-2016
                17-Mar-2026 
 ******************************************
 %chk=f2-def2TZVP_SP.chk
 -------------------------------------------
 #p B3LYP/def2TZVP nosymm density=current sp
 -------------------------------------------
 1/30=1,38=1,172=1/1;
 2/12=2,15=1,17=6,18=5,40=1/2;
 3/5=44,7=101,11=2,25=1,30=1,74=-5/1,2,3;
 4//1;
 5/5=2,38=5/2;
 6/7=2,8=2,9=2,10=2,22=-1,28=1/1;
 99/5=1,9=1/99;
 Leave Link    1 at Tue Mar 17 12:08:21 2026, MaxMem=           0 cpu:               0.0 elap:               0.0
 (Enter /sw/cluster/pub/apps//g16/l101.exe)
 ----------------------
 Generated by extraQ₂
 ----------------------
 Symbolic Z-matrix:
 Charge =  0 Multiplicity = 1
 C                    -0.98113   1.39302  -0.97424 
 C                    -0.26157   1.02435   1.65369 
 H                    -1.99058   1.99616   0.80706 
 H                    -0.49402   2.83729   0.55138 
 C                     0.29782   0.79503  -1.55472 
 C                     1.26177   1.12802   1.64171 
 C                     1.8504   -0.14416   1.64171 
 C                     0.04931  -0.47556  -2.09816 
 C                    -1.36511  -0.79982  -1.90696 
 C                     0.78546  -1.14825   1.64171 
 C                    -0.45469  -0.48984   1.64042 
 C                    -1.98181   0.27268  -1.24791 
 C                    -3.34222   0.24139  -0.98802 
 C                    -1.62771  -1.22413   1.71398 
 C                    -4.08361  -0.87621  -1.36886 
 C                    -1.56096  -2.61515   1.75691 
 C                    -0.32966  -3.26685   1.73696 
 C                    -3.46614  -1.94885  -2.00897 
 C                    -2.10358  -1.9164   -2.2858 
 C                     0.85258  -2.53745   1.68462 
 H                     1.80858  -3.04671   1.68511 
 H                    -1.63057  -2.74978  -2.79066 
 H                    -4.05381  -2.81108  -2.29853 
 H                    -0.29422  -4.3487    1.77003 
 H                    -5.14742  -0.90977  -1.16909 
 H                    -2.47478  -3.19379   1.80267 
 H                    -3.83671   1.07027  -0.49418 
 H                    -2.5929   -0.73486   1.72887 
 C                     1.06264  -1.18813  -2.7319 
 C                     3.23443  -0.28338   1.66764 
 C                     2.3267   -0.6179   -2.82909 
 C                     4.02614   0.85951   1.70305 
 C                     2.57041   0.65152  -2.3091 
 C                     3.44195   2.12442   1.72 
 C                     2.05493   2.26273   1.69209 
 C                     1.55545   1.36469  -1.67467 
 H                     1.61418   3.25313   1.70963 
 H                     1.76318   2.34889  -1.27543 
 H                     3.55769   1.08725  -2.39512 
 H                     4.06988   3.00585   1.75864 
 H                     3.12612  -1.16009  -3.31868 
 H                     5.10483   0.76659   1.72419 
 H                     0.87248  -2.16864  -3.1511 
 H                     3.69402  -1.26414   1.66258 
 C                    -1.38485   2.63786  -1.8034 
 H                    -1.50384   2.37778  -2.85547 
 H                    -2.33002   3.0514   -1.44499 
 H                    -0.62263   3.41538  -1.72626 
 C                    -0.94719   1.84261   0.51786 
 C                    -0.79123   1.59496   2.99307 
 H                    -0.61167   2.67058   3.05319 
 H                    -1.86524   1.4239    3.08637 
 H                    -0.29367   1.11867   3.83819 
 
 ITRead=  0  0  0  0  0  0  0  0  0  0  0  0  0  0  0  0  0  0  0  0
 ITRead=  0  0  0  0  0  0  0  0  0  0  0  0  0  0  0  0  0  0  0  0
 ITRead=  0  0  0  0  0  0  0  0  0  0  0  0  0
 MicOpt= -1 -1 -1 -1 -1 -1 -1 -1 -1 -1 -1 -1 -1 -1 -1 -1 -1 -1 -1 -1
 MicOpt= -1 -1 -1 -1 -1 -1 -1 -1 -1 -1 -1 -1 -1 -1 -1 -1 -1 -1 -1 -1
 MicOpt= -1 -1 -1 -1 -1 -1 -1 -1 -1 -1 -1 -1 -1
 NAtoms=     53 NQM=       53 NQMF=       0 NMMI=      0 NMMIF=      0
                NMic=       0 NMicF=      0.
                    Isotopes and Nuclear Properties:
 (Nuclear quadrupole moments (NQMom) in fm**2, nuclear magnetic moments (NMagM)
  in nuclear magnetons)

  Atom         1           2           3           4           5           6           7           8           9          10
 IAtWgt=          12          12           1           1          12          12          12          12          12          12
 AtmWgt=  12.0000000  12.0000000   1.0078250   1.0078250  12.0000000  12.0000000  12.0000000  12.0000000  12.0000000  12.0000000
 NucSpn=           0           0           1           1           0           0           0           0           0           0
 AtZEff=  -0.0000000  -0.0000000  -0.0000000  -0.0000000  -0.0000000  -0.0000000  -0.0000000  -0.0000000  -0.0000000  -0.0000000
 NQMom=    0.0000000   0.0000000   0.0000000   0.0000000   0.0000000   0.0000000   0.0000000   0.0000000   0.0000000   0.0000000
 NMagM=    0.0000000   0.0000000   2.7928460   2.7928460   0.0000000   0.0000000   0.0000000   0.0000000   0.0000000   0.0000000
 AtZNuc=   6.0000000   6.0000000   1.0000000   1.0000000   6.0000000   6.0000000   6.0000000   6.0000000   6.0000000   6.0000000

  Atom        11          12          13          14          15          16          17          18          19          20
 IAtWgt=          12          12          12          12          12          12          12          12          12          12
 AtmWgt=  12.0000000  12.0000000  12.0000000  12.0000000  12.0000000  12.0000000  12.0000000  12.0000000  12.0000000  12.0000000
 NucSpn=           0           0           0           0           0           0           0           0           0           0
 AtZEff=  -0.0000000  -0.0000000  -0.0000000  -0.0000000  -0.0000000  -0.0000000  -0.0000000  -0.0000000  -0.0000000  -0.0000000
 NQMom=    0.0000000   0.0000000   0.0000000   0.0000000   0.0000000   0.0000000   0.0000000   0.0000000   0.0000000   0.0000000
 NMagM=    0.0000000   0.0000000   0.0000000   0.0000000   0.0000000   0.0000000   0.0000000   0.0000000   0.0000000   0.0000000
 AtZNuc=   6.0000000   6.0000000   6.0000000   6.0000000   6.0000000   6.0000000   6.0000000   6.0000000   6.0000000   6.0000000

  Atom        21          22          23          24          25          26          27          28          29          30
 IAtWgt=           1           1           1           1           1           1           1           1          12          12
 AtmWgt=   1.0078250   1.0078250   1.0078250   1.0078250   1.0078250   1.0078250   1.0078250   1.0078250  12.0000000  12.0000000
 NucSpn=           1           1           1           1           1           1           1           1           0           0
 AtZEff=  -0.0000000  -0.0000000  -0.0000000  -0.0000000  -0.0000000  -0.0000000  -0.0000000  -0.0000000  -0.0000000  -0.0000000
 NQMom=    0.0000000   0.0000000   0.0000000   0.0000000   0.0000000   0.0000000   0.0000000   0.0000000   0.0000000   0.0000000
 NMagM=    2.7928460   2.7928460   2.7928460   2.7928460   2.7928460   2.7928460   2.7928460   2.7928460   0.0000000   0.0000000
 AtZNuc=   1.0000000   1.0000000   1.0000000   1.0000000   1.0000000   1.0000000   1.0000000   1.0000000   6.0000000   6.0000000

  Atom        31          32          33          34          35          36          37          38          39          40
 IAtWgt=          12          12          12          12          12          12           1           1           1           1
 AtmWgt=  12.0000000  12.0000000  12.0000000  12.0000000  12.0000000  12.0000000   1.0078250   1.0078250   1.0078250   1.0078250
 NucSpn=           0           0           0           0           0           0           1           1           1           1
 AtZEff=  -0.0000000  -0.0000000  -0.0000000  -0.0000000  -0.0000000  -0.0000000  -0.0000000  -0.0000000  -0.0000000  -0.0000000
 NQMom=    0.0000000   0.0000000   0.0000000   0.0000000   0.0000000   0.0000000   0.0000000   0.0000000   0.0000000   0.0000000
 NMagM=    0.0000000   0.0000000   0.0000000   0.0000000   0.0000000   0.0000000   2.7928460   2.7928460   2.7928460   2.7928460
 AtZNuc=   6.0000000   6.0000000   6.0000000   6.0000000   6.0000000   6.0000000   1.0000000   1.0000000   1.0000000   1.0000000

  Atom        41          42          43          44          45          46          47          48          49          50
 IAtWgt=           1           1           1           1          12           1           1           1          12          12
 AtmWgt=   1.0078250   1.0078250   1.0078250   1.0078250  12.0000000   1.0078250   1.0078250   1.0078250  12.0000000  12.0000000
 NucSpn=           1           1           1           1           0           1           1           1           0           0
 AtZEff=  -0.0000000  -0.0000000  -0.0000000  -0.0000000  -0.0000000  -0.0000000  -0.0000000  -0.0000000  -0.0000000  -0.0000000
 NQMom=    0.0000000   0.0000000   0.0000000   0.0000000   0.0000000   0.0000000   0.0000000   0.0000000   0.0000000   0.0000000
 NMagM=    2.7928460   2.7928460   2.7928460   2.7928460   0.0000000   2.7928460   2.7928460   2.7928460   0.0000000   0.0000000
 AtZNuc=   1.0000000   1.0000000   1.0000000   1.0000000   6.0000000   1.0000000   1.0000000   1.0000000   6.0000000   6.0000000

  Atom        51          52          53
 IAtWgt=           1           1           1
 AtmWgt=   1.0078250   1.0078250   1.0078250
 NucSpn=           1           1           1
 AtZEff=  -0.0000000  -0.0000000  -0.0000000
 NQMom=    0.0000000   0.0000000   0.0000000
 NMagM=    2.7928460   2.7928460   2.7928460
 AtZNuc=   1.0000000   1.0000000   1.0000000
 Leave Link  101 at Tue Mar 17 12:08:21 2026, MaxMem=   104857600 cpu:               0.0 elap:               0.0
 (Enter /sw/cluster/pub/apps//g16/l202.exe)
 Symmetry turned off by external request.
 Stoichiometry    C29H24
 Framework group  C1[X(C29H24)]
 Deg. of freedom   153
 Full point group                 C1      NOp   1
                          Input orientation:                          
 ---------------------------------------------------------------------
 Center     Atomic      Atomic             Coordinates (Angstroms)
 Number     Number       Type             X           Y           Z
 ---------------------------------------------------------------------
      1          6           0       -0.981130    1.393024   -0.974243
      2          6           0       -0.261566    1.024349    1.653691
      3          1           0       -1.990582    1.996162    0.807058
      4          1           0       -0.494022    2.837291    0.551383
      5          6           0        0.297818    0.795035   -1.554721
      6          6           0        1.261767    1.128017    1.641705
      7          6           0        1.850396   -0.144163    1.641705
      8          6           0        0.049305   -0.475557   -2.098162
      9          6           0       -1.365110   -0.799815   -1.906963
     10          6           0        0.785459   -1.148248    1.641705
     11          6           0       -0.454694   -0.489836    1.640420
     12          6           0       -1.981813    0.272682   -1.247908
     13          6           0       -3.342222    0.241390   -0.988023
     14          6           0       -1.627705   -1.224128    1.713982
     15          6           0       -4.083609   -0.876213   -1.368858
     16          6           0       -1.560962   -2.615146    1.756911
     17          6           0       -0.329659   -3.266849    1.736958
     18          6           0       -3.466138   -1.948847   -2.008973
     19          6           0       -2.103579   -1.916398   -2.285797
     20          6           0        0.852580   -2.537454    1.684621
     21          1           0        1.808578   -3.046712    1.685114
     22          1           0       -1.630574   -2.749779   -2.790661
     23          1           0       -4.053813   -2.811083   -2.298527
     24          1           0       -0.294225   -4.348696    1.770026
     25          1           0       -5.147417   -0.909770   -1.169090
     26          1           0       -2.474783   -3.193791    1.802668
     27          1           0       -3.836709    1.070268   -0.494176
     28          1           0       -2.592899   -0.734857    1.728866
     29          6           0        1.062639   -1.188130   -2.731904
     30          6           0        3.234431   -0.283379    1.667643
     31          6           0        2.326699   -0.617902   -2.829088
     32          6           0        4.026142    0.859509    1.703048
     33          6           0        2.570406    0.651521   -2.309099
     34          6           0        3.441948    2.124416    1.719996
     35          6           0        2.054930    2.262733    1.692088
     36          6           0        1.555454    1.364688   -1.674668
     37          1           0        1.614184    3.253125    1.709630
     38          1           0        1.763182    2.348894   -1.275427
     39          1           0        3.557693    1.087246   -2.395116
     40          1           0        4.069882    3.005849    1.758639
     41          1           0        3.126124   -1.160085   -3.318680
     42          1           0        5.104833    0.766594    1.724190
     43          1           0        0.872484   -2.168638   -3.151097
     44          1           0        3.694024   -1.264141    1.662584
     45          6           0       -1.384849    2.637863   -1.803402
     46          1           0       -1.503836    2.377785   -2.855471
     47          1           0       -2.330015    3.051398   -1.444989
     48          1           0       -0.622634    3.415382   -1.726264
     49          6           0       -0.947189    1.842606    0.517863
     50          6           0       -0.791229    1.594964    2.993069
     51          1           0       -0.611672    2.670583    3.053194
     52          1           0       -1.865237    1.423904    3.086370
     53          1           0       -0.293671    1.118675    3.838193
 ---------------------------------------------------------------------
 Rotational constants (GHZ):           0.2623346           0.1799730           0.1614948
 Leave Link  202 at Tue Mar 17 12:08:21 2026, MaxMem=   104857600 cpu:               0.0 elap:               0.0
 (Enter /sw/cluster/pub/apps//g16/l301.exe)
 Standard basis: def2TZVP (5D, 7F)
 Ernie: Thresh=  0.10000D-02 Tol=  0.10000D-05 Strict=F.
  1043 basis functions,  1671 primitive gaussians,  1188 cartesian basis functions
    99 alpha electrons       99 beta electrons
       nuclear repulsion energy      2753.9667973875 Hartrees.
 IExCor=  402 DFT=T Ex+Corr=B3LYP ExCW=0 ScaHFX=  0.200000
 ScaDFX=  0.800000  0.720000  1.000000  0.810000 ScalE2=  1.000000  1.000000
 IRadAn=      5 IRanWt=     -1 IRanGd=            0 ICorTp=0 IEmpDi=  4
 NAtoms=   53 NActive=   53 NUniq=   53 SFac= 1.00D+00 NAtFMM=   60 NAOKFM=F Big=F
 Integral buffers will be    131072 words long.
 Raffenetti 2 integral format.
 Two-electron integral symmetry is turned off.
 Leave Link  301 at Tue Mar 17 12:08:21 2026, MaxMem=   104857600 cpu:               0.0 elap:               0.0
 (Enter /sw/cluster/pub/apps//g16/l302.exe)
 NPDir=0 NMtPBC=     1 NCelOv=     1 NCel=       1 NClECP=     1 NCelD=      1
         NCelK=      1 NCelE2=     1 NClLst=     1 CellRange=     0.0.
 One-electron integrals computed using PRISM.
   1 Symmetry operations used in ECPInt.
 ECPInt:  NShTT=   86320 NPrTT=  263160 LenC2=   77568 LenP2D=  165812.
 LDataN:  DoStor=T MaxTD1= 6 Len=  172
 NBasis=  1043 RedAO= T EigKep=  3.80D-06  NBF=  1043
 NBsUse=  1043 1.00D-06 EigRej= -1.00D+00 NBFU=  1043
 Precomputing XC quadrature grid using
 IXCGrd= 4 IRadAn=           5 IRanWt=          -1 IRanGd=           0 AccXCQ= 0.00D+00.
 Generated NRdTot=       0 NPtTot=           0 NUsed=           0 NTot=          32
 NSgBfM=  1173  1169  1171  1172  1173 MxSgAt=    53 MxSgA2=    53.
 Leave Link  302 at Tue Mar 17 12:08:23 2026, MaxMem=   104857600 cpu:               2.2 elap:               2.3
 (Enter /sw/cluster/pub/apps//g16/l303.exe)
 DipDrv:  MaxL=1.
 Leave Link  303 at Tue Mar 17 12:08:24 2026, MaxMem=   104857600 cpu:               0.1 elap:               0.1
 (Enter /sw/cluster/pub/apps//g16/l401.exe)
 ExpMin= 9.52D-02 ExpMax= 1.36D+04 ExpMxC= 4.63D+02 IAcc=3 IRadAn=         5 AccDes= 0.00D+00
 Harris functional with IExCor=  402 and IRadAn=       5 diagonalized for initial guess.
 HarFok:  IExCor=  402 AccDes= 0.00D+00 IRadAn=         5 IDoV= 1 UseB2=F ITyADJ=14
 ICtDFT=  3500011 ScaDFX=  1.000000  1.000000  1.000000  1.000000
 FoFCou: FMM=F IPFlag=           0 FMFlag=      100000 FMFlg1=           0
         NFxFlg=           0 DoJE=T BraDBF=F KetDBF=T FulRan=T
         wScrn=  0.000000 ICntrl=       500 IOpCl=  0 I1Cent=   200000004 NGrid=           0
         NMat0=    1 NMatS0=      1 NMatT0=    0 NMatD0=    1 NMtDS0=    0 NMtDT0=    0
 Symmetry not used in FoFCou.
 Harris En= -1120.08123104100    
 JPrj=0 DoOrth=F DoCkMO=F.
 Leave Link  401 at Tue Mar 17 12:08:58 2026, MaxMem=   104857600 cpu:              34.7 elap:              34.7
 (Enter /sw/cluster/pub/apps//g16/l502.exe)
 Two-electron integral symmetry not used.
 Closed shell SCF:
 Using DIIS extrapolation, IDIIS=  1040.
 NGot=   104857600 LenX=   102020029 LenY=   100607497
 Requested convergence on RMS density matrix=1.00D-08 within 128 cycles.
 Requested convergence on MAX density matrix=1.00D-06.
 Requested convergence on             energy=1.00D-06.
 No special actions if energy rises.
 Fock matrices will be formed incrementally for  20 cycles.
 Integral accuracy reduced to 1.0D-05 until final iterations.

 Cycle   1  Pass 0  IDiag  1:
 FoFJK:  IHMeth= 1 ICntrl=       0 DoSepK=F KAlg= 0 I1Cent=           0 FoldK=F
 IRaf= 830000000 NMat=       1 IRICut=       1 DoRegI=T DoRafI=F ISym2E= 0 IDoP0=0 IntGTp=1.
 FoFCou: FMM=F IPFlag=           0 FMFlag=      100000 FMFlg1=           0
         NFxFlg=           0 DoJE=F BraDBF=F KetDBF=F FulRan=T
         wScrn=  0.000000 ICntrl=         0 IOpCl=  0 I1Cent=           0 NGrid=           0
         NMat0=    1 NMatS0=      1 NMatT0=    0 NMatD0=    1 NMtDS0=    0 NMtDT0=    0
 Symmetry not used in FoFCou.
 E= -1119.21793664907    
 DIIS: error= 1.71D-02 at cycle   1 NSaved=   1.
 NSaved= 1 IEnMin= 1 EnMin= -1119.21793664907     IErMin= 1 ErrMin= 1.71D-02
 ErrMax= 1.71D-02  0.00D+00 EMaxC= 1.00D-01 BMatC= 7.37D-01 BMatP= 7.37D-01
 IDIUse=3 WtCom= 8.29D-01 WtEn= 1.71D-01
 Coeff-Com:  0.100D+01
 Coeff-En:   0.100D+01
 Coeff:      0.100D+01
 Gap=     0.179 Goal=   None    Shift=    0.000
 GapD=    0.179 DampG=1.000 DampE=0.500 DampFc=0.5000 IDamp=-1.
 Damping current iteration by 5.00D-01
 RMSDP=1.40D+02 MaxDP=1.15D+04              OVMax= 9.94D-01

 Problem detected with inexpensive integrals.
 Switching to full accuracy and repeating last cycle.
 Cycle   2  Pass 1  IDiag  1:
 E= -1119.21803017640     Delta-E=       -0.000093527328 Rises=F Damp=F
 DIIS: error= 1.71D-02 at cycle   1 NSaved=   1.
 NSaved= 1 IEnMin= 1 EnMin= -1119.21803017640     IErMin= 1 ErrMin= 1.71D-02
 ErrMax= 1.71D-02  0.00D+00 EMaxC= 1.00D-01 BMatC= 7.36D-01 BMatP= 7.36D-01
 IDIUse=3 WtCom= 8.29D-01 WtEn= 1.71D-01
 Coeff-Com:  0.100D+01
 Coeff-En:   0.100D+01
 Coeff:      0.100D+01
 Gap=     0.179 Goal=   None    Shift=    0.000
 GapD=    0.179 DampG=1.000 DampE=0.500 DampFc=0.5000 IDamp=-1.
 Damping current iteration by 5.00D-01
 RMSDP=4.10D-03 MaxDP=3.46D-01 DE=-9.35D-05 OVMax= 1.72D-01

 Cycle   3  Pass 1  IDiag  1:
 RMSU=  2.05D-03    CP:  9.97D-01
 E= -1119.54992246845     Delta-E=       -0.331892292046 Rises=F Damp=T
 DIIS: error= 5.19D-03 at cycle   2 NSaved=   2.
 NSaved= 2 IEnMin= 2 EnMin= -1119.54992246845     IErMin= 2 ErrMin= 5.19D-03
 ErrMax= 5.19D-03  0.00D+00 EMaxC= 1.00D-01 BMatC= 4.22D-02 BMatP= 7.36D-01
 IDIUse=3 WtCom= 9.48D-01 WtEn= 5.19D-02
 Coeff-Com:  0.130D-01 0.987D+00
 Coeff-En:   0.779D-01 0.922D+00
 Coeff:      0.164D-01 0.984D+00
 Gap=     0.258 Goal=   None    Shift=    0.000
 GapD=    0.258 DampG=1.000 DampE=1.000 DampFc=1.0000 IDamp=-1.
 RMSDP=1.88D-03 MaxDP=2.05D-01 DE=-3.32D-01 OVMax= 1.09D-01

 Cycle   4  Pass 1  IDiag  1:
 RMSU=  9.74D-04    CP:  9.35D-01  2.31D-01
 E= -1119.93968340572     Delta-E=       -0.389760937270 Rises=F Damp=F
 DIIS: error= 4.79D-03 at cycle   3 NSaved=   3.
 NSaved= 3 IEnMin= 3 EnMin= -1119.93968340572     IErMin= 3 ErrMin= 4.79D-03
 ErrMax= 4.79D-03  0.00D+00 EMaxC= 1.00D-01 BMatC= 2.06D-02 BMatP= 4.22D-02
 IDIUse=3 WtCom= 9.52D-01 WtEn= 4.79D-02
 Coeff-Com: -0.533D-01 0.398D+00 0.655D+00
 Coeff-En:   0.000D+00 0.000D+00 0.100D+01
 Coeff:     -0.507D-01 0.379D+00 0.671D+00
 Gap=     0.178 Goal=   None    Shift=    0.000
 RMSDP=5.45D-04 MaxDP=2.56D-02 DE=-3.90D-01 OVMax= 5.17D-02

 Cycle   5  Pass 1  IDiag  1:
 RMSU=  4.17D-04    CP:  9.33D-01  3.85D-01  8.42D-01
 E= -1119.94820480117     Delta-E=       -0.008521395450 Rises=F Damp=F
 DIIS: error= 4.88D-03 at cycle   4 NSaved=   4.
 NSaved= 4 IEnMin= 4 EnMin= -1119.94820480117     IErMin= 3 ErrMin= 4.79D-03
 ErrMax= 4.88D-03  0.00D+00 EMaxC= 1.00D-01 BMatC= 1.33D-02 BMatP= 2.06D-02
 IDIUse=3 WtCom= 9.51D-01 WtEn= 4.88D-02
 Coeff-Com: -0.406D-01 0.193D+00 0.465D+00 0.382D+00
 Coeff-En:   0.000D+00 0.000D+00 0.389D+00 0.611D+00
 Coeff:     -0.386D-01 0.184D+00 0.462D+00 0.393D+00
 Gap=     0.180 Goal=   None    Shift=    0.000
 RMSDP=1.93D-04 MaxDP=8.72D-03 DE=-8.52D-03 OVMax= 3.36D-02

 Cycle   6  Pass 1  IDiag  1:
 RMSU=  1.09D-04    CP:  9.34D-01  3.58D-01  9.00D-01  6.71D-01
 E= -1119.96099919512     Delta-E=       -0.012794393951 Rises=F Damp=F
 DIIS: error= 1.32D-03 at cycle   5 NSaved=   5.
 NSaved= 5 IEnMin= 5 EnMin= -1119.96099919512     IErMin= 5 ErrMin= 1.32D-03
 ErrMax= 1.32D-03  0.00D+00 EMaxC= 1.00D-01 BMatC= 9.77D-04 BMatP= 1.33D-02
 IDIUse=3 WtCom= 9.87D-01 WtEn= 1.32D-02
 Coeff-Com: -0.138D-01 0.394D-01 0.153D+00 0.242D+00 0.580D+00
 Coeff-En:   0.000D+00 0.000D+00 0.000D+00 0.740D-01 0.926D+00
 Coeff:     -0.137D-01 0.389D-01 0.151D+00 0.240D+00 0.585D+00
 Gap=     0.178 Goal=   None    Shift=    0.000
 RMSDP=5.08D-05 MaxDP=2.72D-03 DE=-1.28D-02 OVMax= 8.38D-03

 Cycle   7  Pass 1  IDiag  1:
 RMSU=  3.39D-05    CP:  9.34D-01  3.54D-01  9.01D-01  7.01D-01  6.82D-01
 E= -1119.96192539847     Delta-E=       -0.000926203349 Rises=F Damp=F
 DIIS: error= 3.26D-04 at cycle   6 NSaved=   6.
 NSaved= 6 IEnMin= 6 EnMin= -1119.96192539847     IErMin= 6 ErrMin= 3.26D-04
 ErrMax= 3.26D-04  0.00D+00 EMaxC= 1.00D-01 BMatC= 9.17D-05 BMatP= 9.77D-04
 IDIUse=3 WtCom= 9.97D-01 WtEn= 3.26D-03
 Coeff-Com: -0.535D-02 0.100D-01 0.575D-01 0.114D+00 0.354D+00 0.469D+00
 Coeff-En:   0.000D+00 0.000D+00 0.000D+00 0.000D+00 0.557D-01 0.944D+00
 Coeff:     -0.534D-02 0.999D-02 0.573D-01 0.114D+00 0.353D+00 0.471D+00
 Gap=     0.178 Goal=   None    Shift=    0.000
 RMSDP=1.60D-05 MaxDP=6.54D-04 DE=-9.26D-04 OVMax= 2.32D-03

 Cycle   8  Pass 1  IDiag  1:
 RMSU=  9.75D-06    CP:  9.34D-01  3.55D-01  9.03D-01  6.99D-01  7.30D-01
                    CP:  6.68D-01
 E= -1119.96202280502     Delta-E=       -0.000097406550 Rises=F Damp=F
 DIIS: error= 5.68D-05 at cycle   7 NSaved=   7.
 NSaved= 7 IEnMin= 7 EnMin= -1119.96202280502     IErMin= 7 ErrMin= 5.68D-05
 ErrMax= 5.68D-05  0.00D+00 EMaxC= 1.00D-01 BMatC= 3.11D-06 BMatP= 9.17D-05
 IDIUse=1 WtCom= 1.00D+00 WtEn= 0.00D+00
 Coeff-Com: -0.156D-02 0.193D-02 0.171D-01 0.385D-01 0.130D+00 0.228D+00
 Coeff-Com:  0.586D+00
 Coeff:     -0.156D-02 0.193D-02 0.171D-01 0.385D-01 0.130D+00 0.228D+00
 Coeff:      0.586D+00
 Gap=     0.178 Goal=   None    Shift=    0.000
 RMSDP=3.42D-06 MaxDP=2.07D-04 DE=-9.74D-05 OVMax= 5.80D-04

 Cycle   9  Pass 1  IDiag  1:
 RMSU=  3.14D-06    CP:  9.34D-01  3.55D-01  9.03D-01  6.99D-01  7.28D-01
                    CP:  6.65D-01  8.69D-01
 E= -1119.96202555185     Delta-E=       -0.000002746835 Rises=F Damp=F
 DIIS: error= 2.38D-05 at cycle   8 NSaved=   8.
 NSaved= 8 IEnMin= 8 EnMin= -1119.96202555185     IErMin= 8 ErrMin= 2.38D-05
 ErrMax= 2.38D-05  0.00D+00 EMaxC= 1.00D-01 BMatC= 5.96D-07 BMatP= 3.11D-06
 IDIUse=1 WtCom= 1.00D+00 WtEn= 0.00D+00
 Coeff-Com: -0.230D-03-0.111D-03 0.277D-02 0.828D-02 0.305D-01 0.738D-01
 Coeff-Com:  0.344D+00 0.541D+00
 Coeff:     -0.230D-03-0.111D-03 0.277D-02 0.828D-02 0.305D-01 0.738D-01
 Coeff:      0.344D+00 0.541D+00
 Gap=     0.178 Goal=   None    Shift=    0.000
 RMSDP=1.39D-06 MaxDP=7.96D-05 DE=-2.75D-06 OVMax= 2.01D-04

 Cycle  10  Pass 1  IDiag  1:
 RMSU=  9.18D-07    CP:  9.34D-01  3.54D-01  9.04D-01  6.99D-01  7.28D-01
                    CP:  6.73D-01  8.94D-01  7.93D-01
 E= -1119.96202616417     Delta-E=       -0.000000612320 Rises=F Damp=F
 DIIS: error= 4.84D-06 at cycle   9 NSaved=   9.
 NSaved= 9 IEnMin= 9 EnMin= -1119.96202616417     IErMin= 9 ErrMin= 4.84D-06
 ErrMax= 4.84D-06  0.00D+00 EMaxC= 1.00D-01 BMatC= 2.68D-08 BMatP= 5.96D-07
 IDIUse=1 WtCom= 1.00D+00 WtEn= 0.00D+00
 Coeff-Com:  0.108D-05-0.189D-03 0.445D-04 0.126D-02 0.494D-02 0.175D-01
 Coeff-Com:  0.114D+00 0.248D+00 0.615D+00
 Coeff:      0.108D-05-0.189D-03 0.445D-04 0.126D-02 0.494D-02 0.175D-01
 Coeff:      0.114D+00 0.248D+00 0.615D+00
 Gap=     0.178 Goal=   None    Shift=    0.000
 RMSDP=3.24D-07 MaxDP=1.52D-05 DE=-6.12D-07 OVMax= 4.69D-05

 Cycle  11  Pass 1  IDiag  1:
 RMSU=  2.60D-07    CP:  9.34D-01  3.54D-01  9.04D-01  6.99D-01  7.28D-01
                    CP:  6.77D-01  8.95D-01  7.89D-01  9.00D-01
 E= -1119.96202618496     Delta-E=       -0.000000020794 Rises=F Damp=F
 DIIS: error= 3.04D-06 at cycle  10 NSaved=  10.
 NSaved=10 IEnMin=10 EnMin= -1119.96202618496     IErMin=10 ErrMin= 3.04D-06
 ErrMax= 3.04D-06  0.00D+00 EMaxC= 1.00D-01 BMatC= 6.39D-09 BMatP= 2.68D-08
 IDIUse=1 WtCom= 1.00D+00 WtEn= 0.00D+00
 Coeff-Com:  0.205D-04-0.902D-04-0.248D-03-0.462D-04-0.168D-03 0.260D-02
 Coeff-Com:  0.305D-01 0.896D-01 0.373D+00 0.505D+00
 Coeff:      0.205D-04-0.902D-04-0.248D-03-0.462D-04-0.168D-03 0.260D-02
 Coeff:      0.305D-01 0.896D-01 0.373D+00 0.505D+00
 Gap=     0.178 Goal=   None    Shift=    0.000
 RMSDP=1.59D-07 MaxDP=8.55D-06 DE=-2.08D-08 OVMax= 2.33D-05

 Cycle  12  Pass 1  IDiag  1:
 RMSU=  9.47D-08    CP:  9.34D-01  3.54D-01  9.04D-01  6.99D-01  7.28D-01
                    CP:  6.77D-01  8.99D-01  7.99D-01  9.12D-01  6.98D-01
 E= -1119.96202619107     Delta-E=       -0.000000006110 Rises=F Damp=F
 DIIS: error= 1.26D-06 at cycle  11 NSaved=  11.
 NSaved=11 IEnMin=11 EnMin= -1119.96202619107     IErMin=11 ErrMin= 1.26D-06
 ErrMax= 1.26D-06  0.00D+00 EMaxC= 1.00D-01 BMatC= 7.95D-10 BMatP= 6.39D-09
 IDIUse=1 WtCom= 1.00D+00 WtEn= 0.00D+00
 Coeff-Com:  0.109D-04-0.364D-04-0.152D-03-0.108D-03-0.441D-03 0.317D-03
 Coeff-Com:  0.986D-02 0.358D-01 0.179D+00 0.320D+00 0.455D+00
 Coeff:      0.109D-04-0.364D-04-0.152D-03-0.108D-03-0.441D-03 0.317D-03
 Coeff:      0.986D-02 0.358D-01 0.179D+00 0.320D+00 0.455D+00
 Gap=     0.178 Goal=   None    Shift=    0.000
 RMSDP=4.60D-08 MaxDP=2.66D-06 DE=-6.11D-09 OVMax= 8.79D-06

 Cycle  13  Pass 1  IDiag  1:
 RMSU=  2.80D-08    CP:  9.34D-01  3.54D-01  9.04D-01  6.99D-01  7.28D-01
                    CP:  6.77D-01  9.00D-01  8.02D-01  9.13D-01  7.05D-01
                    CP:  6.48D-01
 E= -1119.96202619189     Delta-E=       -0.000000000815 Rises=F Damp=F
 DIIS: error= 2.21D-07 at cycle  12 NSaved=  12.
 NSaved=12 IEnMin=12 EnMin= -1119.96202619189     IErMin=12 ErrMin= 2.21D-07
 ErrMax= 2.21D-07  0.00D+00 EMaxC= 1.00D-01 BMatC= 5.43D-11 BMatP= 7.95D-10
 IDIUse=1 WtCom= 1.00D+00 WtEn= 0.00D+00
 Coeff-Com:  0.248D-05-0.660D-05-0.469D-04-0.467D-04-0.198D-03-0.172D-03
 Coeff-Com:  0.899D-03 0.661D-02 0.438D-01 0.103D+00 0.246D+00 0.600D+00
 Coeff:      0.248D-05-0.660D-05-0.469D-04-0.467D-04-0.198D-03-0.172D-03
 Coeff:      0.899D-03 0.661D-02 0.438D-01 0.103D+00 0.246D+00 0.600D+00
 Gap=     0.178 Goal=   None    Shift=    0.000
 RMSDP=1.48D-08 MaxDP=1.51D-06 DE=-8.15D-10 OVMax= 2.21D-06

 Cycle  14  Pass 1  IDiag  1:
 RMSU=  9.66D-09    CP:  9.34D-01  3.54D-01  9.04D-01  6.99D-01  7.28D-01
                    CP:  6.77D-01  9.00D-01  8.02D-01  9.16D-01  7.02D-01
                    CP:  7.20D-01  8.11D-01
 E= -1119.96202619199     Delta-E=       -0.000000000105 Rises=F Damp=F
 DIIS: error= 6.54D-08 at cycle  13 NSaved=  13.
 NSaved=13 IEnMin=13 EnMin= -1119.96202619199     IErMin=13 ErrMin= 6.54D-08
 ErrMax= 6.54D-08  0.00D+00 EMaxC= 1.00D-01 BMatC= 7.30D-12 BMatP= 5.43D-11
 IDIUse=1 WtCom= 1.00D+00 WtEn= 0.00D+00
 Coeff-Com:  0.493D-06-0.797D-06-0.145D-04-0.189D-04-0.765D-04-0.124D-03
 Coeff-Com: -0.368D-03 0.601D-03 0.864D-02 0.295D-01 0.977D-01 0.348D+00
 Coeff-Com:  0.516D+00
 Coeff:      0.493D-06-0.797D-06-0.145D-04-0.189D-04-0.765D-04-0.124D-03
 Coeff:     -0.368D-03 0.601D-03 0.864D-02 0.295D-01 0.977D-01 0.348D+00
 Coeff:      0.516D+00
 Gap=     0.178 Goal=   None    Shift=    0.000
 RMSDP=4.06D-09 MaxDP=1.74D-07 DE=-1.05D-10 OVMax= 7.31D-07

 SCF Done:  E(RB3LYP) =  -1119.96202619     A.U. after   14 cycles
            NFock= 14  Conv=0.41D-08     -V/T= 2.0053
 KE= 1.114050196141D+03 PE=-8.105280323899D+03 EE= 3.117301304179D+03
 Leave Link  502 at Tue Mar 17 14:10:03 2026, MaxMem=   104857600 cpu:            7256.4 elap:            7265.0
 (Enter /sw/cluster/pub/apps//g16/l601.exe)
 Copying SCF densities to generalized density rwf, IOpCl= 0 IROHF=0.

 **********************************************************************

            Population analysis using the SCF density.

 **********************************************************************

 Alpha  occ. eigenvalues --  -10.19855 -10.19855 -10.18189 -10.17628 -10.17628
 Alpha  occ. eigenvalues --  -10.17523 -10.17523 -10.17513 -10.17513 -10.17405
 Alpha  occ. eigenvalues --  -10.17405 -10.17394 -10.17394 -10.17345 -10.17344
 Alpha  occ. eigenvalues --  -10.17324 -10.17324 -10.17251 -10.17251 -10.17100
 Alpha  occ. eigenvalues --  -10.17100 -10.17014 -10.17013 -10.16993 -10.16993
 Alpha  occ. eigenvalues --  -10.16908 -10.16907 -10.16719 -10.16719  -0.89587
 Alpha  occ. eigenvalues --   -0.88723  -0.84651  -0.84481  -0.82417  -0.80491
 Alpha  occ. eigenvalues --   -0.77850  -0.77099  -0.74469  -0.74194  -0.73958
 Alpha  occ. eigenvalues --   -0.72556  -0.71429  -0.71380  -0.68503  -0.64759
 Alpha  occ. eigenvalues --   -0.64656  -0.62604  -0.62164  -0.58634  -0.58359
 Alpha  occ. eigenvalues --   -0.57731  -0.57511  -0.56998  -0.55365  -0.51596
 Alpha  occ. eigenvalues --   -0.50884  -0.50071  -0.49379  -0.48007  -0.47102
 Alpha  occ. eigenvalues --   -0.45815  -0.45605  -0.44646  -0.44537  -0.44024
 Alpha  occ. eigenvalues --   -0.43901  -0.43637  -0.43410  -0.42110  -0.41946
 Alpha  occ. eigenvalues --   -0.41908  -0.41817  -0.40498  -0.40025  -0.39091
 Alpha  occ. eigenvalues --   -0.38719  -0.38361  -0.38334  -0.37734  -0.37723
 Alpha  occ. eigenvalues --   -0.35996  -0.35188  -0.34979  -0.34834  -0.34635
 Alpha  occ. eigenvalues --   -0.34119  -0.33585  -0.32831  -0.32634  -0.31826
 Alpha  occ. eigenvalues --   -0.31485  -0.28645  -0.28363  -0.25714  -0.25685
 Alpha  occ. eigenvalues --   -0.24794  -0.23886  -0.21846  -0.21758
 Alpha virt. eigenvalues --   -0.03937  -0.03674  -0.02380  -0.01671   0.00054
 Alpha virt. eigenvalues --    0.00073   0.02521   0.03223   0.03281   0.04488
 Alpha virt. eigenvalues --    0.05207   0.05403   0.06099   0.06200   0.06393
 Alpha virt. eigenvalues --    0.06996   0.08096   0.08230   0.09156   0.09211
 Alpha virt. eigenvalues --    0.09375   0.09904   0.10097   0.10590   0.10721
 Alpha virt. eigenvalues --    0.11585   0.12077   0.12756   0.12891   0.13299
 Alpha virt. eigenvalues --    0.13436   0.13611   0.14071   0.14833   0.15047
 Alpha virt. eigenvalues --    0.15968   0.15974   0.16134   0.16183   0.17267
 Alpha virt. eigenvalues --    0.17680   0.17926   0.18055   0.19091   0.19328
 Alpha virt. eigenvalues --    0.19622   0.19722   0.20412   0.20451   0.21014
 Alpha virt. eigenvalues --    0.21257   0.21314   0.21400   0.21884   0.21895
 Alpha virt. eigenvalues --    0.22219   0.22222   0.22848   0.23158   0.23676
 Alpha virt. eigenvalues --    0.23948   0.23970   0.24856   0.25067   0.25803
 Alpha virt. eigenvalues --    0.26162   0.26578   0.27949   0.28019   0.28451
 Alpha virt. eigenvalues --    0.29187   0.29443   0.29822   0.29960   0.30127
 Alpha virt. eigenvalues --    0.30673   0.30718   0.30805   0.30967   0.31602
 Alpha virt. eigenvalues --    0.31717   0.32604   0.32680   0.33393   0.33417
 Alpha virt. eigenvalues --    0.34035   0.34299   0.34539   0.34572   0.35312
 Alpha virt. eigenvalues --    0.35557   0.35583   0.36079   0.36266   0.36355
 Alpha virt. eigenvalues --    0.36939   0.36994   0.37803   0.38018   0.38209
 Alpha virt. eigenvalues --    0.38335   0.38804   0.39415   0.39417   0.39779
 Alpha virt. eigenvalues --    0.40011   0.40551   0.40618   0.40983   0.41236
 Alpha virt. eigenvalues --    0.41513   0.41903   0.41909   0.42395   0.42565
 Alpha virt. eigenvalues --    0.42787   0.42948   0.43190   0.43272   0.43781
 Alpha virt. eigenvalues --    0.43881   0.44369   0.44424   0.44853   0.45268
 Alpha virt. eigenvalues --    0.45470   0.46038   0.46416   0.46699   0.47178
 Alpha virt. eigenvalues --    0.47278   0.47511   0.47977   0.48430   0.48626
 Alpha virt. eigenvalues --    0.48831   0.48872   0.49083   0.49642   0.49868
 Alpha virt. eigenvalues --    0.49998   0.50313   0.51138   0.51531   0.51804
 Alpha virt. eigenvalues --    0.51968   0.52385   0.53242   0.53437   0.53712
 Alpha virt. eigenvalues --    0.54402   0.54660   0.55837   0.56463   0.56686
 Alpha virt. eigenvalues --    0.57275   0.57399   0.58093   0.58295   0.58448
 Alpha virt. eigenvalues --    0.58695   0.59669   0.60489   0.60811   0.62165
 Alpha virt. eigenvalues --    0.63312   0.63503   0.63636   0.64200   0.64358
 Alpha virt. eigenvalues --    0.65232   0.65884   0.66546   0.66582   0.66957
 Alpha virt. eigenvalues --    0.66980   0.67760   0.67864   0.69242   0.69453
 Alpha virt. eigenvalues --    0.69781   0.70379   0.70621   0.70695   0.71050
 Alpha virt. eigenvalues --    0.71301   0.72300   0.72501   0.72853   0.73510
 Alpha virt. eigenvalues --    0.73756   0.73992   0.74486   0.75136   0.75705
 Alpha virt. eigenvalues --    0.76147   0.76268   0.76727   0.77216   0.77291
 Alpha virt. eigenvalues --    0.78611   0.78717   0.79047   0.79458   0.79594
 Alpha virt. eigenvalues --    0.80822   0.81413   0.81597   0.82096   0.82707
 Alpha virt. eigenvalues --    0.83844   0.83912   0.84746   0.84998   0.86705
 Alpha virt. eigenvalues --    0.86875   0.87381   0.87456   0.87999   0.88577
 Alpha virt. eigenvalues --    0.89084   0.89286   0.89646   0.89829   0.90092
 Alpha virt. eigenvalues --    0.90706   0.91537   0.91683   0.92052   0.92952
 Alpha virt. eigenvalues --    0.93347   0.94046   0.94568   0.94964   0.95487
 Alpha virt. eigenvalues --    0.96114   0.96135   0.96888   0.96905   0.97323
 Alpha virt. eigenvalues --    0.98443   0.99055   1.00382   1.00578   1.01143
 Alpha virt. eigenvalues --    1.01486   1.02123   1.02528   1.02813   1.03209
 Alpha virt. eigenvalues --    1.03342   1.04684   1.05560   1.05801   1.06343
 Alpha virt. eigenvalues --    1.06910   1.07555   1.08311   1.09059   1.09359
 Alpha virt. eigenvalues --    1.09529   1.10222   1.10773   1.11392   1.11397
 Alpha virt. eigenvalues --    1.12877   1.13257   1.14060   1.14422   1.14782
 Alpha virt. eigenvalues --    1.15069   1.15535   1.15680   1.16712   1.17499
 Alpha virt. eigenvalues --    1.17775   1.18232   1.18731   1.19048   1.19835
 Alpha virt. eigenvalues --    1.20230   1.21338   1.22186   1.22425   1.22699
 Alpha virt. eigenvalues --    1.23571   1.24286   1.24625   1.25138   1.25246
 Alpha virt. eigenvalues --    1.26546   1.27082   1.27162   1.27277   1.27963
 Alpha virt. eigenvalues --    1.28726   1.29375   1.30230   1.30278   1.30403
 Alpha virt. eigenvalues --    1.30830   1.30847   1.31049   1.32327   1.32478
 Alpha virt. eigenvalues --    1.33595   1.34012   1.34420   1.34829   1.35883
 Alpha virt. eigenvalues --    1.36383   1.36587   1.37049   1.37805   1.38728
 Alpha virt. eigenvalues --    1.39077   1.39366   1.40116   1.40510   1.42066
 Alpha virt. eigenvalues --    1.43079   1.43882   1.44336   1.44487   1.44815
 Alpha virt. eigenvalues --    1.45673   1.46390   1.46808   1.46941   1.47022
 Alpha virt. eigenvalues --    1.48270   1.49111   1.49449   1.49823   1.50288
 Alpha virt. eigenvalues --    1.50885   1.51613   1.52117   1.53188   1.53350
 Alpha virt. eigenvalues --    1.54509   1.55298   1.55409   1.55457   1.56241
 Alpha virt. eigenvalues --    1.56446   1.57168   1.57206   1.57808   1.58533
 Alpha virt. eigenvalues --    1.59627   1.60034   1.60286   1.60975   1.61234
 Alpha virt. eigenvalues --    1.61526   1.62310   1.62792   1.63552   1.64047
 Alpha virt. eigenvalues --    1.64833   1.64842   1.65192   1.65877   1.66577
 Alpha virt. eigenvalues --    1.67247   1.67489   1.68046   1.68582   1.68796
 Alpha virt. eigenvalues --    1.69339   1.69649   1.70179   1.71229   1.71437
 Alpha virt. eigenvalues --    1.71537   1.72008   1.72014   1.73378   1.74027
 Alpha virt. eigenvalues --    1.74321   1.74421   1.75128   1.75801   1.76186
 Alpha virt. eigenvalues --    1.76658   1.77260   1.77352   1.78333   1.78538
 Alpha virt. eigenvalues --    1.78651   1.79359   1.80513   1.80554   1.81488
 Alpha virt. eigenvalues --    1.82661   1.83137   1.83606   1.84424   1.84777
 Alpha virt. eigenvalues --    1.85647   1.85874   1.86623   1.87816   1.88192
 Alpha virt. eigenvalues --    1.88612   1.89092   1.93007   1.93130   1.93836
 Alpha virt. eigenvalues --    1.94451   1.95639   1.96723   1.97060   1.97515
 Alpha virt. eigenvalues --    1.99597   2.00181   2.00456   2.01131   2.02141
 Alpha virt. eigenvalues --    2.02325   2.02736   2.03261   2.04853   2.04871
 Alpha virt. eigenvalues --    2.05310   2.06632   2.07154   2.07276   2.08246
 Alpha virt. eigenvalues --    2.09129   2.09147   2.09631   2.10036   2.10253
 Alpha virt. eigenvalues --    2.11769   2.12548   2.12565   2.13628   2.14154
 Alpha virt. eigenvalues --    2.16046   2.16139   2.16460   2.16924   2.17463
 Alpha virt. eigenvalues --    2.18056   2.18997   2.19061   2.19987   2.20301
 Alpha virt. eigenvalues --    2.21138   2.21570   2.21904   2.22855   2.22965
 Alpha virt. eigenvalues --    2.23799   2.23920   2.24872   2.25170   2.26394
 Alpha virt. eigenvalues --    2.27487   2.27649   2.27804   2.28738   2.30020
 Alpha virt. eigenvalues --    2.30183   2.30538   2.31248   2.31279   2.33115
 Alpha virt. eigenvalues --    2.34561   2.34735   2.35476   2.35530   2.36794
 Alpha virt. eigenvalues --    2.37433   2.37821   2.38690   2.40261   2.40867
 Alpha virt. eigenvalues --    2.41695   2.41772   2.43449   2.45004   2.45122
 Alpha virt. eigenvalues --    2.46236   2.46747   2.47168   2.47677   2.47855
 Alpha virt. eigenvalues --    2.48245   2.48272   2.48814   2.49231   2.49560
 Alpha virt. eigenvalues --    2.50562   2.51113   2.52719   2.53235   2.53860
 Alpha virt. eigenvalues --    2.54172   2.55377   2.55939   2.56734   2.57492
 Alpha virt. eigenvalues --    2.57751   2.58768   2.59393   2.59916   2.60279
 Alpha virt. eigenvalues --    2.60975   2.61186   2.61704   2.62189   2.62590
 Alpha virt. eigenvalues --    2.64079   2.64332   2.64786   2.64877   2.65024
 Alpha virt. eigenvalues --    2.65610   2.65711   2.66153   2.67131   2.67351
 Alpha virt. eigenvalues --    2.68037   2.68222   2.68630   2.69032   2.69107
 Alpha virt. eigenvalues --    2.70097   2.70437   2.70950   2.71503   2.71599
 Alpha virt. eigenvalues --    2.72249   2.72988   2.73615   2.73824   2.74130
 Alpha virt. eigenvalues --    2.74710   2.75479   2.75840   2.75981   2.76066
 Alpha virt. eigenvalues --    2.76496   2.76582   2.77232   2.77592   2.77795
 Alpha virt. eigenvalues --    2.77890   2.78490   2.79731   2.79788   2.79931
 Alpha virt. eigenvalues --    2.80766   2.81086   2.81625   2.82293   2.82511
 Alpha virt. eigenvalues --    2.82883   2.83312   2.83332   2.84088   2.84500
 Alpha virt. eigenvalues --    2.85390   2.85568   2.86250   2.86292   2.87062
 Alpha virt. eigenvalues --    2.87178   2.88239   2.88920   2.89732   2.90453
 Alpha virt. eigenvalues --    2.90490   2.90535   2.90682   2.91516   2.92124
 Alpha virt. eigenvalues --    2.92651   2.93936   2.94017   2.94648   2.94700
 Alpha virt. eigenvalues --    2.95078   2.95790   2.96166   2.96567   2.96986
 Alpha virt. eigenvalues --    2.97164   2.98360   2.98458   3.00434   3.00489
 Alpha virt. eigenvalues --    3.01670   3.02924   3.03042   3.04198   3.04367
 Alpha virt. eigenvalues --    3.04886   3.05420   3.06189   3.06774   3.07536
 Alpha virt. eigenvalues --    3.07759   3.08241   3.09250   3.09856   3.10171
 Alpha virt. eigenvalues --    3.10262   3.11758   3.11822   3.12167   3.12970
 Alpha virt. eigenvalues --    3.13165   3.14261   3.15184   3.15235   3.16382
 Alpha virt. eigenvalues --    3.16394   3.17084   3.17585   3.18197   3.18216
 Alpha virt. eigenvalues --    3.19024   3.19030   3.20058   3.20177   3.21242
 Alpha virt. eigenvalues --    3.21361   3.21926   3.22329   3.22494   3.22658
 Alpha virt. eigenvalues --    3.23698   3.23821   3.24233   3.24317   3.24616
 Alpha virt. eigenvalues --    3.25241   3.25814   3.26427   3.26762   3.27390
 Alpha virt. eigenvalues --    3.27708   3.28193   3.29113   3.29848   3.29854
 Alpha virt. eigenvalues --    3.30217   3.30924   3.31178   3.31306   3.31974
 Alpha virt. eigenvalues --    3.32461   3.32886   3.32928   3.33594   3.33740
 Alpha virt. eigenvalues --    3.33792   3.34983   3.35216   3.35587   3.36214
 Alpha virt. eigenvalues --    3.36384   3.36702   3.37595   3.37875   3.38013
 Alpha virt. eigenvalues --    3.38282   3.38536   3.39649   3.40141   3.40349
 Alpha virt. eigenvalues --    3.40977   3.41435   3.41642   3.42615   3.43039
 Alpha virt. eigenvalues --    3.43042   3.43934   3.44216   3.45008   3.45048
 Alpha virt. eigenvalues --    3.46024   3.46790   3.47148   3.47607   3.47875
 Alpha virt. eigenvalues --    3.48291   3.48828   3.48957   3.49741   3.49833
 Alpha virt. eigenvalues --    3.50504   3.51056   3.51594   3.52012   3.52880
 Alpha virt. eigenvalues --    3.52977   3.53616   3.53871   3.54726   3.54961
 Alpha virt. eigenvalues --    3.55479   3.56061   3.56070   3.56646   3.56694
 Alpha virt. eigenvalues --    3.57637   3.58092   3.58225   3.58607   3.59277
 Alpha virt. eigenvalues --    3.60292   3.60886   3.60982   3.61089   3.61193
 Alpha virt. eigenvalues --    3.62017   3.62607   3.62707   3.63249   3.63262
 Alpha virt. eigenvalues --    3.65244   3.66324   3.66379   3.66893   3.67830
 Alpha virt. eigenvalues --    3.68016   3.69023   3.69377   3.69603   3.70547
 Alpha virt. eigenvalues --    3.71057   3.72279   3.72698   3.75248   3.75593
 Alpha virt. eigenvalues --    3.76442   3.77687   3.77759   3.79468   3.81346
 Alpha virt. eigenvalues --    3.81920   3.82884   3.83096   3.84284   3.84919
 Alpha virt. eigenvalues --    3.85916   3.86256   3.87279   3.88372   3.89003
 Alpha virt. eigenvalues --    3.89534   3.91278   3.91964   3.92903   3.93349
 Alpha virt. eigenvalues --    3.94461   3.94736   3.96071   3.97606   3.98033
 Alpha virt. eigenvalues --    3.99154   3.99233   4.01046   4.01967   4.02551
 Alpha virt. eigenvalues --    4.02905   4.03652   4.03924   4.06944   4.08249
 Alpha virt. eigenvalues --    4.08463   4.09078   4.09294   4.09730   4.11416
 Alpha virt. eigenvalues --    4.11644   4.12203   4.12325   4.13269   4.13965
 Alpha virt. eigenvalues --    4.15420   4.15722   4.16658   4.16892   4.17566
 Alpha virt. eigenvalues --    4.18015   4.18520   4.19177   4.19444   4.19459
 Alpha virt. eigenvalues --    4.20998   4.21872   4.22566   4.22979   4.24186
 Alpha virt. eigenvalues --    4.24833   4.25017   4.26277   4.27067   4.27256
 Alpha virt. eigenvalues --    4.27494   4.28148   4.28373   4.30217   4.30876
 Alpha virt. eigenvalues --    4.31004   4.31624   4.31896   4.33287   4.33446
 Alpha virt. eigenvalues --    4.34097   4.34135   4.34839   4.35148   4.36098
 Alpha virt. eigenvalues --    4.36495   4.37154   4.37218   4.39251   4.39757
 Alpha virt. eigenvalues --    4.40221   4.41205   4.41931   4.42738   4.43141
 Alpha virt. eigenvalues --    4.43615   4.45243   4.48169   4.49766   4.50635
 Alpha virt. eigenvalues --    4.51442   4.51814   4.52678   4.52954   4.53779
 Alpha virt. eigenvalues --    4.54090   4.55925   4.55929   4.58578   4.59770
 Alpha virt. eigenvalues --    4.60185   4.61461   4.62000   4.63217   4.63606
 Alpha virt. eigenvalues --    4.64841   4.66010   4.71842   4.73591   4.74749
 Alpha virt. eigenvalues --    4.75717   4.76133   4.76737   4.77903   4.78269
 Alpha virt. eigenvalues --    4.78753   4.79087   4.82122   4.83240   4.83521
 Alpha virt. eigenvalues --    4.83580   4.85017   4.86457   4.86785   4.89749
 Alpha virt. eigenvalues --    4.90747   4.90870   4.94668   4.94724   4.96742
 Alpha virt. eigenvalues --    4.97574   4.98298   4.99941   5.01968   5.03099
 Alpha virt. eigenvalues --    5.04147   5.04331   5.06482   5.13089   5.13420
 Alpha virt. eigenvalues --    5.13613   5.14414   5.15885   5.19673   5.24034
 Alpha virt. eigenvalues --    5.27225   5.28274   5.28973   5.31529   5.32124
 Alpha virt. eigenvalues --    5.36312   5.36761   5.37494   5.38018   5.46381
 Alpha virt. eigenvalues --    5.46858   5.52134   5.52184   5.59244   5.59300
 Alpha virt. eigenvalues --    5.61816   5.62598   5.64268   5.65907   5.76614
 Alpha virt. eigenvalues --    5.77522   5.77714   5.79928   6.10687   6.11867
 Alpha virt. eigenvalues --   22.09873  22.31289  22.46746  22.48837  22.51375
 Alpha virt. eigenvalues --   22.53239  22.62446  22.63304  22.64033  22.67577
 Alpha virt. eigenvalues --   22.69705  22.69778  22.70755  22.73401  22.75091
 Alpha virt. eigenvalues --   22.77028  22.81383  22.93676  22.94632  23.00585
 Alpha virt. eigenvalues --   23.00589  23.05456  23.10555  23.15055  23.16837
 Alpha virt. eigenvalues --   23.61530  23.61919  23.80062  23.81060
          Condensed to atoms (all electrons):
 Mulliken charges:
               1
     1  C    0.484448
     2  C    0.484367
     3  H    0.101939
     4  H    0.101930
     5  C   -0.078196
     6  C   -0.102411
     7  C    0.194719
     8  C    0.088740
     9  C    0.194800
    10  C    0.088714
    11  C   -0.078302
    12  C   -0.102642
    13  C   -0.274655
    14  C   -0.183601
    15  C   -0.092997
    16  C   -0.115177
    17  C   -0.084635
    18  C   -0.094110
    19  C   -0.223781
    20  C   -0.228833
    21  H    0.096253
    22  H    0.097044
    23  H    0.102816
    24  H    0.101556
    25  H    0.104152
    26  H    0.100337
    27  H    0.097080
    28  H    0.097308
    29  C   -0.228834
    30  C   -0.223760
    31  C   -0.084639
    32  C   -0.094146
    33  C   -0.115182
    34  C   -0.093020
    35  C   -0.274639
    36  C   -0.183687
    37  H    0.097085
    38  H    0.097314
    39  H    0.100333
    40  H    0.104151
    41  H    0.101558
    42  H    0.102817
    43  H    0.096247
    44  H    0.097060
    45  C   -0.362207
    46  H    0.128585
    47  H    0.109321
    48  H    0.112248
    49  C   -0.351361
    50  C   -0.362254
    51  H    0.109320
    52  H    0.112246
    53  H    0.128580
 Sum of Mulliken charges =  -0.00000
 Mulliken charges with hydrogens summed into heavy atoms:
               1
     1  C    0.484448
     2  C    0.484367
     5  C   -0.078196
     6  C   -0.102411
     7  C    0.194719
     8  C    0.088740
     9  C    0.194800
    10  C    0.088714
    11  C   -0.078302
    12  C   -0.102642
    13  C   -0.177575
    14  C   -0.086293
    15  C    0.011155
    16  C   -0.014840
    17  C    0.016922
    18  C    0.008706
    19  C   -0.126738
    20  C   -0.132579
    29  C   -0.132587
    30  C   -0.126700
    31  C    0.016919
    32  C    0.008671
    33  C   -0.014849
    34  C    0.011131
    35  C   -0.177553
    36  C   -0.086373
    45  C   -0.012053
    49  C   -0.147492
    50  C   -0.012109
 Electronic spatial extent (au):  <R**2>=           8155.7544
 Charge=             -0.0000 electrons
 Dipole moment (field-independent basis, Debye):
    X=             -0.2640    Y=              0.5134    Z=              0.1443  Tot=              0.5951
 Quadrupole moment (field-independent basis, Debye-Ang):
   XX=           -158.6543   YY=           -158.1116   ZZ=           -178.5865
   XY=             -0.0721   XZ=             -3.1241   YZ=              4.5164
 Traceless Quadrupole moment (field-independent basis, Debye-Ang):
   XX=              6.4632   YY=              7.0059   ZZ=            -13.4691
   XY=             -0.0721   XZ=             -3.1241   YZ=              4.5164
 Octapole moment (field-independent basis, Debye-Ang**2):
  XXX=              7.8969  YYY=             -9.8479  ZZZ=             -8.3484  XYY=              3.6870
  XXY=             -6.1490  XXZ=              4.1041  XZZ=              2.0639  YZZ=            -10.5454
  YYZ=             -3.2134  XYZ=             -4.5203
 Hexadecapole moment (field-independent basis, Debye-Ang**3):
 XXXX=          -4523.5711 YYYY=          -2801.2042 ZZZZ=          -3998.1657 XXXY=           -402.5964
 XXXZ=           -513.6644 YYYX=           -406.5824 YYYZ=            -57.2473 ZZZX=           -571.1898
 ZZZY=            -19.9081 XXYY=          -1222.1440 XXZZ=          -1481.1331 YYZZ=          -1105.7936
 XXYZ=             -7.6850 YYXZ=           -138.9038 ZZXY=           -172.4613
 N-N= 2.753966797388D+03 E-N=-8.105280319949D+03  KE= 1.114050196141D+03
 No NMR shielding tensors so no spin-rotation constants.
 Leave Link  601 at Tue Mar 17 14:10:04 2026, MaxMem=   104857600 cpu:               0.8 elap:               0.8
 (Enter /sw/cluster/pub/apps//g16/l9999.exe)
 1\1\GINC-N07\SP\RB3LYP\def2TZVP\C29H24\UNKNOWN\17-Mar-2026\0\\#p B3LYP
 /def2TZVP nosymm density=current sp\\Generated by extraQ₂\\0,1\C,0,-
 0.98113001,1.39302388,-0.97424268\C,0,-0.26156619,1.02434887,1.6536910
 8\H,0,-1.99058214,1.99616228,0.80705768\H,0,-0.49402228,2.83729096,0.5
 5138341\C,0,0.29781764,0.79503492,-1.55472069\C,0,1.26176686,1.1280167
 5,1.641705\C,0,1.85039582,-0.14416289,1.641705\C,0,0.04930521,-0.47555
 742,-2.09816217\C,0,-1.3651103,-0.79981523,-1.906963\C,0,0.78545908,-1
 .14824776,1.641705\C,0,-0.45469406,-0.48983629,1.64042045\C,0,-1.98181
 271,0.27268195,-1.24790788\C,0,-3.3422222,0.24138987,-0.98802278\C,0,-
 1.62770548,-1.22412795,1.71398169\C,0,-4.08360933,-0.87621331,-1.36885
 771\C,0,-1.56096246,-2.61514604,1.75691126\C,0,-0.32965897,-3.26684857
 ,1.73695757\C,0,-3.466138,-1.94884697,-2.00897278\C,0,-2.10357922,-1.9
 1639829,-2.28579668\C,0,0.85257953,-2.53745366,1.68462132\H,0,1.808578
 37,-3.04671172,1.68511438\H,0,-1.63057409,-2.74977934,-2.79066095\H,0,
 -4.05381333,-2.81108284,-2.29852694\H,0,-0.29422457,-4.34869575,1.7700
 264\H,0,-5.14741675,-0.9097699,-1.16909009\H,0,-2.47478306,-3.19379123
 ,1.80266813\H,0,-3.83670894,1.07026829,-0.4941764\H,0,-2.5928993,-0.73
 485692,1.72886594\C,0,1.06263942,-1.18813001,-2.73190443\C,0,3.2344313
 8,-0.28337886,1.66764271\C,0,2.32669852,-0.61790177,-2.82908772\C,0,4.
 02614216,0.85950943,1.70304832\C,0,2.57040597,0.65152075,-2.30909908\C
 ,0,3.44194779,2.12441564,1.7199958\C,0,2.05492957,2.26273303,1.6920879
 6\C,0,1.5554543,1.36468754,-1.67466849\H,0,1.61418352,3.25312525,1.709
 62993\H,0,1.7631816,2.34889448,-1.27542699\H,0,3.55769332,1.08724649,-
 2.39511646\H,0,4.06988222,3.00584945,1.75863935\H,0,3.12612425,-1.1600
 852,-3.31867958\H,0,5.1048333,0.76659411,1.72418986\H,0,0.87248351,-2.
 16863771,-3.15109738\H,0,3.69402444,-1.26414103,1.66258412\C,0,-1.3848
 4943,2.6378635,-1.80340228\H,0,-1.50383552,2.3777846,-2.85547065\H,0,-
 2.33001508,3.05139762,-1.44498918\H,0,-0.62263439,3.41538248,-1.726263
 53\C,0,-0.94718919,1.84260645,0.5178632\C,0,-0.79122917,1.59496385,2.9
 9306911\H,0,-0.61167188,2.67058262,3.05319436\H,0,-1.86523679,1.423904
 25,3.08636974\H,0,-0.29367132,1.11867473,3.83819332\\Version=ES64L-G16
 RevA.03\HF=-1119.9620262\RMSD=4.060e-09\Dipole=-0.1038584,0.202,0.0567
 76\Quadrupole=4.8052314,5.2086856,-10.013917,-0.0535953,-2.3226954,3.3
 578472\PG=C01 [X(C29H24)]\\@


 THE SCIENTIFIC THEORIST IS NOT TO BE ENVIED. FOR NATURE, OR MORE
 PRECISELY EXPERIMENT, IS AN INEXORABLE AND NOT VERY FRIENDLY JUDGE OF HIS
 WORK.  IT NEVER SAYS "YES" TO A THEORY. IN THE MOST FAVORABLE CASES
 IT SAYS "MAYBE", AND IN THE GREAT MAJORITY OF CASES SIMPLY "NO"...
 PROBABLY EVERY THEORY WILL SOME DAY EXPERIENCE ITS "NO" - MOST
 THEORIES, SOON AFTER CONCEPTION.  -- A.EINSTEIN, NOV 11, 1922.
 Job cpu time:       0 days  2 hours  1 minutes 34.3 seconds.
 Elapsed time:       0 days  2 hours  1 minutes 43.0 seconds.
 File lengths (MBytes):  RWF=    589 Int=      0 D2E=      0 Chk=     64 Scr=      1
 Normal termination of Gaussian 16 at Tue Mar 17 14:10:05 2026.
