%chk=f2-def2TZVP_SP.chk
#p B3LYP/def2TZVP nosymm density=current sp

Generated by extraQ₂

0 1
C        -0.98113001       1.39302388      -0.97424268
C        -0.26156619       1.02434887       1.65369108
H        -1.99058214       1.99616228       0.80705768
H        -0.49402228       2.83729096       0.55138341
C         0.29781764       0.79503492      -1.55472069
C         1.26176686       1.12801675       1.64170500
C         1.85039582      -0.14416289       1.64170500
C         0.04930521      -0.47555742      -2.09816217
C        -1.36511030      -0.79981523      -1.90696300
C         0.78545908      -1.14824776       1.64170500
C        -0.45469406      -0.48983629       1.64042045
C        -1.98181271       0.27268195      -1.24790788
C        -3.34222220       0.24138987      -0.98802278
C        -1.62770548      -1.22412795       1.71398169
C        -4.08360933      -0.87621331      -1.36885771
C        -1.56096246      -2.61514604       1.75691126
C        -0.32965897      -3.26684857       1.73695757
C        -3.46613800      -1.94884697      -2.00897278
C        -2.10357922      -1.91639829      -2.28579668
C         0.85257953      -2.53745366       1.68462132
H         1.80857837      -3.04671172       1.68511438
H        -1.63057409      -2.74977934      -2.79066095
H        -4.05381333      -2.81108284      -2.29852694
H        -0.29422457      -4.34869575       1.77002640
H        -5.14741675      -0.90976990      -1.16909009
H        -2.47478306      -3.19379123       1.80266813
H        -3.83670894       1.07026829      -0.49417640
H        -2.59289930      -0.73485692       1.72886594
C         1.06263942      -1.18813001      -2.73190443
C         3.23443138      -0.28337886       1.66764271
C         2.32669852      -0.61790177      -2.82908772
C         4.02614216       0.85950943       1.70304832
C         2.57040597       0.65152075      -2.30909908
C         3.44194779       2.12441564       1.71999580
C         2.05492957       2.26273303       1.69208796
C         1.55545430       1.36468754      -1.67466849
H         1.61418352       3.25312525       1.70962993
H         1.76318160       2.34889448      -1.27542699
H         3.55769332       1.08724649      -2.39511646
H         4.06988222       3.00584945       1.75863935
H         3.12612425      -1.16008520      -3.31867958
H         5.10483330       0.76659411       1.72418986
H         0.87248351      -2.16863771      -3.15109738
H         3.69402444      -1.26414103       1.66258412
C        -1.38484943       2.63786350      -1.80340228
H        -1.50383552       2.37778460      -2.85547065
H        -2.33001508       3.05139762      -1.44498918
H        -0.62263439       3.41538248      -1.72626353
C        -0.94718919       1.84260645       0.51786320
C        -0.79122917       1.59496385       2.99306911
H        -0.61167188       2.67058262       3.05319436
H        -1.86523679       1.42390425       3.08636974
H        -0.29367132       1.11867473       3.83819332



