29
Generated from .fchk
C 0.000044 1.412899 -0.000025
C -1.180692 0.446243 0.000031
C -0.734036 -0.890027 0.000025
C 0.733989 -0.890073 0.000018
C 1.180684 0.446183 0.000027
C 2.539409 0.732295 0.000045
C 3.457390 -0.324515 0.000047
C 3.013589 -1.650800 0.000036
C 1.648081 -1.943840 0.000020
H 1.307173 -2.975735 0.000015
H 3.737938 -2.460530 0.000041
H 4.522963 -0.112922 0.000062
H 2.891368 1.760992 0.000053
C -1.648095 -1.943823 0.000024
C -3.013605 -1.650803 0.000035
C -3.457382 -0.324511 0.000050
C -2.539421 0.732315 0.000047
H -2.891458 1.760990 0.000060
H -4.522954 -0.112903 0.000064
H -3.737983 -2.460506 0.000033
H -1.307098 -2.975687 0.000018
C 0.000027 2.295881 1.263826
H -0.000190 1.680875 2.168850
H 0.886880 2.939219 1.284717
H -0.886616 2.939515 1.284477
C 0.000013 2.295602 -1.264100
H -0.886634 2.939223 -1.284890
H 0.886866 2.938935 -1.285157
H -0.000219 1.680378 -2.168976