101
Generated from .fchk
C 1.335112 0.279758 1.105342
C -3.966865 -0.201312 1.786010
C -1.335062 -0.279772 1.105340
H 0.160733 -0.859644 2.533645
H -0.160680 0.859645 2.533629
C 3.966905 0.201317 1.786010
H -2.300662 0.698369 2.785804
H 2.295823 1.049447 2.872532
H -2.295801 -1.049501 2.872501
H 2.300721 -0.698415 2.785787
C 1.580216 -0.626353 -0.099034
C -4.361468 -1.182969 0.684730
C 4.393823 -1.129780 1.170142
C -1.304356 -1.658964 0.447307
C 4.903089 -0.939161 -0.128129
C -1.501179 -1.552849 -0.941124
C -4.876818 -0.495225 -0.431147
C 1.671006 0.137186 -1.278333
C 1.501124 1.552851 -0.941122
C -4.903066 0.939158 -0.128123
C -1.671015 -0.137176 -1.278324
C 4.876804 0.495218 -0.431168
C -1.580187 0.626350 -0.099020
C 4.361469 1.182965 0.684713
C -4.393760 1.129780 1.170132
C 1.304382 1.658956 0.447320
C 1.117364 2.898601 1.040793
C -4.351188 2.398613 1.730277
C 4.312075 2.570479 0.688617
C -1.725021 2.006195 -0.148554
C 1.124810 4.044780 0.238073
C -4.793583 3.490705 0.974704
C -1.951276 2.624322 -1.378163
C 4.725213 3.269808 -0.448271
C -2.035254 1.865201 -2.550627
C 5.197472 2.583691 -1.572206
C 1.319060 3.939252 -1.142071
C -5.275373 3.304334 -0.324389
C 1.509607 2.691970 -1.741266
C -5.337893 2.025929 -0.883783
C 5.285727 1.191209 -1.568481
C -1.897347 0.478318 -2.509127
H -1.965804 -0.112378 -3.418436
H 5.668280 0.659919 -2.435709
H 1.660192 2.614361 -2.813961
H -5.714419 1.884931 -1.892985
H 1.322219 4.836438 -1.755000
H -5.608950 4.161619 -0.902606
H 5.505265 3.141081 -2.452689
H -2.211413 2.361448 -3.501254
H 0.978061 5.022049 0.689936
H -4.761388 4.489964 1.400113
H -2.062804 3.702678 -1.421111
H 4.662874 4.353646 -0.463562
H 0.964632 2.986695 2.114394
H -3.968944 2.551000 2.737065
H -1.663144 2.603991 0.751741
H 3.928077 3.110654 1.547683
C -5.285770 -1.191226 -1.568445
C 1.897325 -0.478293 -2.509145
C 5.337878 -2.025935 -0.883807
C -1.509744 -2.691967 -1.741270
C -5.197547 -2.583708 -1.572147
C 2.035282 -1.865170 -2.550657
C 5.275386 -3.304336 -0.324402
C -1.319201 -3.939257 -1.142089
C -4.725293 -3.269822 -0.448208
C 1.951345 -2.624303 -1.378196
C 4.793649 -3.490703 0.974712
C -1.124845 -4.044792 0.238039
C 4.351275 -2.398610 1.730296
C -1.117315 -2.898615 1.040761
C -4.312109 -2.570484 0.688657
C 1.725069 -2.006195 -0.148582
H 3.969072 -2.550996 2.737100
H -0.964518 -2.986717 2.114352
H 1.663229 -2.604000 0.751713
H -3.928143 -3.110653 1.547740
H -4.662989 -4.353661 -0.463486
H 2.062908 -3.702655 -1.421153
H 4.761475 -4.489960 1.400126
H -0.978094 -5.022066 0.689892
H -5.505370 -3.141106 -2.452616
H 2.211446 -2.361404 -3.501289
H 5.608931 -4.161625 -0.902633
H -1.322412 -4.836440 -1.755023
H -5.668339 -0.659945 -2.435672
H 1.965752 0.112412 -3.418451
H 5.714349 -1.884942 -1.893029
H -1.660373 -2.614351 -2.813958
C -4.787878 -0.475371 3.066022
H -5.859228 -0.413254 2.853821
H -4.548648 0.256062 3.846641
H -4.570679 -1.475178 3.458073
C 2.459958 0.207532 2.187926
C -2.459927 -0.207564 2.187926
C 0.000016 -0.000007 1.871532
C 4.787916 0.475425 3.066005
H 4.548726 -0.256007 3.846637
H 4.570665 1.475226 3.458042
H 5.859267 0.413360 2.853797