 Entering Gaussian System, Link 0=g16
 Initial command:
 /sw/cluster/pub/apps//g16/l1.exe "/data/mmaximo/52022/Gau-1122183.inp" -scrdir="/data/mmaximo/52022/"
 Entering Link 1 = /sw/cluster/pub/apps//g16/l1.exe PID=   1122184.
  
 Copyright (c) 1988,1990,1992,1993,1995,1998,2003,2009,2016,
            Gaussian, Inc.  All Rights Reserved.
  
 This is part of the Gaussian(R) 16 program.  It is based on
 the Gaussian(R) 09 system (copyright 2009, Gaussian, Inc.),
 the Gaussian(R) 03 system (copyright 2003, Gaussian, Inc.),
 the Gaussian(R) 98 system (copyright 1998, Gaussian, Inc.),
 the Gaussian(R) 94 system (copyright 1995, Gaussian, Inc.),
 the Gaussian 92(TM) system (copyright 1992, Gaussian, Inc.),
 the Gaussian 90(TM) system (copyright 1990, Gaussian, Inc.),
 the Gaussian 88(TM) system (copyright 1988, Gaussian, Inc.),
 the Gaussian 86(TM) system (copyright 1986, Carnegie Mellon
 University), and the Gaussian 82(TM) system (copyright 1983,
 Carnegie Mellon University). Gaussian is a federally registered
 trademark of Gaussian, Inc.
  
 This software contains proprietary and confidential information,
 including trade secrets, belonging to Gaussian, Inc.
  
 This software is provided under written license and may be
 used, copied, transmitted, or stored only in accord with that
 written license.
  
 The following legend is applicable only to US Government
 contracts under FAR:
  
                    RESTRICTED RIGHTS LEGEND
  
 Use, reproduction and disclosure by the US Government is
 subject to restrictions as set forth in subparagraphs (a)
 and (c) of the Commercial Computer Software - Restricted
 Rights clause in FAR 52.227-19.
  
 Gaussian, Inc.
 340 Quinnipiac St., Bldg. 40, Wallingford CT 06492
  
  
 ---------------------------------------------------------------
 Warning -- This program may not be used in any manner that
 competes with the business of Gaussian, Inc. or will provide
 assistance to any competitor of Gaussian, Inc.  The licensee
 of this program is prohibited from giving any competitor of
 Gaussian, Inc. access to this program.  By using this program,
 the user acknowledges that Gaussian, Inc. is engaged in the
 business of creating and licensing software in the field of
 computational chemistry and represents and warrants to the
 licensee that it is not a competitor of Gaussian, Inc. and that
 it will not use this program in any manner prohibited above.
 ---------------------------------------------------------------
  

 Cite this work as:
 Gaussian 16, Revision A.03,
 M. J. Frisch, G. W. Trucks, H. B. Schlegel, G. E. Scuseria, 
 M. A. Robb, J. R. Cheeseman, G. Scalmani, V. Barone, 
 G. A. Petersson, H. Nakatsuji, X. Li, M. Caricato, A. V. Marenich, 
 J. Bloino, B. G. Janesko, R. Gomperts, B. Mennucci, H. P. Hratchian, 
 J. V. Ortiz, A. F. Izmaylov, J. L. Sonnenberg, D. Williams-Young, 
 F. Ding, F. Lipparini, F. Egidi, J. Goings, B. Peng, A. Petrone, 
 T. Henderson, D. Ranasinghe, V. G. Zakrzewski, J. Gao, N. Rega, 
 G. Zheng, W. Liang, M. Hada, M. Ehara, K. Toyota, R. Fukuda, 
 J. Hasegawa, M. Ishida, T. Nakajima, Y. Honda, O. Kitao, H. Nakai, 
 T. Vreven, K. Throssell, J. A. Montgomery, Jr., J. E. Peralta, 
 F. Ogliaro, M. J. Bearpark, J. J. Heyd, E. N. Brothers, K. N. Kudin, 
 V. N. Staroverov, T. A. Keith, R. Kobayashi, J. Normand, 
 K. Raghavachari, A. P. Rendell, J. C. Burant, S. S. Iyengar, 
 J. Tomasi, M. Cossi, J. M. Millam, M. Klene, C. Adamo, R. Cammi, 
 J. W. Ochterski, R. L. Martin, K. Morokuma, O. Farkas, 
 J. B. Foresman, and D. J. Fox, Gaussian, Inc., Wallingford CT, 2016.
 
 ******************************************
 Gaussian 16:  ES64L-G16RevA.03 25-Dec-2016
                21-Aug-2026 
 ******************************************
 %chk=f4_SP.chk
 ---------------------------------------------------------------------
 #p b3lyp/6-31g(d) nosymm density=current sp EmpiricalDispersion=GD3BJ
 ---------------------------------------------------------------------
 1/30=1,38=1,172=1/1;
 2/12=2,15=1,17=6,18=5,40=1/2;
 3/5=1,6=6,7=1,11=2,25=1,30=1,74=-5,124=41/1,2,3;
 4//1;
 5/5=2,38=5/2;
 6/7=2,8=2,9=2,10=2,22=-1,28=1/1;
 99/5=1,9=1/99;
 Leave Link    1 at Fri Aug 21 09:57:56 2026, MaxMem=           0 cpu:               0.0 elap:               0.0
 (Enter /sw/cluster/pub/apps//g16/l101.exe)
 ----------------------------------------------
 Generated by extraQ₂ - dispersion correction
 ----------------------------------------------
 Symbolic Z-matrix:
 Charge =  0 Multiplicity = 1
 C                     0.51016   0.19517  -1.6686 
 C                     3.0853    0.52182   3.02902 
 C                     1.53411   0.01444   0.85366 
 H                     2.40537  -0.62948  -1.00107 
 H                     2.28048   1.10996  -0.86687 
 C                     0.21785  -0.18311  -4.34577 
 H                     3.29443   1.2721    1.03438 
 H                     1.69699   0.98804  -3.2814 
 H                     3.61563  -0.44334   1.16367 
 H                     1.85778  -0.74383  -3.08821 
 C                    -0.56458  -0.84628  -1.36538 
 C                     2.34308  -0.49548   3.89296 
 C                    -0.3181   -1.61294  -4.38732 
 C                     1.10627  -1.41178   1.1986 
 C                    -1.72559  -1.61887  -4.39776 
 C                    -0.12265  -1.41149   1.88235 
 C                     1.39831   0.14823   4.71564 
 C                    -1.79333  -0.21805  -1.08703 
 C                    -1.61791   1.23302  -1.18847 
 C                     1.48862   1.59457   4.4922 
 C                    -0.57089  -0.02437   2.02946 
 C                    -2.19571  -0.23     -4.39776 
 C                     0.38143   0.8275    1.43836 
 C                    -1.07671   0.62533  -4.39776 
 C                     2.4822    1.83485   3.52459 
 C                    -0.27898   1.4966   -1.5284 
 C                     0.16393   2.80084  -1.69177 
 C                     2.80888   3.13281   3.15843 
 C                    -1.2483    2.00031  -4.48509 
 C                     0.19532   2.20311   1.45971 
 C                    -0.74019   3.85354  -1.51144 
 C                     2.11529   4.19915   3.74249 
 C                    -0.94741   2.72726   2.06358 
 C                    -2.54314   2.5245   -4.51437 
 C                    -1.89644   1.87944   2.64541 
 C                    -3.65455   1.676    -4.47172 
 C                    -2.07063   3.59167  -1.17232 
 C                     1.11059   3.95916   4.68456 
 C                    -2.51903   2.27887  -1.00938 
 C                     0.793     2.6546    5.0698 
 C                    -3.489     0.29144  -4.42267 
 C                    -1.71432   0.49709   2.63409 
 H                    -2.4489   -0.16191   3.08859 
 H                    -4.35273  -0.36764  -4.40637 
 H                    -3.55357   2.07974  -0.74586 
 H                     0.01277   2.4722    5.80336 
 H                    -2.76315   4.41752  -1.03438 
 H                     0.57505   4.79573   5.12488 
 H                    -4.65525   2.09921  -4.48464 
 H                    -2.78201   2.30294   3.11167 
 H                    -0.40605   4.88012  -1.63497 
 H                     2.35849   5.22004   3.46115 
 H                    -1.09736   3.80168   2.08029 
 H                    -2.68571   3.60012  -4.55386 
 H                     1.19862   3.01069  -1.95464 
 H                     3.58327   3.32541   2.41939 
 H                     0.9229    2.86917   1.01394 
 H                    -0.39283   2.66758  -4.49788 
 C                     0.5882   -0.5889    5.57903 
 C                    -2.92623  -0.9729   -0.78425 
 C                    -2.42754  -2.82221  -4.41822 
 C                    -0.70133  -2.60907   2.29323 
 C                     0.7469   -1.97416   5.63086 
 C                    -2.8209   -2.36313  -0.76501 
 C                    -1.71055  -4.02068  -4.44541 
 C                    -0.04155  -3.80825   2.01443 
 C                     1.71417  -2.60951   4.8449 
 C                    -1.60151  -2.98862  -1.0476 
 C                    -0.31262  -4.0143   -4.46114 
 C                     1.18048  -3.8084    1.33597 
 C                     0.39119  -2.80468  -4.43414 
 C                     1.76093  -2.60348   0.92443 
 C                     2.52192  -1.86972   3.97744 
 C                    -0.4701   -2.23129  -1.35022 
 H                     1.47882  -2.80635  -4.43738 
 H                     2.7118   -2.60974   0.39574 
 H                     0.46737  -2.72662  -1.56822 
 H                     3.25529  -2.37406   3.35692 
 H                     1.82848  -3.68802   4.89569 
 H                    -1.53101  -4.07118  -1.03268 
 H                     0.23095  -4.95452  -4.49345 
 H                     1.68204  -4.74929   1.12638 
 H                     0.11919  -2.56436   6.29292 
 H                    -3.69349  -2.9669   -0.53045 
 H                    -2.2444   -4.96691  -4.45942 
 H                    -0.48262  -4.75033   2.32841 
 H                    -0.15197  -0.09429   6.20211 
 H                    -3.87338  -0.48634  -0.56835 
 H                    -3.5138   -2.8312   -4.40771 
 H                    -1.65068  -2.61336   2.82057 
 C                     4.59798   0.48706   3.34239 
 H                     4.77278   0.67696   4.40544 
 H                     5.13349   1.24888   2.76406 
 H                     5.0224   -0.49149   3.09183 
 C                     1.12267   0.07041  -3.10099 
 C                     2.92381   0.34449   1.48795 
 C                     1.73066   0.17745  -0.68989 
 C                     1.07248   0.09444  -5.6028 
 H                     1.9807   -0.51933  -5.60002 
 H                     1.37315   1.14735  -5.64122 
 H                     0.50521  -0.13565  -6.50941 
 
 ITRead=  0  0  0  0  0  0  0  0  0  0  0  0  0  0  0  0  0  0  0  0
 ITRead=  0  0  0  0  0  0  0  0  0  0  0  0  0  0  0  0  0  0  0  0
 ITRead=  0  0  0  0  0  0  0  0  0  0  0  0  0  0  0  0  0  0  0  0
 ITRead=  0  0  0  0  0  0  0  0  0  0  0  0  0  0  0  0  0  0  0  0
 ITRead=  0  0  0  0  0  0  0  0  0  0  0  0  0  0  0  0  0  0  0  0
 ITRead=  0
 MicOpt= -1 -1 -1 -1 -1 -1 -1 -1 -1 -1 -1 -1 -1 -1 -1 -1 -1 -1 -1 -1
 MicOpt= -1 -1 -1 -1 -1 -1 -1 -1 -1 -1 -1 -1 -1 -1 -1 -1 -1 -1 -1 -1
 MicOpt= -1 -1 -1 -1 -1 -1 -1 -1 -1 -1 -1 -1 -1 -1 -1 -1 -1 -1 -1 -1
 MicOpt= -1 -1 -1 -1 -1 -1 -1 -1 -1 -1 -1 -1 -1 -1 -1 -1 -1 -1 -1 -1
 MicOpt= -1 -1 -1 -1 -1 -1 -1 -1 -1 -1 -1 -1 -1 -1 -1 -1 -1 -1 -1 -1
 MicOpt= -1
 NAtoms=    101 NQM=      101 NQMF=       0 NMMI=      0 NMMIF=      0
                NMic=       0 NMicF=      0.
                    Isotopes and Nuclear Properties:
 (Nuclear quadrupole moments (NQMom) in fm**2, nuclear magnetic moments (NMagM)
  in nuclear magnetons)

  Atom         1           2           3           4           5           6           7           8           9          10
 IAtWgt=          12          12          12           1           1          12           1           1           1           1
 AtmWgt=  12.0000000  12.0000000  12.0000000   1.0078250   1.0078250  12.0000000   1.0078250   1.0078250   1.0078250   1.0078250
 NucSpn=           0           0           0           1           1           0           1           1           1           1
 AtZEff=  -0.0000000  -0.0000000  -0.0000000  -0.0000000  -0.0000000  -0.0000000  -0.0000000  -0.0000000  -0.0000000  -0.0000000
 NQMom=    0.0000000   0.0000000   0.0000000   0.0000000   0.0000000   0.0000000   0.0000000   0.0000000   0.0000000   0.0000000
 NMagM=    0.0000000   0.0000000   0.0000000   2.7928460   2.7928460   0.0000000   2.7928460   2.7928460   2.7928460   2.7928460
 AtZNuc=   6.0000000   6.0000000   6.0000000   1.0000000   1.0000000   6.0000000   1.0000000   1.0000000   1.0000000   1.0000000

  Atom        11          12          13          14          15          16          17          18          19          20
 IAtWgt=          12          12          12          12          12          12          12          12          12          12
 AtmWgt=  12.0000000  12.0000000  12.0000000  12.0000000  12.0000000  12.0000000  12.0000000  12.0000000  12.0000000  12.0000000
 NucSpn=           0           0           0           0           0           0           0           0           0           0
 AtZEff=  -0.0000000  -0.0000000  -0.0000000  -0.0000000  -0.0000000  -0.0000000  -0.0000000  -0.0000000  -0.0000000  -0.0000000
 NQMom=    0.0000000   0.0000000   0.0000000   0.0000000   0.0000000   0.0000000   0.0000000   0.0000000   0.0000000   0.0000000
 NMagM=    0.0000000   0.0000000   0.0000000   0.0000000   0.0000000   0.0000000   0.0000000   0.0000000   0.0000000   0.0000000
 AtZNuc=   6.0000000   6.0000000   6.0000000   6.0000000   6.0000000   6.0000000   6.0000000   6.0000000   6.0000000   6.0000000

  Atom        21          22          23          24          25          26          27          28          29          30
 IAtWgt=          12          12          12          12          12          12          12          12          12          12
 AtmWgt=  12.0000000  12.0000000  12.0000000  12.0000000  12.0000000  12.0000000  12.0000000  12.0000000  12.0000000  12.0000000
 NucSpn=           0           0           0           0           0           0           0           0           0           0
 AtZEff=  -0.0000000  -0.0000000  -0.0000000  -0.0000000  -0.0000000  -0.0000000  -0.0000000  -0.0000000  -0.0000000  -0.0000000
 NQMom=    0.0000000   0.0000000   0.0000000   0.0000000   0.0000000   0.0000000   0.0000000   0.0000000   0.0000000   0.0000000
 NMagM=    0.0000000   0.0000000   0.0000000   0.0000000   0.0000000   0.0000000   0.0000000   0.0000000   0.0000000   0.0000000
 AtZNuc=   6.0000000   6.0000000   6.0000000   6.0000000   6.0000000   6.0000000   6.0000000   6.0000000   6.0000000   6.0000000

  Atom        31          32          33          34          35          36          37          38          39          40
 IAtWgt=          12          12          12          12          12          12          12          12          12          12
 AtmWgt=  12.0000000  12.0000000  12.0000000  12.0000000  12.0000000  12.0000000  12.0000000  12.0000000  12.0000000  12.0000000
 NucSpn=           0           0           0           0           0           0           0           0           0           0
 AtZEff=  -0.0000000  -0.0000000  -0.0000000  -0.0000000  -0.0000000  -0.0000000  -0.0000000  -0.0000000  -0.0000000  -0.0000000
 NQMom=    0.0000000   0.0000000   0.0000000   0.0000000   0.0000000   0.0000000   0.0000000   0.0000000   0.0000000   0.0000000
 NMagM=    0.0000000   0.0000000   0.0000000   0.0000000   0.0000000   0.0000000   0.0000000   0.0000000   0.0000000   0.0000000
 AtZNuc=   6.0000000   6.0000000   6.0000000   6.0000000   6.0000000   6.0000000   6.0000000   6.0000000   6.0000000   6.0000000

  Atom        41          42          43          44          45          46          47          48          49          50
 IAtWgt=          12          12           1           1           1           1           1           1           1           1
 AtmWgt=  12.0000000  12.0000000   1.0078250   1.0078250   1.0078250   1.0078250   1.0078250   1.0078250   1.0078250   1.0078250
 NucSpn=           0           0           1           1           1           1           1           1           1           1
 AtZEff=  -0.0000000  -0.0000000  -0.0000000  -0.0000000  -0.0000000  -0.0000000  -0.0000000  -0.0000000  -0.0000000  -0.0000000
 NQMom=    0.0000000   0.0000000   0.0000000   0.0000000   0.0000000   0.0000000   0.0000000   0.0000000   0.0000000   0.0000000
 NMagM=    0.0000000   0.0000000   2.7928460   2.7928460   2.7928460   2.7928460   2.7928460   2.7928460   2.7928460   2.7928460
 AtZNuc=   6.0000000   6.0000000   1.0000000   1.0000000   1.0000000   1.0000000   1.0000000   1.0000000   1.0000000   1.0000000

  Atom        51          52          53          54          55          56          57          58          59          60
 IAtWgt=           1           1           1           1           1           1           1           1          12          12
 AtmWgt=   1.0078250   1.0078250   1.0078250   1.0078250   1.0078250   1.0078250   1.0078250   1.0078250  12.0000000  12.0000000
 NucSpn=           1           1           1           1           1           1           1           1           0           0
 AtZEff=  -0.0000000  -0.0000000  -0.0000000  -0.0000000  -0.0000000  -0.0000000  -0.0000000  -0.0000000  -0.0000000  -0.0000000
 NQMom=    0.0000000   0.0000000   0.0000000   0.0000000   0.0000000   0.0000000   0.0000000   0.0000000   0.0000000   0.0000000
 NMagM=    2.7928460   2.7928460   2.7928460   2.7928460   2.7928460   2.7928460   2.7928460   2.7928460   0.0000000   0.0000000
 AtZNuc=   1.0000000   1.0000000   1.0000000   1.0000000   1.0000000   1.0000000   1.0000000   1.0000000   6.0000000   6.0000000

  Atom        61          62          63          64          65          66          67          68          69          70
 IAtWgt=          12          12          12          12          12          12          12          12          12          12
 AtmWgt=  12.0000000  12.0000000  12.0000000  12.0000000  12.0000000  12.0000000  12.0000000  12.0000000  12.0000000  12.0000000
 NucSpn=           0           0           0           0           0           0           0           0           0           0
 AtZEff=  -0.0000000  -0.0000000  -0.0000000  -0.0000000  -0.0000000  -0.0000000  -0.0000000  -0.0000000  -0.0000000  -0.0000000
 NQMom=    0.0000000   0.0000000   0.0000000   0.0000000   0.0000000   0.0000000   0.0000000   0.0000000   0.0000000   0.0000000
 NMagM=    0.0000000   0.0000000   0.0000000   0.0000000   0.0000000   0.0000000   0.0000000   0.0000000   0.0000000   0.0000000
 AtZNuc=   6.0000000   6.0000000   6.0000000   6.0000000   6.0000000   6.0000000   6.0000000   6.0000000   6.0000000   6.0000000

  Atom        71          72          73          74          75          76          77          78          79          80
 IAtWgt=          12          12          12          12           1           1           1           1           1           1
 AtmWgt=  12.0000000  12.0000000  12.0000000  12.0000000   1.0078250   1.0078250   1.0078250   1.0078250   1.0078250   1.0078250
 NucSpn=           0           0           0           0           1           1           1           1           1           1
 AtZEff=  -0.0000000  -0.0000000  -0.0000000  -0.0000000  -0.0000000  -0.0000000  -0.0000000  -0.0000000  -0.0000000  -0.0000000
 NQMom=    0.0000000   0.0000000   0.0000000   0.0000000   0.0000000   0.0000000   0.0000000   0.0000000   0.0000000   0.0000000
 NMagM=    0.0000000   0.0000000   0.0000000   0.0000000   2.7928460   2.7928460   2.7928460   2.7928460   2.7928460   2.7928460
 AtZNuc=   6.0000000   6.0000000   6.0000000   6.0000000   1.0000000   1.0000000   1.0000000   1.0000000   1.0000000   1.0000000

  Atom        81          82          83          84          85          86          87          88          89          90
 IAtWgt=           1           1           1           1           1           1           1           1           1           1
 AtmWgt=   1.0078250   1.0078250   1.0078250   1.0078250   1.0078250   1.0078250   1.0078250   1.0078250   1.0078250   1.0078250
 NucSpn=           1           1           1           1           1           1           1           1           1           1
 AtZEff=  -0.0000000  -0.0000000  -0.0000000  -0.0000000  -0.0000000  -0.0000000  -0.0000000  -0.0000000  -0.0000000  -0.0000000
 NQMom=    0.0000000   0.0000000   0.0000000   0.0000000   0.0000000   0.0000000   0.0000000   0.0000000   0.0000000   0.0000000
 NMagM=    2.7928460   2.7928460   2.7928460   2.7928460   2.7928460   2.7928460   2.7928460   2.7928460   2.7928460   2.7928460
 AtZNuc=   1.0000000   1.0000000   1.0000000   1.0000000   1.0000000   1.0000000   1.0000000   1.0000000   1.0000000   1.0000000

  Atom        91          92          93          94          95          96          97          98          99         100
 IAtWgt=          12           1           1           1          12          12          12          12           1           1
 AtmWgt=  12.0000000   1.0078250   1.0078250   1.0078250  12.0000000  12.0000000  12.0000000  12.0000000   1.0078250   1.0078250
 NucSpn=           0           1           1           1           0           0           0           0           1           1
 AtZEff=  -0.0000000  -0.0000000  -0.0000000  -0.0000000  -0.0000000  -0.0000000  -0.0000000  -0.0000000  -0.0000000  -0.0000000
 NQMom=    0.0000000   0.0000000   0.0000000   0.0000000   0.0000000   0.0000000   0.0000000   0.0000000   0.0000000   0.0000000
 NMagM=    0.0000000   2.7928460   2.7928460   2.7928460   0.0000000   0.0000000   0.0000000   0.0000000   2.7928460   2.7928460
 AtZNuc=   6.0000000   1.0000000   1.0000000   1.0000000   6.0000000   6.0000000   6.0000000   6.0000000   1.0000000   1.0000000

  Atom       101
 IAtWgt=           1
 AtmWgt=   1.0078250
 NucSpn=           1
 AtZEff=  -0.0000000
 NQMom=    0.0000000
 NMagM=    2.7928460
 AtZNuc=   1.0000000
 Leave Link  101 at Fri Aug 21 09:57:56 2026, MaxMem=   104857600 cpu:               0.0 elap:               0.0
 (Enter /sw/cluster/pub/apps//g16/l202.exe)
 Symmetry turned off by external request.
 Stoichiometry    C57H44
 Framework group  C1[X(C57H44)]
 Deg. of freedom   297
 Full point group                 C1      NOp   1
                          Input orientation:                          
 ---------------------------------------------------------------------
 Center     Atomic      Atomic             Coordinates (Angstroms)
 Number     Number       Type             X           Y           Z
 ---------------------------------------------------------------------
      1          6           0        0.510161    0.195167   -1.668597
      2          6           0        3.085302    0.521824    3.029024
      3          6           0        1.534113    0.014436    0.853657
      4          1           0        2.405370   -0.629477   -1.001066
      5          1           0        2.280483    1.109964   -0.866867
      6          6           0        0.217845   -0.183115   -4.345769
      7          1           0        3.294435    1.272095    1.034380
      8          1           0        1.696992    0.988042   -3.281398
      9          1           0        3.615626   -0.443338    1.163665
     10          1           0        1.857782   -0.743834   -3.088214
     11          6           0       -0.564584   -0.846283   -1.365379
     12          6           0        2.343083   -0.495478    3.892960
     13          6           0       -0.318096   -1.612944   -4.387316
     14          6           0        1.106267   -1.411777    1.198603
     15          6           0       -1.725594   -1.618872   -4.397761
     16          6           0       -0.122648   -1.411493    1.882349
     17          6           0        1.398310    0.148232    4.715639
     18          6           0       -1.793333   -0.218050   -1.087026
     19          6           0       -1.617907    1.233023   -1.188470
     20          6           0        1.488622    1.594567    4.492199
     21          6           0       -0.570889   -0.024368    2.029461
     22          6           0       -2.195714   -0.230004   -4.397761
     23          6           0        0.381427    0.827496    1.438358
     24          6           0       -1.076714    0.625329   -4.397761
     25          6           0        2.482201    1.834847    3.524593
     26          6           0       -0.278985    1.496596   -1.528401
     27          6           0        0.163933    2.800835   -1.691771
     28          6           0        2.808884    3.132813    3.158432
     29          6           0       -1.248296    2.000314   -4.485092
     30          6           0        0.195316    2.203108    1.459709
     31          6           0       -0.740187    3.853542   -1.511444
     32          6           0        2.115287    4.199147    3.742490
     33          6           0       -0.947409    2.727259    2.063577
     34          6           0       -2.543142    2.524504   -4.514370
     35          6           0       -1.896439    1.879435    2.645406
     36          6           0       -3.654551    1.675997   -4.471722
     37          6           0       -2.070633    3.591670   -1.172322
     38          6           0        1.110592    3.959157    4.684557
     39          6           0       -2.519032    2.278870   -1.009382
     40          6           0        0.793001    2.654596    5.069796
     41          6           0       -3.488996    0.291441   -4.422668
     42          6           0       -1.714325    0.497085    2.634090
     43          1           0       -2.448897   -0.161915    3.088593
     44          1           0       -4.352732   -0.367644   -4.406374
     45          1           0       -3.553573    2.079737   -0.745860
     46          1           0        0.012773    2.472202    5.803361
     47          1           0       -2.763148    4.417521   -1.034381
     48          1           0        0.575049    4.795732    5.124877
     49          1           0       -4.655247    2.099213   -4.484640
     50          1           0       -2.782006    2.302939    3.111668
     51          1           0       -0.406052    4.880121   -1.634972
     52          1           0        2.358492    5.220043    3.461153
     53          1           0       -1.097363    3.801675    2.080289
     54          1           0       -2.685713    3.600115   -4.553859
     55          1           0        1.198617    3.010688   -1.954635
     56          1           0        3.583272    3.325411    2.419389
     57          1           0        0.922899    2.869166    1.013941
     58          1           0       -0.392829    2.667584   -4.497884
     59          6           0        0.588196   -0.588904    5.579034
     60          6           0       -2.926230   -0.972905   -0.784251
     61          6           0       -2.427543   -2.822208   -4.418217
     62          6           0       -0.701334   -2.609072    2.293231
     63          6           0        0.746895   -1.974160    5.630855
     64          6           0       -2.820898   -2.363127   -0.765015
     65          6           0       -1.710554   -4.020681   -4.445414
     66          6           0       -0.041553   -3.808246    2.014433
     67          6           0        1.714169   -2.609514    4.844903
     68          6           0       -1.601513   -2.988616   -1.047601
     69          6           0       -0.312623   -4.014305   -4.461140
     70          6           0        1.180477   -3.808402    1.335974
     71          6           0        0.391188   -2.804681   -4.434139
     72          6           0        1.760932   -2.603477    0.924430
     73          6           0        2.521919   -1.869717    3.977437
     74          6           0       -0.470104   -2.231290   -1.350224
     75          1           0        1.478820   -2.806349   -4.437379
     76          1           0        2.711804   -2.609744    0.395744
     77          1           0        0.467365   -2.726625   -1.568217
     78          1           0        3.255291   -2.374057    3.356919
     79          1           0        1.828484   -3.688020    4.895693
     80          1           0       -1.531011   -4.071179   -1.032680
     81          1           0        0.230949   -4.954524   -4.493450
     82          1           0        1.682038   -4.749294    1.126376
     83          1           0        0.119193   -2.564358    6.292919
     84          1           0       -3.693490   -2.966901   -0.530446
     85          1           0       -2.244404   -4.966913   -4.459417
     86          1           0       -0.482615   -4.750327    2.328414
     87          1           0       -0.151967   -0.094291    6.202105
     88          1           0       -3.873380   -0.486338   -0.568354
     89          1           0       -3.513797   -2.831204   -4.407705
     90          1           0       -1.650683   -2.613357    2.820574
     91          6           0        4.597980    0.487063    3.342394
     92          1           0        4.772785    0.676962    4.405437
     93          1           0        5.133485    1.248877    2.764064
     94          1           0        5.022404   -0.491495    3.091831
     95          6           0        1.122673    0.070406   -3.100989
     96          6           0        2.923812    0.344489    1.487949
     97          6           0        1.730662    0.177455   -0.689893
     98          6           0        1.072484    0.094441   -5.602804
     99          1           0        1.980703   -0.519334   -5.600015
    100          1           0        1.373150    1.147350   -5.641221
    101          1           0        0.505206   -0.135650   -6.509409
 ---------------------------------------------------------------------
 Rotational constants (GHZ):           0.0993095           0.0468279           0.0398298
 Leave Link  202 at Fri Aug 21 09:57:56 2026, MaxMem=   104857600 cpu:               0.0 elap:               0.0
 (Enter /sw/cluster/pub/apps//g16/l301.exe)
 Standard basis: 6-31G(d) (6D, 7F)
 Ernie: Thresh=  0.10000D-02 Tol=  0.10000D-05 Strict=F.
   943 basis functions,  1772 primitive gaussians,   943 cartesian basis functions
   193 alpha electrons      193 beta electrons
       nuclear repulsion energy      8333.1432265360 Hartrees.
 IExCor=  402 DFT=T Ex+Corr=B3LYP ExCW=0 ScaHFX=  0.200000
 ScaDFX=  0.800000  0.720000  1.000000  0.810000 ScalE2=  1.000000  1.000000
 IRadAn=      5 IRanWt=     -1 IRanGd=            0 ICorTp=0 IEmpDi=141
 NAtoms=  101 NActive=  101 NUniq=  101 SFac= 1.00D+00 NAtFMM=   60 NAOKFM=T Big=T
 Integral buffers will be    131072 words long.
 Raffenetti 2 integral format.
 Two-electron integral symmetry is turned off.
 R6Disp:  Grimme-D3(BJ) Dispersion energy=       -0.3462083225 Hartrees.
 Nuclear repulsion after empirical dispersion term =     8332.7970182135 Hartrees.
 Leave Link  301 at Fri Aug 21 09:57:56 2026, MaxMem=   104857600 cpu:               0.0 elap:               0.0
 (Enter /sw/cluster/pub/apps//g16/l302.exe)
 NPDir=0 NMtPBC=     1 NCelOv=     1 NCel=       1 NClECP=     1 NCelD=      1
         NCelK=      1 NCelE2=     1 NClLst=     1 CellRange=     0.0.
 One-electron integrals computed using PRISM.
 NBasis=   943 RedAO= T EigKep=  3.21D-04  NBF=   943
 NBsUse=   943 1.00D-06 EigRej= -1.00D+00 NBFU=   943
 Precomputing XC quadrature grid using
 IXCGrd= 4 IRadAn=           5 IRanWt=          -1 IRanGd=           0 AccXCQ= 0.00D+00.
 Generated NRdTot=       0 NPtTot=           0 NUsed=           0 NTot=          32
 NSgBfM=   890   890   890   890   890 MxSgAt=   101 MxSgA2=   101.
 Leave Link  302 at Fri Aug 21 09:58:03 2026, MaxMem=   104857600 cpu:               6.6 elap:               6.6
 (Enter /sw/cluster/pub/apps//g16/l303.exe)
 DipDrv:  MaxL=1.
 Leave Link  303 at Fri Aug 21 09:58:03 2026, MaxMem=   104857600 cpu:               0.1 elap:               0.1
 (Enter /sw/cluster/pub/apps//g16/l401.exe)
 ExpMin= 1.61D-01 ExpMax= 3.05D+03 ExpMxC= 4.57D+02 IAcc=3 IRadAn=         5 AccDes= 0.00D+00
 Harris functional with IExCor=  402 and IRadAn=       5 diagonalized for initial guess.
 HarFok:  IExCor=  402 AccDes= 0.00D+00 IRadAn=         5 IDoV= 1 UseB2=F ITyADJ=14
 ICtDFT=  3500011 ScaDFX=  1.000000  1.000000  1.000000  1.000000
 FoFCou: FMM=F IPFlag=           0 FMFlag=      100000 FMFlg1=        2001
         NFxFlg=           0 DoJE=T BraDBF=F KetDBF=T FulRan=T
         wScrn=  0.000000 ICntrl=       500 IOpCl=  0 I1Cent=   200000004 NGrid=           0
         NMat0=    1 NMatS0=      1 NMatT0=    0 NMatD0=    1 NMtDS0=    0 NMtDT0=    0
 Symmetry not used in FoFCou.
 Harris En= -2198.96465364860    
 JPrj=0 DoOrth=F DoCkMO=F.
 Leave Link  401 at Fri Aug 21 09:58:43 2026, MaxMem=   104857600 cpu:              39.9 elap:              39.9
 (Enter /sw/cluster/pub/apps//g16/l502.exe)
 Two-electron integral symmetry not used.
 Closed shell SCF:
 Using DIIS extrapolation, IDIIS=  1040.
 NGot=   104857600 LenX=   103065426 LenY=   102175234
 Requested convergence on RMS density matrix=1.00D-08 within 128 cycles.
 Requested convergence on MAX density matrix=1.00D-06.
 Requested convergence on             energy=1.00D-06.
 No special actions if energy rises.
 Fock matrices will be formed incrementally for  20 cycles.
 Integral accuracy reduced to 1.0D-05 until final iterations.

 Cycle   1  Pass 0  IDiag  1:
 FoFJK:  IHMeth= 1 ICntrl=       0 DoSepK=F KAlg= 0 I1Cent=           0 FoldK=F
 IRaf= 950000000 NMat=       1 IRICut=       1 DoRegI=T DoRafI=F ISym2E= 0 IDoP0=0 IntGTp=1.
 FoFCou: FMM=T IPFlag=           0 FMFlag=      100000 FMFlg1=        2001
         NFxFlg=           0 DoJE=F BraDBF=F KetDBF=F FulRan=T
         wScrn=  0.000000 ICntrl=         0 IOpCl=  0 I1Cent=           0 NGrid=           0
         NMat0=    1 NMatS0=      1 NMatT0=    0 NMatD0=    1 NMtDS0=    0 NMtDT0=    0
 Symmetry not used in FoFCou.
 FMM levels:  10  Number of levels for PrismC:   9
 E= -2197.72553959366    
 DIIS: error= 2.54D-02 at cycle   1 NSaved=   1.
 NSaved= 1 IEnMin= 1 EnMin= -2197.72553959366     IErMin= 1 ErrMin= 2.54D-02
 ErrMax= 2.54D-02  0.00D+00 EMaxC= 1.00D-01 BMatC= 1.10D+00 BMatP= 1.10D+00
 IDIUse=3 WtCom= 7.46D-01 WtEn= 2.54D-01
 Coeff-Com:  0.100D+01
 Coeff-En:   0.100D+01
 Coeff:      0.100D+01
 Gap=     0.182 Goal=   None    Shift=    0.000
 GapD=    0.182 DampG=1.000 DampE=0.500 DampFc=0.5000 IDamp=-1.
 Damping current iteration by 5.00D-01
 RMSDP=3.02D-03 MaxDP=1.40D-01              OVMax= 1.48D-01

 Cycle   2  Pass 0  IDiag  1:
 RMSU=  1.46D-03    CP:  9.65D-01
 E= -2198.29252980816     Delta-E=       -0.566990214500 Rises=F Damp=T
 DIIS: error= 5.06D-03 at cycle   2 NSaved=   2.
 NSaved= 2 IEnMin= 2 EnMin= -2198.29252980816     IErMin= 2 ErrMin= 5.06D-03
 ErrMax= 5.06D-03  0.00D+00 EMaxC= 1.00D-01 BMatC= 6.81D-02 BMatP= 1.10D+00
 IDIUse=3 WtCom= 9.49D-01 WtEn= 5.06D-02
 Coeff-Com:  0.546D-03 0.999D+00
 Coeff-En:   0.122D-01 0.988D+00
 Coeff:      0.114D-02 0.999D+00
 Gap=     0.199 Goal=   None    Shift=    0.000
 RMSDP=1.21D-03 MaxDP=5.54D-02 DE=-5.67D-01 OVMax= 9.42D-02

 Cycle   3  Pass 0  IDiag  1:
 RMSU=  1.15D-03    CP:  9.34D-01  9.11D-01
 E= -2198.89138420208     Delta-E=       -0.598854393927 Rises=F Damp=F
 DIIS: error= 4.66D-03 at cycle   3 NSaved=   3.
 NSaved= 3 IEnMin= 3 EnMin= -2198.89138420208     IErMin= 3 ErrMin= 4.66D-03
 ErrMax= 4.66D-03  0.00D+00 EMaxC= 1.00D-01 BMatC= 4.33D-02 BMatP= 6.81D-02
 IDIUse=3 WtCom= 9.53D-01 WtEn= 4.66D-02
 Coeff-Com: -0.479D-01 0.447D+00 0.601D+00
 Coeff-En:   0.000D+00 0.000D+00 0.100D+01
 Coeff:     -0.456D-01 0.426D+00 0.619D+00
 Gap=     0.186 Goal=   None    Shift=    0.000
 RMSDP=6.12D-04 MaxDP=2.32D-02 DE=-5.99D-01 OVMax= 8.24D-02

 Cycle   4  Pass 0  IDiag  1:
 RMSU=  3.85D-04    CP:  9.40D-01  1.02D+00  6.16D-01
 E= -2198.89424728578     Delta-E=       -0.002863083697 Rises=F Damp=F
 DIIS: error= 5.32D-03 at cycle   4 NSaved=   4.
 NSaved= 4 IEnMin= 4 EnMin= -2198.89424728578     IErMin= 3 ErrMin= 4.66D-03
 ErrMax= 5.32D-03  0.00D+00 EMaxC= 1.00D-01 BMatC= 4.16D-02 BMatP= 4.33D-02
 IDIUse=3 WtCom= 9.47D-01 WtEn= 5.32D-02
 Coeff-Com: -0.375D-01 0.178D+00 0.479D+00 0.380D+00
 Coeff-En:   0.000D+00 0.000D+00 0.487D+00 0.513D+00
 Coeff:     -0.355D-01 0.169D+00 0.479D+00 0.387D+00
 Gap=     0.175 Goal=   None    Shift=    0.000
 RMSDP=2.87D-04 MaxDP=1.40D-02 DE=-2.86D-03 OVMax= 4.72D-02

 Cycle   5  Pass 0  IDiag  1:
 RMSU=  1.16D-04    CP:  9.37D-01  1.01D+00  7.46D-01  4.46D-01
 E= -2198.93585854251     Delta-E=       -0.041611256735 Rises=F Damp=F
 DIIS: error= 1.06D-03 at cycle   5 NSaved=   5.
 NSaved= 5 IEnMin= 5 EnMin= -2198.93585854251     IErMin= 5 ErrMin= 1.06D-03
 ErrMax= 1.06D-03  0.00D+00 EMaxC= 1.00D-01 BMatC= 1.66D-03 BMatP= 4.16D-02
 IDIUse=3 WtCom= 9.89D-01 WtEn= 1.06D-02
 Coeff-Com: -0.150D-01 0.515D-01 0.208D+00 0.225D+00 0.531D+00
 Coeff-En:   0.000D+00 0.000D+00 0.000D+00 0.000D+00 0.100D+01
 Coeff:     -0.149D-01 0.509D-01 0.206D+00 0.222D+00 0.536D+00
 Gap=     0.174 Goal=   None    Shift=    0.000
 RMSDP=7.61D-05 MaxDP=6.13D-03 DE=-4.16D-02 OVMax= 1.15D-02

 Cycle   6  Pass 0  IDiag  1:
 RMSU=  4.69D-05    CP:  9.37D-01  1.01D+00  7.45D-01  5.03D-01  5.21D-01
 E= -2198.93725868508     Delta-E=       -0.001400142568 Rises=F Damp=F
 DIIS: error= 5.32D-04 at cycle   6 NSaved=   6.
 NSaved= 6 IEnMin= 6 EnMin= -2198.93725868508     IErMin= 6 ErrMin= 5.32D-04
 ErrMax= 5.32D-04  0.00D+00 EMaxC= 1.00D-01 BMatC= 3.63D-04 BMatP= 1.66D-03
 IDIUse=3 WtCom= 9.95D-01 WtEn= 5.32D-03
 Coeff-Com: -0.483D-02 0.101D-01 0.708D-01 0.933D-01 0.364D+00 0.467D+00
 Coeff-En:   0.000D+00 0.000D+00 0.000D+00 0.000D+00 0.210D+00 0.790D+00
 Coeff:     -0.480D-02 0.101D-01 0.704D-01 0.928D-01 0.363D+00 0.469D+00
 Gap=     0.174 Goal=   None    Shift=    0.000
 RMSDP=2.88D-05 MaxDP=1.81D-03 DE=-1.40D-03 OVMax= 4.66D-03

 Cycle   7  Pass 0  IDiag  1:
 RMSU=  1.17D-05    CP:  9.37D-01  1.01D+00  7.48D-01  4.99D-01  6.29D-01
                    CP:  5.14D-01
 E= -2198.93767129127     Delta-E=       -0.000412606187 Rises=F Damp=F
 DIIS: error= 1.62D-04 at cycle   7 NSaved=   7.
 NSaved= 7 IEnMin= 7 EnMin= -2198.93767129127     IErMin= 7 ErrMin= 1.62D-04
 ErrMax= 1.62D-04  0.00D+00 EMaxC= 1.00D-01 BMatC= 2.61D-05 BMatP= 3.63D-04
 IDIUse=3 WtCom= 9.98D-01 WtEn= 1.62D-03
 Coeff-Com: -0.227D-02 0.365D-02 0.342D-01 0.476D-01 0.207D+00 0.305D+00
 Coeff-Com:  0.404D+00
 Coeff-En:   0.000D+00 0.000D+00 0.000D+00 0.000D+00 0.000D+00 0.000D+00
 Coeff-En:   0.100D+01
 Coeff:     -0.227D-02 0.364D-02 0.342D-01 0.476D-01 0.207D+00 0.305D+00
 Coeff:      0.405D+00
 Gap=     0.174 Goal=   None    Shift=    0.000
 RMSDP=8.00D-06 MaxDP=4.61D-04 DE=-4.13D-04 OVMax= 1.37D-03

 Initial convergence to 1.0D-05 achieved.  Increase integral accuracy.
 Cycle   8  Pass 1  IDiag  1:
 E= -2198.93764225853     Delta-E=        0.000029032735 Rises=F Damp=F
 DIIS: error= 3.21D-04 at cycle   1 NSaved=   1.
 NSaved= 1 IEnMin= 1 EnMin= -2198.93764225853     IErMin= 1 ErrMin= 3.21D-04
 ErrMax= 3.21D-04  0.00D+00 EMaxC= 1.00D-01 BMatC= 5.39D-05 BMatP= 5.39D-05
 IDIUse=3 WtCom= 9.97D-01 WtEn= 3.21D-03
 Coeff-Com:  0.100D+01
 Coeff-En:   0.100D+01
 Coeff:      0.100D+01
 Gap=     0.174 Goal=   None    Shift=    0.000
 RMSDP=8.00D-06 MaxDP=4.61D-04 DE= 2.90D-05 OVMax= 1.40D-03

 Cycle   9  Pass 1  IDiag  1:
 RMSU=  1.41D-04    CP:  1.00D+00
 E= -2198.93767602756     Delta-E=       -0.000033769025 Rises=F Damp=F
 DIIS: error= 9.47D-05 at cycle   2 NSaved=   2.
 NSaved= 2 IEnMin= 2 EnMin= -2198.93767602756     IErMin= 2 ErrMin= 9.47D-05
 ErrMax= 9.47D-05  0.00D+00 EMaxC= 1.00D-01 BMatC= 1.23D-05 BMatP= 5.39D-05
 IDIUse=1 WtCom= 1.00D+00 WtEn= 0.00D+00
 Coeff-Com:  0.225D+00 0.775D+00
 Coeff:      0.225D+00 0.775D+00
 Gap=     0.174 Goal=   None    Shift=    0.000
 RMSDP=1.25D-05 MaxDP=8.15D-04 DE=-3.38D-05 OVMax= 2.19D-03

 Cycle  10  Pass 1  IDiag  1:
 RMSU=  1.25D-05    CP:  1.00D+00  1.00D+00
 E= -2198.93764885559     Delta-E=        0.000027171971 Rises=F Damp=F
 DIIS: error= 1.78D-04 at cycle   3 NSaved=   3.
 NSaved= 3 IEnMin= 2 EnMin= -2198.93767602756     IErMin= 2 ErrMin= 9.47D-05
 ErrMax= 1.78D-04  0.00D+00 EMaxC= 1.00D-01 BMatC= 3.59D-05 BMatP= 1.23D-05
 IDIUse=3 WtCom= 4.28D-01 WtEn= 5.72D-01
 Coeff-Com: -0.158D-02 0.632D+00 0.370D+00
 Coeff-En:   0.000D+00 0.683D+00 0.317D+00
 Coeff:     -0.677D-03 0.661D+00 0.339D+00
 Gap=     0.174 Goal=   None    Shift=    0.000
 RMSDP=7.11D-06 MaxDP=4.09D-04 DE= 2.72D-05 OVMax= 1.25D-03

 Cycle  11  Pass 1  IDiag  1:
 RMSU=  1.08D-06    CP:  1.00D+00  1.01D+00  4.41D-01
 E= -2198.93768952824     Delta-E=       -0.000040672656 Rises=F Damp=F
 DIIS: error= 1.79D-05 at cycle   4 NSaved=   4.
 NSaved= 4 IEnMin= 4 EnMin= -2198.93768952824     IErMin= 4 ErrMin= 1.79D-05
 ErrMax= 1.79D-05  0.00D+00 EMaxC= 1.00D-01 BMatC= 6.71D-07 BMatP= 1.23D-05
 IDIUse=1 WtCom= 1.00D+00 WtEn= 0.00D+00
 Coeff-Com: -0.359D-02 0.417D+00 0.203D+00 0.384D+00
 Coeff:     -0.359D-02 0.417D+00 0.203D+00 0.384D+00
 Gap=     0.174 Goal=   None    Shift=    0.000
 RMSDP=1.07D-06 MaxDP=8.73D-05 DE=-4.07D-05 OVMax= 1.96D-04

 Cycle  12  Pass 1  IDiag  1:
 RMSU=  2.82D-07    CP:  1.00D+00  1.01D+00  3.76D-01  4.11D-01
 E= -2198.93769027592     Delta-E=       -0.000000747677 Rises=F Damp=F
 DIIS: error= 2.77D-06 at cycle   5 NSaved=   5.
 NSaved= 5 IEnMin= 5 EnMin= -2198.93769027592     IErMin= 5 ErrMin= 2.77D-06
 ErrMax= 2.77D-06  0.00D+00 EMaxC= 1.00D-01 BMatC= 1.03D-08 BMatP= 6.71D-07
 IDIUse=1 WtCom= 1.00D+00 WtEn= 0.00D+00
 Coeff-Com: -0.223D-02 0.243D+00 0.116D+00 0.247D+00 0.396D+00
 Coeff:     -0.223D-02 0.243D+00 0.116D+00 0.247D+00 0.396D+00
 Gap=     0.174 Goal=   None    Shift=    0.000
 RMSDP=1.69D-07 MaxDP=8.24D-06 DE=-7.48D-07 OVMax= 2.70D-05

 Cycle  13  Pass 1  IDiag  1:
 RMSU=  1.33D-07    CP:  1.00D+00  1.01D+00  3.76D-01  4.57D-01  6.81D-01
 E= -2198.93769028558     Delta-E=       -0.000000009657 Rises=F Damp=F
 DIIS: error= 9.93D-07 at cycle   6 NSaved=   6.
 NSaved= 6 IEnMin= 6 EnMin= -2198.93769028558     IErMin= 6 ErrMin= 9.93D-07
 ErrMax= 9.93D-07  0.00D+00 EMaxC= 1.00D-01 BMatC= 1.41D-09 BMatP= 1.03D-08
 IDIUse=1 WtCom= 1.00D+00 WtEn= 0.00D+00
 Coeff-Com: -0.102D-02 0.107D+00 0.499D-01 0.114D+00 0.279D+00 0.451D+00
 Coeff:     -0.102D-02 0.107D+00 0.499D-01 0.114D+00 0.279D+00 0.451D+00
 Gap=     0.174 Goal=   None    Shift=    0.000
 RMSDP=5.93D-08 MaxDP=2.80D-06 DE=-9.66D-09 OVMax= 8.04D-06

 Cycle  14  Pass 1  IDiag  1:
 RMSU=  3.67D-08    CP:  1.00D+00  1.01D+00  3.75D-01  4.52D-01  7.10D-01
                    CP:  6.69D-01
 E= -2198.93769028694     Delta-E=       -0.000000001362 Rises=F Damp=F
 DIIS: error= 1.38D-07 at cycle   7 NSaved=   7.
 NSaved= 7 IEnMin= 7 EnMin= -2198.93769028694     IErMin= 7 ErrMin= 1.38D-07
 ErrMax= 1.38D-07  0.00D+00 EMaxC= 1.00D-01 BMatC= 4.99D-11 BMatP= 1.41D-09
 IDIUse=1 WtCom= 1.00D+00 WtEn= 0.00D+00
 Coeff-Com: -0.213D-03 0.211D-01 0.968D-02 0.238D-01 0.870D-01 0.214D+00
 Coeff-Com:  0.645D+00
 Coeff:     -0.213D-03 0.211D-01 0.968D-02 0.238D-01 0.870D-01 0.214D+00
 Coeff:      0.645D+00
 Gap=     0.174 Goal=   None    Shift=    0.000
 RMSDP=1.28D-08 MaxDP=8.31D-07 DE=-1.36D-09 OVMax= 1.70D-06

 Cycle  15  Pass 1  IDiag  1:
 RMSU=  8.13D-09    CP:  1.00D+00  1.01D+00  3.75D-01  4.53D-01  7.17D-01
                    CP:  7.08D-01  7.85D-01
 E= -2198.93769028707     Delta-E=       -0.000000000126 Rises=F Damp=F
 DIIS: error= 4.40D-08 at cycle   8 NSaved=   8.
 NSaved= 8 IEnMin= 8 EnMin= -2198.93769028707     IErMin= 8 ErrMin= 4.40D-08
 ErrMax= 4.40D-08  0.00D+00 EMaxC= 1.00D-01 BMatC= 7.51D-12 BMatP= 4.99D-11
 IDIUse=1 WtCom= 1.00D+00 WtEn= 0.00D+00
 Coeff-Com: -0.785D-05 0.230D-03 0.979D-05 0.834D-03 0.180D-01 0.665D-01
 Coeff-Com:  0.349D+00 0.565D+00
 Coeff:     -0.785D-05 0.230D-03 0.979D-05 0.834D-03 0.180D-01 0.665D-01
 Coeff:      0.349D+00 0.565D+00
 Gap=     0.174 Goal=   None    Shift=    0.000
 RMSDP=4.12D-09 MaxDP=3.13D-07 DE=-1.26D-10 OVMax= 5.97D-07

 SCF Done:  E(RB3LYP) =  -2198.93769029     A.U. after   15 cycles
            NFock= 15  Conv=0.41D-08     -V/T= 2.0097
 KE= 2.177829826803D+03 PE=-2.175983707596D+04 EE= 9.050272540659D+03
 Leave Link  502 at Fri Aug 21 10:19:28 2026, MaxMem=   104857600 cpu:            1243.6 elap:            1245.2
 (Enter /sw/cluster/pub/apps//g16/l601.exe)
 Copying SCF densities to generalized density rwf, IOpCl= 0 IROHF=0.
 Hyperfine terms turned off by default for NAtoms > 100.

 **********************************************************************

            Population analysis using the SCF density.

 **********************************************************************

 Alpha  occ. eigenvalues --  -10.20221 -10.20221 -10.20158 -10.20158 -10.19005
 Alpha  occ. eigenvalues --  -10.18970 -10.18970 -10.18145 -10.18145 -10.18063
 Alpha  occ. eigenvalues --  -10.18063 -10.18046 -10.18046 -10.18003 -10.18003
 Alpha  occ. eigenvalues --  -10.17957 -10.17957 -10.17949 -10.17949 -10.17881
 Alpha  occ. eigenvalues --  -10.17881 -10.17868 -10.17868 -10.17833 -10.17832
 Alpha  occ. eigenvalues --  -10.17820 -10.17820 -10.17808 -10.17808 -10.17731
 Alpha  occ. eigenvalues --  -10.17731 -10.17716 -10.17716 -10.17684 -10.17684
 Alpha  occ. eigenvalues --  -10.17668 -10.17668 -10.17641 -10.17641 -10.17630
 Alpha  occ. eigenvalues --  -10.17630 -10.17600 -10.17600 -10.17572 -10.17572
 Alpha  occ. eigenvalues --  -10.17368 -10.17367 -10.17354 -10.17353 -10.17247
 Alpha  occ. eigenvalues --  -10.17246 -10.17231 -10.17231 -10.17029 -10.17029
 Alpha  occ. eigenvalues --  -10.16931 -10.16931  -0.88776  -0.88186  -0.87341
 Alpha  occ. eigenvalues --   -0.86586  -0.83345  -0.83255  -0.82910  -0.82571
 Alpha  occ. eigenvalues --   -0.81805  -0.80891  -0.79482  -0.78198  -0.76649
 Alpha  occ. eigenvalues --   -0.76489  -0.75969  -0.75144  -0.73297  -0.73221
 Alpha  occ. eigenvalues --   -0.72977  -0.72890  -0.72562  -0.72536  -0.71695
 Alpha  occ. eigenvalues --   -0.70193  -0.70189  -0.70072  -0.69895  -0.69786
 Alpha  occ. eigenvalues --   -0.67187  -0.64266  -0.63529  -0.63330  -0.63223
 Alpha  occ. eigenvalues --   -0.61586  -0.61106  -0.60853  -0.60775  -0.57478
 Alpha  occ. eigenvalues --   -0.57393  -0.57123  -0.56871  -0.56511  -0.56471
 Alpha  occ. eigenvalues --   -0.56456  -0.56197  -0.55975  -0.54910  -0.54092
 Alpha  occ. eigenvalues --   -0.53994  -0.50437  -0.50053  -0.49658  -0.49629
 Alpha  occ. eigenvalues --   -0.49082  -0.48780  -0.48285  -0.47766  -0.46603
 Alpha  occ. eigenvalues --   -0.46448  -0.45553  -0.45314  -0.44947  -0.44616
 Alpha  occ. eigenvalues --   -0.44294  -0.44283  -0.43648  -0.43515  -0.43443
 Alpha  occ. eigenvalues --   -0.43274  -0.43046  -0.42832  -0.42640  -0.42609
 Alpha  occ. eigenvalues --   -0.42508  -0.42407  -0.41666  -0.41075  -0.40786
 Alpha  occ. eigenvalues --   -0.40648  -0.40565  -0.40548  -0.40451  -0.40451
 Alpha  occ. eigenvalues --   -0.40263  -0.40019  -0.39330  -0.38389  -0.38343
 Alpha  occ. eigenvalues --   -0.37808  -0.37476  -0.37311  -0.37250  -0.37243
 Alpha  occ. eigenvalues --   -0.37148  -0.37135  -0.36736  -0.36523  -0.35810
 Alpha  occ. eigenvalues --   -0.34822  -0.34820  -0.33846  -0.33834  -0.33737
 Alpha  occ. eigenvalues --   -0.33621  -0.33531  -0.33395  -0.33222  -0.33149
 Alpha  occ. eigenvalues --   -0.32831  -0.32599  -0.32381  -0.31794  -0.31572
 Alpha  occ. eigenvalues --   -0.31372  -0.31074  -0.30663  -0.30613  -0.30470
 Alpha  occ. eigenvalues --   -0.30293  -0.29818  -0.27177  -0.27109  -0.26455
 Alpha  occ. eigenvalues --   -0.25912  -0.24950  -0.24926  -0.24180  -0.24072
 Alpha  occ. eigenvalues --   -0.23106  -0.22434  -0.22416  -0.20665  -0.20181
 Alpha  occ. eigenvalues --   -0.20149  -0.19493  -0.19464
 Alpha virt. eigenvalues --   -0.02079  -0.01942  -0.01676  -0.01318  -0.00506
 Alpha virt. eigenvalues --   -0.00428   0.00152   0.00804   0.01977   0.02016
 Alpha virt. eigenvalues --    0.02392   0.02674   0.05242   0.05321   0.05555
 Alpha virt. eigenvalues --    0.06039   0.06767   0.08635   0.09857   0.10384
 Alpha virt. eigenvalues --    0.10731   0.10969   0.11070   0.11146   0.11375
 Alpha virt. eigenvalues --    0.11462   0.11542   0.11963   0.12703   0.13839
 Alpha virt. eigenvalues --    0.13883   0.14225   0.14263   0.14467   0.14523
 Alpha virt. eigenvalues --    0.14796   0.15023   0.15400   0.15649   0.15802
 Alpha virt. eigenvalues --    0.16311   0.16353   0.16866   0.16935   0.16969
 Alpha virt. eigenvalues --    0.17202   0.17343   0.17636   0.17660   0.17904
 Alpha virt. eigenvalues --    0.18027   0.18963   0.19280   0.19334   0.19545
 Alpha virt. eigenvalues --    0.19629   0.20718   0.21014   0.21124   0.21337
 Alpha virt. eigenvalues --    0.21526   0.21665   0.21985   0.22095   0.22505
 Alpha virt. eigenvalues --    0.22647   0.22758   0.22866   0.23467   0.23776
 Alpha virt. eigenvalues --    0.24131   0.25232   0.25456   0.25740   0.25756
 Alpha virt. eigenvalues --    0.26147   0.26221   0.26446   0.26965   0.27345
 Alpha virt. eigenvalues --    0.27567   0.27609   0.27843   0.27847   0.28123
 Alpha virt. eigenvalues --    0.28288   0.28567   0.29379   0.30090   0.30814
 Alpha virt. eigenvalues --    0.31035   0.31059   0.31325   0.31373   0.32142
 Alpha virt. eigenvalues --    0.32329   0.32835   0.32961   0.33169   0.33317
 Alpha virt. eigenvalues --    0.33829   0.33852   0.34349   0.34926   0.37370
 Alpha virt. eigenvalues --    0.37848   0.38297   0.38478   0.38958   0.39072
 Alpha virt. eigenvalues --    0.39714   0.40384   0.40412   0.40688   0.40915
 Alpha virt. eigenvalues --    0.40993   0.41492   0.41723   0.41844   0.42449
 Alpha virt. eigenvalues --    0.42549   0.42651   0.43185   0.44302   0.44464
 Alpha virt. eigenvalues --    0.45546   0.48236   0.48291   0.48366   0.48926
 Alpha virt. eigenvalues --    0.49181   0.49532   0.50037   0.50634   0.50669
 Alpha virt. eigenvalues --    0.51169   0.51211   0.51329   0.51865   0.52426
 Alpha virt. eigenvalues --    0.52466   0.53006   0.53165   0.53260   0.54048
 Alpha virt. eigenvalues --    0.54697   0.55002   0.55047   0.55260   0.55608
 Alpha virt. eigenvalues --    0.55623   0.55785   0.55818   0.56049   0.56217
 Alpha virt. eigenvalues --    0.56575   0.56622   0.56793   0.56958   0.57108
 Alpha virt. eigenvalues --    0.57499   0.57760   0.57851   0.58153   0.58320
 Alpha virt. eigenvalues --    0.58450   0.58573   0.58784   0.58917   0.59140
 Alpha virt. eigenvalues --    0.59694   0.59726   0.59831   0.60546   0.60615
 Alpha virt. eigenvalues --    0.60883   0.61047   0.61141   0.61457   0.61809
 Alpha virt. eigenvalues --    0.61976   0.62269   0.62276   0.62384   0.62898
 Alpha virt. eigenvalues --    0.63467   0.63636   0.64235   0.64357   0.65117
 Alpha virt. eigenvalues --    0.65197   0.65553   0.65835   0.65946   0.67062
 Alpha virt. eigenvalues --    0.67364   0.67613   0.68070   0.68075   0.68339
 Alpha virt. eigenvalues --    0.69088   0.69189   0.69787   0.70083   0.70243
 Alpha virt. eigenvalues --    0.70948   0.71232   0.71471   0.72291   0.73364
 Alpha virt. eigenvalues --    0.73672   0.74102   0.74662   0.75120   0.75687
 Alpha virt. eigenvalues --    0.76008   0.76486   0.76726   0.77009   0.77042
 Alpha virt. eigenvalues --    0.77951   0.78317   0.78413   0.78818   0.79227
 Alpha virt. eigenvalues --    0.79318   0.79661   0.80042   0.80431   0.80577
 Alpha virt. eigenvalues --    0.80823   0.80887   0.81084   0.81353   0.81607
 Alpha virt. eigenvalues --    0.81893   0.82275   0.82539   0.82963   0.83017
 Alpha virt. eigenvalues --    0.83264   0.83826   0.84085   0.84234   0.84632
 Alpha virt. eigenvalues --    0.84650   0.84977   0.84996   0.85238   0.85283
 Alpha virt. eigenvalues --    0.85352   0.85667   0.86010   0.86091   0.86408
 Alpha virt. eigenvalues --    0.86790   0.86816   0.87034   0.87078   0.87378
 Alpha virt. eigenvalues --    0.87615   0.88006   0.88042   0.88370   0.88499
 Alpha virt. eigenvalues --    0.88938   0.88960   0.89515   0.90187   0.90465
 Alpha virt. eigenvalues --    0.90982   0.91399   0.91908   0.91984   0.92276
 Alpha virt. eigenvalues --    0.92339   0.92699   0.92797   0.92900   0.93567
 Alpha virt. eigenvalues --    0.93848   0.94774   0.94878   0.95036   0.95237
 Alpha virt. eigenvalues --    0.95645   0.95985   0.96345   0.96599   0.96619
 Alpha virt. eigenvalues --    0.97189   0.97284   0.97682   0.97858   0.98297
 Alpha virt. eigenvalues --    0.98371   0.99186   0.99251   0.99406   0.99721
 Alpha virt. eigenvalues --    0.99886   0.99923   1.00330   1.00555   1.01048
 Alpha virt. eigenvalues --    1.02079   1.02346   1.03259   1.03852   1.04438
 Alpha virt. eigenvalues --    1.04517   1.04537   1.04982   1.05305   1.05494
 Alpha virt. eigenvalues --    1.05680   1.06115   1.06353   1.06907   1.06945
 Alpha virt. eigenvalues --    1.07838   1.08894   1.09028   1.09120   1.09999
 Alpha virt. eigenvalues --    1.10610   1.11423   1.11986   1.12127   1.12633
 Alpha virt. eigenvalues --    1.13236   1.13625   1.14238   1.16074   1.16092
 Alpha virt. eigenvalues --    1.16689   1.17165   1.17988   1.18150   1.18280
 Alpha virt. eigenvalues --    1.18983   1.20095   1.20798   1.21016   1.21855
 Alpha virt. eigenvalues --    1.22004   1.22925   1.22982   1.23955   1.24410
 Alpha virt. eigenvalues --    1.24534   1.25177   1.25283   1.25961   1.25969
 Alpha virt. eigenvalues --    1.26465   1.26503   1.27680   1.27838   1.28119
 Alpha virt. eigenvalues --    1.28581   1.28853   1.29279   1.29304   1.29533
 Alpha virt. eigenvalues --    1.29896   1.30364   1.30911   1.31880   1.32166
 Alpha virt. eigenvalues --    1.32718   1.33908   1.35099   1.35694   1.35788
 Alpha virt. eigenvalues --    1.36731   1.36969   1.38998   1.39490   1.39513
 Alpha virt. eigenvalues --    1.39899   1.40588   1.42272   1.42804   1.42869
 Alpha virt. eigenvalues --    1.43588   1.43794   1.43954   1.44294   1.44988
 Alpha virt. eigenvalues --    1.45254   1.45805   1.45951   1.46490   1.46610
 Alpha virt. eigenvalues --    1.47231   1.47382   1.47932   1.48004   1.48472
 Alpha virt. eigenvalues --    1.48989   1.49159   1.49596   1.49765   1.50068
 Alpha virt. eigenvalues --    1.50436   1.50802   1.51063   1.51200   1.51392
 Alpha virt. eigenvalues --    1.51954   1.52040   1.52525   1.52669   1.52749
 Alpha virt. eigenvalues --    1.52884   1.52894   1.54300   1.54639   1.54933
 Alpha virt. eigenvalues --    1.55991   1.56354   1.56645   1.58155   1.58811
 Alpha virt. eigenvalues --    1.59074   1.59271   1.60249   1.61755   1.61814
 Alpha virt. eigenvalues --    1.63246   1.64069   1.64484   1.64626   1.68770
 Alpha virt. eigenvalues --    1.68927   1.69400   1.71365   1.72553   1.72970
 Alpha virt. eigenvalues --    1.73273   1.75225   1.76367   1.77261   1.77767
 Alpha virt. eigenvalues --    1.78376   1.78852   1.78969   1.79467   1.79795
 Alpha virt. eigenvalues --    1.80043   1.80396   1.80472   1.81056   1.81459
 Alpha virt. eigenvalues --    1.81648   1.81890   1.83991   1.84031   1.84320
 Alpha virt. eigenvalues --    1.84503   1.84914   1.85254   1.85780   1.86334
 Alpha virt. eigenvalues --    1.86995   1.88486   1.88830   1.89187   1.89670
 Alpha virt. eigenvalues --    1.90322   1.90918   1.91001   1.91260   1.92026
 Alpha virt. eigenvalues --    1.92275   1.92571   1.92584   1.93191   1.93702
 Alpha virt. eigenvalues --    1.93806   1.94063   1.94409   1.94602   1.94853
 Alpha virt. eigenvalues --    1.95194   1.95264   1.95770   1.96086   1.96277
 Alpha virt. eigenvalues --    1.96950   1.97268   1.97721   1.98083   1.98763
 Alpha virt. eigenvalues --    1.99457   1.99658   2.00214   2.01225   2.01720
 Alpha virt. eigenvalues --    2.01845   2.02217   2.02566   2.02880   2.03228
 Alpha virt. eigenvalues --    2.03860   2.04235   2.04409   2.05416   2.05631
 Alpha virt. eigenvalues --    2.06264   2.06476   2.06818   2.07591   2.07625
 Alpha virt. eigenvalues --    2.08588   2.09468   2.10567   2.10660   2.11011
 Alpha virt. eigenvalues --    2.11367   2.12102   2.12271   2.12604   2.12932
 Alpha virt. eigenvalues --    2.13804   2.14574   2.15022   2.15677   2.16491
 Alpha virt. eigenvalues --    2.16728   2.17561   2.18031   2.19155   2.19666
 Alpha virt. eigenvalues --    2.20190   2.20312   2.20482   2.21574   2.21661
 Alpha virt. eigenvalues --    2.22703   2.22728   2.22997   2.23376   2.23478
 Alpha virt. eigenvalues --    2.23767   2.24098   2.24854   2.24995   2.25564
 Alpha virt. eigenvalues --    2.26183   2.27226   2.27261   2.27671   2.27978
 Alpha virt. eigenvalues --    2.28169   2.28357   2.28424   2.29301   2.29463
 Alpha virt. eigenvalues --    2.30157   2.30273   2.30722   2.30882   2.31546
 Alpha virt. eigenvalues --    2.31684   2.31941   2.32027   2.32611   2.32967
 Alpha virt. eigenvalues --    2.33465   2.33806   2.33874   2.34397   2.34787
 Alpha virt. eigenvalues --    2.35315   2.35595   2.36404   2.36940   2.37205
 Alpha virt. eigenvalues --    2.37256   2.38049   2.38622   2.39557   2.39707
 Alpha virt. eigenvalues --    2.41946   2.42079   2.43506   2.44309   2.44419
 Alpha virt. eigenvalues --    2.44678   2.46047   2.46123   2.46744   2.48449
 Alpha virt. eigenvalues --    2.48728   2.50073   2.50400   2.51913   2.52357
 Alpha virt. eigenvalues --    2.53093   2.54792   2.55526   2.56827   2.57539
 Alpha virt. eigenvalues --    2.57785   2.58898   2.59645   2.60200   2.61255
 Alpha virt. eigenvalues --    2.62103   2.62754   2.63147   2.63301   2.63423
 Alpha virt. eigenvalues --    2.64185   2.64982   2.66241   2.66307   2.66809
 Alpha virt. eigenvalues --    2.66909   2.67904   2.68025   2.69457   2.70072
 Alpha virt. eigenvalues --    2.70349   2.70714   2.71553   2.71601   2.71944
 Alpha virt. eigenvalues --    2.72061   2.72131   2.72290   2.72838   2.72918
 Alpha virt. eigenvalues --    2.73205   2.73772   2.74083   2.74653   2.75185
 Alpha virt. eigenvalues --    2.75210   2.75631   2.75811   2.77156   2.77349
 Alpha virt. eigenvalues --    2.78255   2.79432   2.79931   2.80198   2.81310
 Alpha virt. eigenvalues --    2.81603   2.83112   2.84140   2.84707   2.84862
 Alpha virt. eigenvalues --    2.85517   2.85745   2.86738   2.86950   2.87240
 Alpha virt. eigenvalues --    2.88108   2.88643   2.89973   2.92264   2.92904
 Alpha virt. eigenvalues --    2.95445   2.96132   2.97986   2.98589   2.99627
 Alpha virt. eigenvalues --    2.99847   3.02023   3.03795   3.05368   3.06712
 Alpha virt. eigenvalues --    3.06918   3.12808   3.14024   3.14625   3.15869
 Alpha virt. eigenvalues --    3.26750   3.30790   3.31024   3.32069   3.33970
 Alpha virt. eigenvalues --    3.37197   3.37482   3.39098   3.39727   3.52326
 Alpha virt. eigenvalues --    3.52518   3.53402   3.54686   4.03861   4.05506
 Alpha virt. eigenvalues --    4.07627   4.10244   4.11976   4.12846   4.14522
 Alpha virt. eigenvalues --    4.14545   4.14700   4.15786   4.16826   4.17795
 Alpha virt. eigenvalues --    4.19448   4.19523   4.21109   4.21559   4.21709
 Alpha virt. eigenvalues --    4.22437   4.23992   4.26739   4.27598   4.28361
 Alpha virt. eigenvalues --    4.30676   4.31370   4.31796   4.32758   4.34803
 Alpha virt. eigenvalues --    4.34960   4.36094   4.36702   4.38029   4.39364
 Alpha virt. eigenvalues --    4.39775   4.42429   4.45245   4.45911   4.46316
 Alpha virt. eigenvalues --    4.47232   4.47765   4.49159   4.51986   4.52635
 Alpha virt. eigenvalues --    4.53500   4.60571   4.62995   4.67734   4.68604
 Alpha virt. eigenvalues --    4.73902   4.79191   4.83599   4.85465   4.86387
 Alpha virt. eigenvalues --    4.86671   4.91647   4.91879   4.95483   5.10690
          Condensed to atoms (all electrons):
 Mulliken charges:
               1
     1  C   -0.061602
     2  C   -0.062762
     3  C   -0.061669
     4  H    0.132545
     5  H    0.132540
     6  C   -0.062662
     7  H    0.133238
     8  H    0.132257
     9  H    0.132252
    10  H    0.133242
    11  C    0.076405
    12  C    0.091194
    13  C    0.102698
    14  C    0.104133
    15  C    0.097714
    16  C    0.113710
    17  C    0.087125
    18  C    0.096453
    19  C    0.113672
    20  C    0.097716
    21  C    0.096439
    22  C    0.087141
    23  C    0.076485
    24  C    0.091107
    25  C    0.102738
    26  C    0.104151
    27  C   -0.219766
    28  C   -0.209473
    29  C   -0.182091
    30  C   -0.166268
    31  C   -0.132007
    32  C   -0.132489
    33  C   -0.112338
    34  C   -0.122642
    35  C   -0.141652
    36  C   -0.137970
    37  C   -0.136549
    38  C   -0.136835
    39  C   -0.169920
    40  C   -0.180669
    41  C   -0.192211
    42  C   -0.193134
    43  H    0.120173
    44  H    0.123577
    45  H    0.123810
    46  H    0.125479
    47  H    0.119014
    48  H    0.122118
    49  H    0.120499
    50  H    0.115879
    51  H    0.118066
    52  H    0.121058
    53  H    0.118240
    54  H    0.121105
    55  H    0.115531
    56  H    0.117915
    57  H    0.120009
    58  H    0.120024
    59  C   -0.192235
    60  C   -0.193132
    61  C   -0.180685
    62  C   -0.169920
    63  C   -0.137958
    64  C   -0.141649
    65  C   -0.136831
    66  C   -0.136557
    67  C   -0.122649
    68  C   -0.112347
    69  C   -0.132502
    70  C   -0.132007
    71  C   -0.209452
    72  C   -0.219770
    73  C   -0.182121
    74  C   -0.166230
    75  H    0.117916
    76  H    0.115531
    77  H    0.120007
    78  H    0.120024
    79  H    0.121106
    80  H    0.118239
    81  H    0.121059
    82  H    0.118066
    83  H    0.120498
    84  H    0.115881
    85  H    0.122119
    86  H    0.119014
    87  H    0.123578
    88  H    0.120171
    89  H    0.125479
    90  H    0.123810
    91  C   -0.443452
    92  H    0.159338
    93  H    0.140388
    94  H    0.143158
    95  C   -0.263280
    96  C   -0.263211
    97  C   -0.271565
    98  C   -0.443447
    99  H    0.140386
   100  H    0.143155
   101  H    0.159335
 Sum of Mulliken charges =  -0.00000
 Mulliken charges with hydrogens summed into heavy atoms:
               1
     1  C   -0.061602
     2  C   -0.062762
     3  C   -0.061669
     6  C   -0.062662
    11  C    0.076405
    12  C    0.091194
    13  C    0.102698
    14  C    0.104133
    15  C    0.097714
    16  C    0.113710
    17  C    0.087125
    18  C    0.096453
    19  C    0.113672
    20  C    0.097716
    21  C    0.096439
    22  C    0.087141
    23  C    0.076485
    24  C    0.091107
    25  C    0.102738
    26  C    0.104151
    27  C   -0.104235
    28  C   -0.091559
    29  C   -0.062067
    30  C   -0.046258
    31  C   -0.013941
    32  C   -0.011431
    33  C    0.005902
    34  C   -0.001537
    35  C   -0.025773
    36  C   -0.017471
    37  C   -0.017534
    38  C   -0.014716
    39  C   -0.046110
    40  C   -0.055190
    41  C   -0.068634
    42  C   -0.072961
    59  C   -0.068657
    60  C   -0.072961
    61  C   -0.055206
    62  C   -0.046110
    63  C   -0.017460
    64  C   -0.025768
    65  C   -0.014711
    66  C   -0.017543
    67  C   -0.001543
    68  C    0.005893
    69  C   -0.011444
    70  C   -0.013941
    71  C   -0.091536
    72  C   -0.104240
    73  C   -0.062097
    74  C   -0.046222
    91  C   -0.000569
    95  C    0.002219
    96  C    0.002280
    97  C   -0.006481
    98  C   -0.000571
 Electronic spatial extent (au):  <R**2>=          28411.9880
 Charge=             -0.0000 electrons
 Dipole moment (field-independent basis, Debye):
    X=              0.4962    Y=              0.0509    Z=             -0.1977  Tot=              0.5366
 Quadrupole moment (field-independent basis, Debye-Ang):
   XX=           -307.8690   YY=           -302.5066   ZZ=           -339.7110
   XY=             -1.0809   XZ=            -14.6960   YZ=             -2.8100
 Traceless Quadrupole moment (field-independent basis, Debye-Ang):
   XX=              8.8265   YY=             14.1889   ZZ=            -23.0155
   XY=             -1.0809   XZ=            -14.6960   YZ=             -2.8100
 Octapole moment (field-independent basis, Debye-Ang**2):
  XXX=            -46.1272  YYY=             -3.1219  ZZZ=             64.7229  XYY=            -10.7200
  XXY=             -7.1472  XXZ=            -28.5297  XZZ=            -40.2984  YZZ=              0.3032
  YYZ=              2.5390  XYZ=             -8.0133
 Hexadecapole moment (field-independent basis, Debye-Ang**3):
 XXXX=          -7217.9654 YYYY=          -9379.8517 ZZZZ=         -23012.9782 XXXY=           -171.8641
 XXXZ=          -3253.7819 YYYX=           -164.7779 YYYZ=          -1015.4417 ZZZX=          -3943.9199
 ZZZY=          -1172.0991 XXYY=          -2787.5137 XXZZ=          -5004.3086 YYZZ=          -5238.6886
 XXYZ=           -350.5419 YYXZ=          -1119.3260 ZZXY=            -93.9532
 N-N= 8.332797018213D+03 E-N=-2.175983702347D+04  KE= 2.177829826803D+03
 Leave Link  601 at Fri Aug 21 10:19:30 2026, MaxMem=   104857600 cpu:               0.1 elap:               0.1
 (Enter /sw/cluster/pub/apps//g16/l9999.exe)
 1\1\GINC-N01\SP\RB3LYP\6-31G(d)\C57H44\UNKNOWN\21-Aug-2026\0\\#p b3lyp
 /6-31g(d) nosymm density=current sp EmpiricalDispersion=GD3BJ\\Generat
 ed by extraQ₂ - dispersion correction\\0,1\C,0,0.51016098,0.19516679
 ,-1.66859678\C,0,3.08530244,0.52182351,3.02902381\C,0,1.53411256,0.014
 4357,0.85365667\H,0,2.40537016,-0.62947691,-1.00106599\H,0,2.28048347,
 1.10996407,-0.86686701\C,0,0.21784539,-0.1831149,-4.34576896\H,0,3.294
 43469,1.27209518,1.03438036\H,0,1.69699202,0.98804234,-3.28139799\H,0,
 3.61562595,-0.44333804,1.16366531\H,0,1.85778161,-0.7438344,-3.0882143
 2\C,0,-0.56458386,-0.84628268,-1.36537874\C,0,2.34308258,-0.49547843,3
 .89296019\C,0,-0.318096,-1.61294435,-4.38731594\C,0,1.10626737,-1.4117
 7654,1.19860302\C,0,-1.72559407,-1.61887204,-4.39776086\C,0,-0.1226475
 2,-1.41149316,1.88234892\C,0,1.39830962,0.14823215,4.71563853\C,0,-1.7
 933332,-0.21805042,-1.08702638\C,0,-1.61790717,1.23302278,-1.18847017\
 C,0,1.4886218,1.59456734,4.49219875\C,0,-0.57088861,-0.02436806,2.0294
 6127\C,0,-2.19571433,-0.2300043,-4.39776086\C,0,0.38142705,0.82749564,
 1.4383583\C,0,-1.07671404,0.62532889,-4.39776086\C,0,2.48220091,1.8348
 4713,3.52459264\C,0,-0.27898488,1.49659616,-1.52840112\C,0,0.163933,2.
 80083534,-1.69177052\C,0,2.80888445,3.13281318,3.1584315\C,0,-1.248296
 31,2.00031359,-4.48509178\C,0,0.19531567,2.20310803,1.4597092\C,0,-0.7
 4018703,3.85354155,-1.51144375\C,0,2.11528733,4.19914669,3.74249032\C,
 0,-0.94740905,2.72725941,2.06357686\C,0,-2.54314191,2.52450444,-4.5143
 6991\C,0,-1.89643878,1.87943524,2.64540637\C,0,-3.65455125,1.67599668,
 -4.47172186\C,0,-2.07063292,3.59166988,-1.17232187\C,0,1.1105919,3.959
 15651,4.6845573\C,0,-2.51903209,2.27886977,-1.00938245\C,0,0.79300129,
 2.65459634,5.06979582\C,0,-3.48899567,0.29144115,-4.42266806\C,0,-1.71
 43245,0.49708529,2.63408993\H,0,-2.44889723,-0.16191481,3.08859269\H,0
 ,-4.35273225,-0.36764449,-4.40637369\H,0,-3.55357344,2.07973687,-0.745
 86044\H,0,0.01277304,2.47220235,5.80336058\H,0,-2.76314796,4.41752085,
 -1.03438074\H,0,0.57504885,4.79573173,5.12487721\H,0,-4.65524672,2.099
 21311,-4.48464025\H,0,-2.78200606,2.30293888,3.11166811\H,0,-0.4060523
 9,4.88012079,-1.63497209\H,0,2.35849163,5.22004277,3.46115291\H,0,-1.0
 9736252,3.80167523,2.08028896\H,0,-2.68571281,3.60011539,-4.55385914\H
 ,0,1.19861685,3.01068801,-1.95463532\H,0,3.58327238,3.32541097,2.41938
 903\H,0,0.92289861,2.8691661,1.01394065\H,0,-0.39282926,2.66758444,-4.
 49788376\C,0,0.58819609,-0.5889043,5.57903403\C,0,-2.92622998,-0.97290
 461,-0.78425104\C,0,-2.42754292,-2.82220815,-4.41821746\C,0,-0.7013337
 2,-2.60907189,2.29323121\C,0,0.74689503,-1.97415964,5.63085514\C,0,-2.
 82089815,-2.36312702,-0.76501464\C,0,-1.7105543,-4.02068052,-4.4454136
 7\C,0,-0.04155322,-3.80824586,2.01443318\C,0,1.71416901,-2.60951385,4.
 84490271\C,0,-1.60151257,-2.98861617,-1.04760138\C,0,-0.31262282,-4.01
 430464,-4.46113964\C,0,1.1804773,-3.80840221,1.33597423\C,0,0.39118835
 ,-2.8046808,-4.43413865\C,0,1.76093205,-2.60347699,0.92443012\C,0,2.52
 191897,-1.86971671,3.97743694\C,0,-0.47010397,-2.23128998,-1.35022417\
 H,0,1.47881955,-2.8063487,-4.43737865\H,0,2.71180432,-2.60974365,0.395
 74386\H,0,0.46736517,-2.72662494,-1.56821726\H,0,3.25529051,-2.3740573
 5,3.35691882\H,0,1.82848431,-3.68801957,4.89569266\H,0,-1.53101119,-4.
 07117866,-1.03268017\H,0,0.23094877,-4.95452418,-4.49344975\H,0,1.6820
 3813,-4.74929369,1.12637601\H,0,0.11919284,-2.56435834,6.29291907\H,0,
 -3.69349027,-2.9669014,-0.53044565\H,0,-2.24440431,-4.96691297,-4.4594
 1709\H,0,-0.48261543,-4.75032651,2.32841394\H,0,-0.15196717,-0.0942913
 4,6.2021051\H,0,-3.87338012,-0.48633779,-0.56835431\H,0,-3.51379659,-2
 .83120424,-4.40770527\H,0,-1.65068296,-2.61335737,2.8205741\C,0,4.5979
 7964,0.48706317,3.34239389\H,0,4.77278484,0.67696203,4.40543677\H,0,5.
 13348524,1.24887653,2.76406405\H,0,5.02240387,-0.49149477,3.09183081\C
 ,0,1.12267337,0.07040565,-3.10098865\C,0,2.9238123,0.3444894,1.4879491
 1\C,0,1.73066162,0.17745494,-0.68989285\C,0,1.07248356,0.09444126,-5.6
 0280422\H,0,1.98070306,-0.51933435,-5.60001529\H,0,1.37315018,1.147349
 99,-5.64122073\H,0,0.50520602,-0.13565016,-6.50940854\\Version=ES64L-G
 16RevA.03\HF=-2198.9376903\RMSD=4.123e-09\Dipole=0.195226,0.0200172,-0
 .0777953\Quadrupole=6.5623103,10.5491258,-17.1114361,-0.8036401,-10.92
 61403,-2.0891782\PG=C01 [X(C57H44)]\\@


0EVERYBODY IS IGNORANT, ONLY ON DIFFERENT SUBJECTS.
0          WILL ROGERS
 Job cpu time:       0 days  0 hours 21 minutes 30.4 seconds.
 Elapsed time:       0 days  0 hours 21 minutes 32.0 seconds.
 File lengths (MBytes):  RWF=    483 Int=      0 D2E=      0 Chk=     53 Scr=      1
 Normal termination of Gaussian 16 at Fri Aug 21 10:19:35 2026.
