%chk=f4_SP.chk
#p b3lyp/6-31g(d) nosymm density=current sp EmpiricalDispersion=GD3BJ

Generated by extraQ₂ - dispersion correction

0 1
C         0.51016098       0.19516679      -1.66859678
C         3.08530244       0.52182351       3.02902381
C         1.53411256       0.01443570       0.85365667
H         2.40537016      -0.62947691      -1.00106599
H         2.28048347       1.10996407      -0.86686701
C         0.21784539      -0.18311490      -4.34576896
H         3.29443469       1.27209518       1.03438036
H         1.69699202       0.98804234      -3.28139799
H         3.61562595      -0.44333804       1.16366531
H         1.85778161      -0.74383440      -3.08821432
C        -0.56458386      -0.84628268      -1.36537874
C         2.34308258      -0.49547843       3.89296019
C        -0.31809600      -1.61294435      -4.38731594
C         1.10626737      -1.41177654       1.19860302
C        -1.72559407      -1.61887204      -4.39776086
C        -0.12264752      -1.41149316       1.88234892
C         1.39830962       0.14823215       4.71563853
C        -1.79333320      -0.21805042      -1.08702638
C        -1.61790717       1.23302278      -1.18847017
C         1.48862180       1.59456734       4.49219875
C        -0.57088861      -0.02436806       2.02946127
C        -2.19571433      -0.23000430      -4.39776086
C         0.38142705       0.82749564       1.43835830
C        -1.07671404       0.62532889      -4.39776086
C         2.48220091       1.83484713       3.52459264
C        -0.27898488       1.49659616      -1.52840112
C         0.16393300       2.80083534      -1.69177052
C         2.80888445       3.13281318       3.15843150
C        -1.24829631       2.00031359      -4.48509178
C         0.19531567       2.20310803       1.45970920
C        -0.74018703       3.85354155      -1.51144375
C         2.11528733       4.19914669       3.74249032
C        -0.94740905       2.72725941       2.06357686
C        -2.54314191       2.52450444      -4.51436991
C        -1.89643878       1.87943524       2.64540637
C        -3.65455125       1.67599668      -4.47172186
C        -2.07063292       3.59166988      -1.17232187
C         1.11059190       3.95915651       4.68455730
C        -2.51903209       2.27886977      -1.00938245
C         0.79300129       2.65459634       5.06979582
C        -3.48899567       0.29144115      -4.42266806
C        -1.71432450       0.49708529       2.63408993
H        -2.44889723      -0.16191481       3.08859269
H        -4.35273225      -0.36764449      -4.40637369
H        -3.55357344       2.07973687      -0.74586044
H         0.01277304       2.47220235       5.80336058
H        -2.76314796       4.41752085      -1.03438074
H         0.57504885       4.79573173       5.12487721
H        -4.65524672       2.09921311      -4.48464025
H        -2.78200606       2.30293888       3.11166811
H        -0.40605239       4.88012079      -1.63497209
H         2.35849163       5.22004277       3.46115291
H        -1.09736252       3.80167523       2.08028896
H        -2.68571281       3.60011539      -4.55385914
H         1.19861685       3.01068801      -1.95463532
H         3.58327238       3.32541097       2.41938903
H         0.92289861       2.86916610       1.01394065
H        -0.39282926       2.66758444      -4.49788376
C         0.58819609      -0.58890430       5.57903403
C        -2.92622998      -0.97290461      -0.78425104
C        -2.42754292      -2.82220815      -4.41821746
C        -0.70133372      -2.60907189       2.29323121
C         0.74689503      -1.97415964       5.63085514
C        -2.82089815      -2.36312702      -0.76501464
C        -1.71055430      -4.02068052      -4.44541367
C        -0.04155322      -3.80824586       2.01443318
C         1.71416901      -2.60951385       4.84490271
C        -1.60151257      -2.98861617      -1.04760138
C        -0.31262282      -4.01430464      -4.46113964
C         1.18047730      -3.80840221       1.33597423
C         0.39118835      -2.80468080      -4.43413865
C         1.76093205      -2.60347699       0.92443012
C         2.52191897      -1.86971671       3.97743694
C        -0.47010397      -2.23128998      -1.35022417
H         1.47881955      -2.80634870      -4.43737865
H         2.71180432      -2.60974365       0.39574386
H         0.46736517      -2.72662494      -1.56821726
H         3.25529051      -2.37405735       3.35691882
H         1.82848431      -3.68801957       4.89569266
H        -1.53101119      -4.07117866      -1.03268017
H         0.23094877      -4.95452418      -4.49344975
H         1.68203813      -4.74929369       1.12637601
H         0.11919284      -2.56435834       6.29291907
H        -3.69349027      -2.96690140      -0.53044565
H        -2.24440431      -4.96691297      -4.45941709
H        -0.48261543      -4.75032651       2.32841394
H        -0.15196717      -0.09429134       6.20210510
H        -3.87338012      -0.48633779      -0.56835431
H        -3.51379659      -2.83120424      -4.40770527
H        -1.65068296      -2.61335737       2.82057410
C         4.59797964       0.48706317       3.34239389
H         4.77278484       0.67696203       4.40543677
H         5.13348524       1.24887653       2.76406405
H         5.02240387      -0.49149477       3.09183081
C         1.12267337       0.07040565      -3.10098865
C         2.92381230       0.34448940       1.48794911
C         1.73066162       0.17745494      -0.68989285
C         1.07248356       0.09444126      -5.60280422
H         1.98070306      -0.51933435      -5.60001529
H         1.37315018       1.14734999      -5.64122073
H         0.50520602      -0.13565016      -6.50940854



