 Entering Gaussian System, Link 0=g16
 Initial command:
 /sw/cluster/pub/apps//g16/l1.exe "/data/mmaximo/44372/Gau-7988.inp" -scrdir="/data/mmaximo/44372/"
 Entering Link 1 = /sw/cluster/pub/apps//g16/l1.exe PID=      7989.
  
 Copyright (c) 1988,1990,1992,1993,1995,1998,2003,2009,2016,
            Gaussian, Inc.  All Rights Reserved.
  
 This is part of the Gaussian(R) 16 program.  It is based on
 the Gaussian(R) 09 system (copyright 2009, Gaussian, Inc.),
 the Gaussian(R) 03 system (copyright 2003, Gaussian, Inc.),
 the Gaussian(R) 98 system (copyright 1998, Gaussian, Inc.),
 the Gaussian(R) 94 system (copyright 1995, Gaussian, Inc.),
 the Gaussian 92(TM) system (copyright 1992, Gaussian, Inc.),
 the Gaussian 90(TM) system (copyright 1990, Gaussian, Inc.),
 the Gaussian 88(TM) system (copyright 1988, Gaussian, Inc.),
 the Gaussian 86(TM) system (copyright 1986, Carnegie Mellon
 University), and the Gaussian 82(TM) system (copyright 1983,
 Carnegie Mellon University). Gaussian is a federally registered
 trademark of Gaussian, Inc.
  
 This software contains proprietary and confidential information,
 including trade secrets, belonging to Gaussian, Inc.
  
 This software is provided under written license and may be
 used, copied, transmitted, or stored only in accord with that
 written license.
  
 The following legend is applicable only to US Government
 contracts under FAR:
  
                    RESTRICTED RIGHTS LEGEND
  
 Use, reproduction and disclosure by the US Government is
 subject to restrictions as set forth in subparagraphs (a)
 and (c) of the Commercial Computer Software - Restricted
 Rights clause in FAR 52.227-19.
  
 Gaussian, Inc.
 340 Quinnipiac St., Bldg. 40, Wallingford CT 06492
  
  
 ---------------------------------------------------------------
 Warning -- This program may not be used in any manner that
 competes with the business of Gaussian, Inc. or will provide
 assistance to any competitor of Gaussian, Inc.  The licensee
 of this program is prohibited from giving any competitor of
 Gaussian, Inc. access to this program.  By using this program,
 the user acknowledges that Gaussian, Inc. is engaged in the
 business of creating and licensing software in the field of
 computational chemistry and represents and warrants to the
 licensee that it is not a competitor of Gaussian, Inc. and that
 it will not use this program in any manner prohibited above.
 ---------------------------------------------------------------
  

 Cite this work as:
 Gaussian 16, Revision A.03,
 M. J. Frisch, G. W. Trucks, H. B. Schlegel, G. E. Scuseria, 
 M. A. Robb, J. R. Cheeseman, G. Scalmani, V. Barone, 
 G. A. Petersson, H. Nakatsuji, X. Li, M. Caricato, A. V. Marenich, 
 J. Bloino, B. G. Janesko, R. Gomperts, B. Mennucci, H. P. Hratchian, 
 J. V. Ortiz, A. F. Izmaylov, J. L. Sonnenberg, D. Williams-Young, 
 F. Ding, F. Lipparini, F. Egidi, J. Goings, B. Peng, A. Petrone, 
 T. Henderson, D. Ranasinghe, V. G. Zakrzewski, J. Gao, N. Rega, 
 G. Zheng, W. Liang, M. Hada, M. Ehara, K. Toyota, R. Fukuda, 
 J. Hasegawa, M. Ishida, T. Nakajima, Y. Honda, O. Kitao, H. Nakai, 
 T. Vreven, K. Throssell, J. A. Montgomery, Jr., J. E. Peralta, 
 F. Ogliaro, M. J. Bearpark, J. J. Heyd, E. N. Brothers, K. N. Kudin, 
 V. N. Staroverov, T. A. Keith, R. Kobayashi, J. Normand, 
 K. Raghavachari, A. P. Rendell, J. C. Burant, S. S. Iyengar, 
 J. Tomasi, M. Cossi, J. M. Millam, M. Klene, C. Adamo, R. Cammi, 
 J. W. Ochterski, R. L. Martin, K. Morokuma, O. Farkas, 
 J. B. Foresman, and D. J. Fox, Gaussian, Inc., Wallingford CT, 2016.
 
 ******************************************
 Gaussian 16:  ES64L-G16RevA.03 25-Dec-2016
                23-Mar-2026 
 ******************************************
 %chk=f4-def2TZVP_SP.chk
 -------------------------------------------
 #p B3LYP/def2TZVP nosymm density=current sp
 -------------------------------------------
 1/30=1,38=1,172=1/1;
 2/12=2,15=1,17=6,18=5,40=1/2;
 3/5=44,7=101,11=2,25=1,30=1,74=-5/1,2,3;
 4//1;
 5/5=2,38=5/2;
 6/7=2,8=2,9=2,10=2,22=-1,28=1/1;
 99/5=1,9=1/99;
 Leave Link    1 at Mon Mar 23 17:06:29 2026, MaxMem=           0 cpu:               0.0 elap:               0.0
 (Enter /sw/cluster/pub/apps//g16/l101.exe)
 ----------------------
 Generated by extraQ₂
 ----------------------
 Symbolic Z-matrix:
 Charge =  0 Multiplicity = 1
 C                    -1.45474   0.33297   0.62766 
 C                     0.99359   0.24489  -4.23367 
 C                     0.17881  -0.13881  -1.60306 
 H                    -1.88165  -0.59044  -1.28302 
 H                    -1.56799   1.11513  -1.35408 
 C                    -3.83049   0.18662   2.06497 
 H                    -0.64969   1.08702  -3.18587 
 H                    -3.35487   1.25607   0.25468 
 H                    -0.81452  -0.62181  -3.44202 
 H                    -3.39438  -0.4718    0.09425 
 C                    -0.75055  -0.6782    1.52882 
 C                     2.14559  -0.75757  -4.21885 
 C                    -3.88155  -1.24592   2.59255 
 C                     0.57062  -1.6007   -1.38968 
 C                    -3.50248  -1.29668   3.94078 
 C                     1.8296   -1.69941  -0.78538 
 C                     3.38154  -0.09108  -4.22085 
 C                     0.10064  -0.02313   2.43408 
 C                     0.02131   1.41806   2.20024 
 C                     3.13858   1.35181  -4.21885 
 C                     2.34403  -0.34852  -0.56528 
 C                    -3.17191   0.05892   4.38128 
 C                     1.39916   0.57968  -1.03303 
 C                    -3.34546   0.93994   3.30171 
 C                     1.75416   1.56945  -4.21885 
 C                    -0.87948   1.64779   1.15348 
 C                    -1.14755   2.94113   0.73641 
 C                     1.25229   2.85946  -4.27612 
 C                    -3.18105   2.30305   3.4899 
 C                     1.66772   1.93634  -0.94743 
 C                    -0.50998   4.008     1.36739 
 C                     2.13807   3.93533  -4.30848 
 C                     2.87135   2.36202  -0.39253 
 C                    -2.8075    2.77947   4.74456 
 C                     3.80425   1.43846   0.07366 
 C                    -2.61066   1.90056   5.80755 
 C                     0.3879    3.77706   2.40747 
 C                     3.51428   3.71797  -4.29018 
 C                     0.65918   2.48065   2.83069 
 C                     4.02377   2.42469  -4.24957 
 C                    -2.79769   0.5342    5.63441 
 C                     3.5468    0.07569  -0.01024 
 H                     4.27392  -0.64187   0.34949 
 H                    -2.66247  -0.14532   6.46702 
 H                     1.35681   2.3071    3.64053 
 H                     5.09445   2.26119  -4.2446 
 H                     0.87753   4.61429   2.88924 
 H                     4.19122   4.56286  -4.31462 
 H                    -2.31903   2.28622   6.77659 
 H                     4.73612   1.78584   0.5026 
 H                    -0.71303   5.0225    1.04709 
 H                     1.75434   4.94708  -4.35157 
 H                     3.08192   3.42136  -0.32394 
 H                    -2.66526   3.84245   4.8924 
 H                    -1.84359   3.13732  -0.07184 
 H                     0.18416   3.04433  -4.29521 
 H                     0.95821   2.66943  -1.30328 
 H                    -3.32691   3.00058   2.67584 
 C                     4.57473  -0.80492  -4.27564 
 C                     0.84196  -0.74298   3.36517 
 C                    -3.5188   -2.50181   4.63576 
 C                     2.38392  -2.94331  -0.50449 
 C                     4.52633  -2.19239  -4.34273 
 C                     0.72681  -2.12739   3.39 
 C                    -3.92662  -3.65547   3.97504 
 C                     1.6699   -4.08987  -0.83456 
 C                     3.30086  -2.85483  -4.36708 
 C                    -0.11908  -2.78044   2.49637 
 C                    -4.32104  -3.60334   2.63966 
 C                     0.41778  -3.99385  -1.4381 
 C                    -4.30275  -2.39543   1.94411 
 C                    -0.13617  -2.74579  -1.71793 
 C                     2.1066   -2.13978  -4.31107 
 C                    -0.86021  -2.05901   1.56463 
 H                    -4.61659  -2.36997   0.90666 
 H                    -1.11195  -2.68773  -2.18774 
 H                    -1.51058  -2.58531   0.8809 
 H                     1.16468  -2.67175  -4.32859 
 H                     3.27492  -3.93551  -4.42594 
 H                    -0.20285  -3.85907   2.52467 
 H                    -4.64724  -4.50704   2.14 
 H                    -0.12836  -4.89441  -1.69058 
 H                     5.44613  -2.76243  -4.38559 
 H                     1.29659  -2.70312   4.10897 
 H                    -3.94462  -4.60064   4.50324 
 H                     2.08926  -5.06533  -0.62148 
 H                     5.52828  -0.29111  -4.27588 
 H                     1.49741  -0.23568   4.06233 
 H                    -3.22182  -2.54646   5.67639 
 H                     3.35732  -3.02387  -0.03689 
 C                     0.24552   0.12343  -5.5868 
 H                     0.93296   0.273    -6.41965 
 H                    -0.54696   0.87141  -5.6598 
 H                    -0.20739  -0.86442  -5.68869 
 C                    -3.02414   0.33162   0.73532 
 C                    -0.10167   0.1439   -3.12491 
 C                    -1.20171   0.1828   -0.91866 
 C                    -5.27703   0.64206   1.74029 
 H                    -5.68147   0.07625   0.89821 
 H                    -5.29745   1.70195   1.48031 
 H                    -5.92969   0.48719   2.59971 
 
 ITRead=  0  0  0  0  0  0  0  0  0  0  0  0  0  0  0  0  0  0  0  0
 ITRead=  0  0  0  0  0  0  0  0  0  0  0  0  0  0  0  0  0  0  0  0
 ITRead=  0  0  0  0  0  0  0  0  0  0  0  0  0  0  0  0  0  0  0  0
 ITRead=  0  0  0  0  0  0  0  0  0  0  0  0  0  0  0  0  0  0  0  0
 ITRead=  0  0  0  0  0  0  0  0  0  0  0  0  0  0  0  0  0  0  0  0
 ITRead=  0
 MicOpt= -1 -1 -1 -1 -1 -1 -1 -1 -1 -1 -1 -1 -1 -1 -1 -1 -1 -1 -1 -1
 MicOpt= -1 -1 -1 -1 -1 -1 -1 -1 -1 -1 -1 -1 -1 -1 -1 -1 -1 -1 -1 -1
 MicOpt= -1 -1 -1 -1 -1 -1 -1 -1 -1 -1 -1 -1 -1 -1 -1 -1 -1 -1 -1 -1
 MicOpt= -1 -1 -1 -1 -1 -1 -1 -1 -1 -1 -1 -1 -1 -1 -1 -1 -1 -1 -1 -1
 MicOpt= -1 -1 -1 -1 -1 -1 -1 -1 -1 -1 -1 -1 -1 -1 -1 -1 -1 -1 -1 -1
 MicOpt= -1
 NAtoms=    101 NQM=      101 NQMF=       0 NMMI=      0 NMMIF=      0
                NMic=       0 NMicF=      0.
                    Isotopes and Nuclear Properties:
 (Nuclear quadrupole moments (NQMom) in fm**2, nuclear magnetic moments (NMagM)
  in nuclear magnetons)

  Atom         1           2           3           4           5           6           7           8           9          10
 IAtWgt=          12          12          12           1           1          12           1           1           1           1
 AtmWgt=  12.0000000  12.0000000  12.0000000   1.0078250   1.0078250  12.0000000   1.0078250   1.0078250   1.0078250   1.0078250
 NucSpn=           0           0           0           1           1           0           1           1           1           1
 AtZEff=  -0.0000000  -0.0000000  -0.0000000  -0.0000000  -0.0000000  -0.0000000  -0.0000000  -0.0000000  -0.0000000  -0.0000000
 NQMom=    0.0000000   0.0000000   0.0000000   0.0000000   0.0000000   0.0000000   0.0000000   0.0000000   0.0000000   0.0000000
 NMagM=    0.0000000   0.0000000   0.0000000   2.7928460   2.7928460   0.0000000   2.7928460   2.7928460   2.7928460   2.7928460
 AtZNuc=   6.0000000   6.0000000   6.0000000   1.0000000   1.0000000   6.0000000   1.0000000   1.0000000   1.0000000   1.0000000

  Atom        11          12          13          14          15          16          17          18          19          20
 IAtWgt=          12          12          12          12          12          12          12          12          12          12
 AtmWgt=  12.0000000  12.0000000  12.0000000  12.0000000  12.0000000  12.0000000  12.0000000  12.0000000  12.0000000  12.0000000
 NucSpn=           0           0           0           0           0           0           0           0           0           0
 AtZEff=  -0.0000000  -0.0000000  -0.0000000  -0.0000000  -0.0000000  -0.0000000  -0.0000000  -0.0000000  -0.0000000  -0.0000000
 NQMom=    0.0000000   0.0000000   0.0000000   0.0000000   0.0000000   0.0000000   0.0000000   0.0000000   0.0000000   0.0000000
 NMagM=    0.0000000   0.0000000   0.0000000   0.0000000   0.0000000   0.0000000   0.0000000   0.0000000   0.0000000   0.0000000
 AtZNuc=   6.0000000   6.0000000   6.0000000   6.0000000   6.0000000   6.0000000   6.0000000   6.0000000   6.0000000   6.0000000

  Atom        21          22          23          24          25          26          27          28          29          30
 IAtWgt=          12          12          12          12          12          12          12          12          12          12
 AtmWgt=  12.0000000  12.0000000  12.0000000  12.0000000  12.0000000  12.0000000  12.0000000  12.0000000  12.0000000  12.0000000
 NucSpn=           0           0           0           0           0           0           0           0           0           0
 AtZEff=  -0.0000000  -0.0000000  -0.0000000  -0.0000000  -0.0000000  -0.0000000  -0.0000000  -0.0000000  -0.0000000  -0.0000000
 NQMom=    0.0000000   0.0000000   0.0000000   0.0000000   0.0000000   0.0000000   0.0000000   0.0000000   0.0000000   0.0000000
 NMagM=    0.0000000   0.0000000   0.0000000   0.0000000   0.0000000   0.0000000   0.0000000   0.0000000   0.0000000   0.0000000
 AtZNuc=   6.0000000   6.0000000   6.0000000   6.0000000   6.0000000   6.0000000   6.0000000   6.0000000   6.0000000   6.0000000

  Atom        31          32          33          34          35          36          37          38          39          40
 IAtWgt=          12          12          12          12          12          12          12          12          12          12
 AtmWgt=  12.0000000  12.0000000  12.0000000  12.0000000  12.0000000  12.0000000  12.0000000  12.0000000  12.0000000  12.0000000
 NucSpn=           0           0           0           0           0           0           0           0           0           0
 AtZEff=  -0.0000000  -0.0000000  -0.0000000  -0.0000000  -0.0000000  -0.0000000  -0.0000000  -0.0000000  -0.0000000  -0.0000000
 NQMom=    0.0000000   0.0000000   0.0000000   0.0000000   0.0000000   0.0000000   0.0000000   0.0000000   0.0000000   0.0000000
 NMagM=    0.0000000   0.0000000   0.0000000   0.0000000   0.0000000   0.0000000   0.0000000   0.0000000   0.0000000   0.0000000
 AtZNuc=   6.0000000   6.0000000   6.0000000   6.0000000   6.0000000   6.0000000   6.0000000   6.0000000   6.0000000   6.0000000

  Atom        41          42          43          44          45          46          47          48          49          50
 IAtWgt=          12          12           1           1           1           1           1           1           1           1
 AtmWgt=  12.0000000  12.0000000   1.0078250   1.0078250   1.0078250   1.0078250   1.0078250   1.0078250   1.0078250   1.0078250
 NucSpn=           0           0           1           1           1           1           1           1           1           1
 AtZEff=  -0.0000000  -0.0000000  -0.0000000  -0.0000000  -0.0000000  -0.0000000  -0.0000000  -0.0000000  -0.0000000  -0.0000000
 NQMom=    0.0000000   0.0000000   0.0000000   0.0000000   0.0000000   0.0000000   0.0000000   0.0000000   0.0000000   0.0000000
 NMagM=    0.0000000   0.0000000   2.7928460   2.7928460   2.7928460   2.7928460   2.7928460   2.7928460   2.7928460   2.7928460
 AtZNuc=   6.0000000   6.0000000   1.0000000   1.0000000   1.0000000   1.0000000   1.0000000   1.0000000   1.0000000   1.0000000

  Atom        51          52          53          54          55          56          57          58          59          60
 IAtWgt=           1           1           1           1           1           1           1           1          12          12
 AtmWgt=   1.0078250   1.0078250   1.0078250   1.0078250   1.0078250   1.0078250   1.0078250   1.0078250  12.0000000  12.0000000
 NucSpn=           1           1           1           1           1           1           1           1           0           0
 AtZEff=  -0.0000000  -0.0000000  -0.0000000  -0.0000000  -0.0000000  -0.0000000  -0.0000000  -0.0000000  -0.0000000  -0.0000000
 NQMom=    0.0000000   0.0000000   0.0000000   0.0000000   0.0000000   0.0000000   0.0000000   0.0000000   0.0000000   0.0000000
 NMagM=    2.7928460   2.7928460   2.7928460   2.7928460   2.7928460   2.7928460   2.7928460   2.7928460   0.0000000   0.0000000
 AtZNuc=   1.0000000   1.0000000   1.0000000   1.0000000   1.0000000   1.0000000   1.0000000   1.0000000   6.0000000   6.0000000

  Atom        61          62          63          64          65          66          67          68          69          70
 IAtWgt=          12          12          12          12          12          12          12          12          12          12
 AtmWgt=  12.0000000  12.0000000  12.0000000  12.0000000  12.0000000  12.0000000  12.0000000  12.0000000  12.0000000  12.0000000
 NucSpn=           0           0           0           0           0           0           0           0           0           0
 AtZEff=  -0.0000000  -0.0000000  -0.0000000  -0.0000000  -0.0000000  -0.0000000  -0.0000000  -0.0000000  -0.0000000  -0.0000000
 NQMom=    0.0000000   0.0000000   0.0000000   0.0000000   0.0000000   0.0000000   0.0000000   0.0000000   0.0000000   0.0000000
 NMagM=    0.0000000   0.0000000   0.0000000   0.0000000   0.0000000   0.0000000   0.0000000   0.0000000   0.0000000   0.0000000
 AtZNuc=   6.0000000   6.0000000   6.0000000   6.0000000   6.0000000   6.0000000   6.0000000   6.0000000   6.0000000   6.0000000

  Atom        71          72          73          74          75          76          77          78          79          80
 IAtWgt=          12          12          12          12           1           1           1           1           1           1
 AtmWgt=  12.0000000  12.0000000  12.0000000  12.0000000   1.0078250   1.0078250   1.0078250   1.0078250   1.0078250   1.0078250
 NucSpn=           0           0           0           0           1           1           1           1           1           1
 AtZEff=  -0.0000000  -0.0000000  -0.0000000  -0.0000000  -0.0000000  -0.0000000  -0.0000000  -0.0000000  -0.0000000  -0.0000000
 NQMom=    0.0000000   0.0000000   0.0000000   0.0000000   0.0000000   0.0000000   0.0000000   0.0000000   0.0000000   0.0000000
 NMagM=    0.0000000   0.0000000   0.0000000   0.0000000   2.7928460   2.7928460   2.7928460   2.7928460   2.7928460   2.7928460
 AtZNuc=   6.0000000   6.0000000   6.0000000   6.0000000   1.0000000   1.0000000   1.0000000   1.0000000   1.0000000   1.0000000

  Atom        81          82          83          84          85          86          87          88          89          90
 IAtWgt=           1           1           1           1           1           1           1           1           1           1
 AtmWgt=   1.0078250   1.0078250   1.0078250   1.0078250   1.0078250   1.0078250   1.0078250   1.0078250   1.0078250   1.0078250
 NucSpn=           1           1           1           1           1           1           1           1           1           1
 AtZEff=  -0.0000000  -0.0000000  -0.0000000  -0.0000000  -0.0000000  -0.0000000  -0.0000000  -0.0000000  -0.0000000  -0.0000000
 NQMom=    0.0000000   0.0000000   0.0000000   0.0000000   0.0000000   0.0000000   0.0000000   0.0000000   0.0000000   0.0000000
 NMagM=    2.7928460   2.7928460   2.7928460   2.7928460   2.7928460   2.7928460   2.7928460   2.7928460   2.7928460   2.7928460
 AtZNuc=   1.0000000   1.0000000   1.0000000   1.0000000   1.0000000   1.0000000   1.0000000   1.0000000   1.0000000   1.0000000

  Atom        91          92          93          94          95          96          97          98          99         100
 IAtWgt=          12           1           1           1          12          12          12          12           1           1
 AtmWgt=  12.0000000   1.0078250   1.0078250   1.0078250  12.0000000  12.0000000  12.0000000  12.0000000   1.0078250   1.0078250
 NucSpn=           0           1           1           1           0           0           0           0           1           1
 AtZEff=  -0.0000000  -0.0000000  -0.0000000  -0.0000000  -0.0000000  -0.0000000  -0.0000000  -0.0000000  -0.0000000  -0.0000000
 NQMom=    0.0000000   0.0000000   0.0000000   0.0000000   0.0000000   0.0000000   0.0000000   0.0000000   0.0000000   0.0000000
 NMagM=    0.0000000   2.7928460   2.7928460   2.7928460   0.0000000   0.0000000   0.0000000   0.0000000   2.7928460   2.7928460
 AtZNuc=   6.0000000   1.0000000   1.0000000   1.0000000   6.0000000   6.0000000   6.0000000   6.0000000   1.0000000   1.0000000

  Atom       101
 IAtWgt=           1
 AtmWgt=   1.0078250
 NucSpn=           1
 AtZEff=  -0.0000000
 NQMom=    0.0000000
 NMagM=    2.7928460
 AtZNuc=   1.0000000
 Leave Link  101 at Mon Mar 23 17:06:30 2026, MaxMem=   104857600 cpu:               0.0 elap:               0.0
 (Enter /sw/cluster/pub/apps//g16/l202.exe)
 Symmetry turned off by external request.
 Stoichiometry    C57H44
 Framework group  C1[X(C57H44)]
 Deg. of freedom   297
 Full point group                 C1      NOp   1
                          Input orientation:                          
 ---------------------------------------------------------------------
 Center     Atomic      Atomic             Coordinates (Angstroms)
 Number     Number       Type             X           Y           Z
 ---------------------------------------------------------------------
      1          6           0       -1.454736    0.332972    0.627661
      2          6           0        0.993592    0.244895   -4.233668
      3          6           0        0.178812   -0.138815   -1.603061
      4          1           0       -1.881651   -0.590438   -1.283024
      5          1           0       -1.567989    1.115127   -1.354076
      6          6           0       -3.830489    0.186624    2.064970
      7          1           0       -0.649695    1.087020   -3.185868
      8          1           0       -3.354866    1.256074    0.254677
      9          1           0       -0.814515   -0.621806   -3.442023
     10          1           0       -3.394375   -0.471797    0.094249
     11          6           0       -0.750552   -0.678199    1.528822
     12          6           0        2.145592   -0.757575   -4.218850
     13          6           0       -3.881547   -1.245919    2.592551
     14          6           0        0.570623   -1.600698   -1.389675
     15          6           0       -3.502480   -1.296682    3.940782
     16          6           0        1.829596   -1.699415   -0.785380
     17          6           0        3.381537   -0.091079   -4.220847
     18          6           0        0.100643   -0.023127    2.434076
     19          6           0        0.021315    1.418062    2.200244
     20          6           0        3.138580    1.351811   -4.218850
     21          6           0        2.344032   -0.348523   -0.565282
     22          6           0       -3.171912    0.058918    4.381280
     23          6           0        1.399162    0.579684   -1.033030
     24          6           0       -3.345463    0.939940    3.301714
     25          6           0        1.754157    1.569450   -4.218850
     26          6           0       -0.879483    1.647792    1.153477
     27          6           0       -1.147549    2.941135    0.736408
     28          6           0        1.252288    2.859458   -4.276119
     29          6           0       -3.181052    2.303050    3.489901
     30          6           0        1.667723    1.936335   -0.947430
     31          6           0       -0.509979    4.008000    1.367389
     32          6           0        2.138069    3.935328   -4.308476
     33          6           0        2.871351    2.362021   -0.392525
     34          6           0       -2.807500    2.779474    4.744559
     35          6           0        3.804250    1.438463    0.073663
     36          6           0       -2.610657    1.900562    5.807554
     37          6           0        0.387897    3.777057    2.407467
     38          6           0        3.514279    3.717967   -4.290176
     39          6           0        0.659184    2.480654    2.830691
     40          6           0        4.023770    2.424693   -4.249571
     41          6           0       -2.797694    0.534201    5.634413
     42          6           0        3.546797    0.075694   -0.010244
     43          1           0        4.273922   -0.641865    0.349493
     44          1           0       -2.662467   -0.145320    6.467020
     45          1           0        1.356810    2.307101    3.640531
     46          1           0        5.094448    2.261187   -4.244599
     47          1           0        0.877534    4.614291    2.889238
     48          1           0        4.191215    4.562855   -4.314616
     49          1           0       -2.319031    2.286224    6.776588
     50          1           0        4.736121    1.785835    0.502599
     51          1           0       -0.713027    5.022495    1.047088
     52          1           0        1.754344    4.947079   -4.351568
     53          1           0        3.081916    3.421364   -0.323940
     54          1           0       -2.665255    3.842448    4.892396
     55          1           0       -1.843591    3.137315   -0.071842
     56          1           0        0.184157    3.044333   -4.295206
     57          1           0        0.958209    2.669429   -1.303279
     58          1           0       -3.326911    3.000576    2.675843
     59          6           0        4.574726   -0.804922   -4.275645
     60          6           0        0.841959   -0.742984    3.365165
     61          6           0       -3.518800   -2.501806    4.635756
     62          6           0        2.383921   -2.943307   -0.504489
     63          6           0        4.526334   -2.192389   -4.342732
     64          6           0        0.726806   -2.127392    3.390001
     65          6           0       -3.926617   -3.655465    3.975045
     66          6           0        1.669900   -4.089866   -0.834564
     67          6           0        3.300864   -2.854827   -4.367075
     68          6           0       -0.119085   -2.780442    2.496366
     69          6           0       -4.321044   -3.603337    2.639662
     70          6           0        0.417780   -3.993848   -1.438100
     71          6           0       -4.302745   -2.395434    1.944111
     72          6           0       -0.136174   -2.745786   -1.717935
     73          6           0        2.106603   -2.139781   -4.311067
     74          6           0       -0.860207   -2.059014    1.564632
     75          1           0       -4.616589   -2.369972    0.906662
     76          1           0       -1.111952   -2.687726   -2.187739
     77          1           0       -1.510583   -2.585306    0.880897
     78          1           0        1.164683   -2.671748   -4.328586
     79          1           0        3.274918   -3.935505   -4.425940
     80          1           0       -0.202849   -3.859067    2.524671
     81          1           0       -4.647239   -4.507038    2.140001
     82          1           0       -0.128357   -4.894410   -1.690580
     83          1           0        5.446128   -2.762431   -4.385588
     84          1           0        1.296586   -2.703124    4.108972
     85          1           0       -3.944623   -4.600644    4.503241
     86          1           0        2.089265   -5.065334   -0.621482
     87          1           0        5.528282   -0.291114   -4.275876
     88          1           0        1.497411   -0.235677    4.062327
     89          1           0       -3.221821   -2.546457    5.676390
     90          1           0        3.357321   -3.023874   -0.036893
     91          6           0        0.245525    0.123433   -5.586802
     92          1           0        0.932955    0.273002   -6.419645
     93          1           0       -0.546957    0.871407   -5.659800
     94          1           0       -0.207391   -0.864417   -5.688687
     95          6           0       -3.024142    0.331622    0.735322
     96          6           0       -0.101669    0.143897   -3.124912
     97          6           0       -1.201708    0.182800   -0.918662
     98          6           0       -5.277026    0.642062    1.740291
     99          1           0       -5.681473    0.076246    0.898214
    100          1           0       -5.297450    1.701947    1.480313
    101          1           0       -5.929694    0.487195    2.599711
 ---------------------------------------------------------------------
 Rotational constants (GHZ):           0.0974924           0.0408524           0.0356854
 Leave Link  202 at Mon Mar 23 17:06:30 2026, MaxMem=   104857600 cpu:               0.0 elap:               0.0
 (Enter /sw/cluster/pub/apps//g16/l301.exe)
 Standard basis: def2TZVP (5D, 7F)
 Ernie: Thresh=  0.10000D-02 Tol=  0.10000D-05 Strict=F.
  2031 basis functions,  3259 primitive gaussians,  2316 cartesian basis functions
   193 alpha electrons      193 beta electrons
       nuclear repulsion energy      8071.9566267915 Hartrees.
 IExCor=  402 DFT=T Ex+Corr=B3LYP ExCW=0 ScaHFX=  0.200000
 ScaDFX=  0.800000  0.720000  1.000000  0.810000 ScalE2=  1.000000  1.000000
 IRadAn=      5 IRanWt=     -1 IRanGd=            0 ICorTp=0 IEmpDi=  4
 NAtoms=  101 NActive=  101 NUniq=  101 SFac= 1.00D+00 NAtFMM=   60 NAOKFM=T Big=T
 Integral buffers will be    131072 words long.
 Raffenetti 2 integral format.
 Two-electron integral symmetry is turned off.
 Leave Link  301 at Mon Mar 23 17:06:30 2026, MaxMem=   104857600 cpu:               0.0 elap:               0.0
 (Enter /sw/cluster/pub/apps//g16/l302.exe)
 NPDir=0 NMtPBC=     1 NCelOv=     1 NCel=       1 NClECP=     1 NCelD=      1
         NCelK=      1 NCelE2=     1 NClLst=     1 CellRange=     0.0.
 One-electron integrals computed using PRISM.
   1 Symmetry operations used in ECPInt.
 ECPInt:  NShTT=  322806 NPrTT=  987696 LenC2=  246471 LenP2D=  493449.
 LDataN:  DoStor=T MaxTD1= 6 Len=  172
 NBasis=  2031 RedAO= T EigKep=  1.92D-06  NBF=  2031
 NBsUse=  2031 1.00D-06 EigRej= -1.00D+00 NBFU=  2031
 Precomputing XC quadrature grid using
 IXCGrd= 4 IRadAn=           5 IRanWt=          -1 IRanGd=           0 AccXCQ= 0.00D+00.
 Generated NRdTot=       0 NPtTot=           0 NUsed=           0 NTot=          32
 NSgBfM=  2098  2091  2094  2094  2098 MxSgAt=   101 MxSgA2=   101.
 Leave Link  302 at Mon Mar 23 17:06:40 2026, MaxMem=   104857600 cpu:              10.1 elap:              10.1
 (Enter /sw/cluster/pub/apps//g16/l303.exe)
 DipDrv:  MaxL=1.
 Leave Link  303 at Mon Mar 23 17:06:41 2026, MaxMem=   104857600 cpu:               0.3 elap:               0.3
 (Enter /sw/cluster/pub/apps//g16/l401.exe)
 ExpMin= 9.52D-02 ExpMax= 1.36D+04 ExpMxC= 4.63D+02 IAcc=3 IRadAn=         5 AccDes= 0.00D+00
 Harris functional with IExCor=  402 and IRadAn=       5 diagonalized for initial guess.
 HarFok:  IExCor=  402 AccDes= 0.00D+00 IRadAn=         5 IDoV= 1 UseB2=F ITyADJ=14
 ICtDFT=  3500011 ScaDFX=  1.000000  1.000000  1.000000  1.000000
 FoFCou: FMM=F IPFlag=           0 FMFlag=      100000 FMFlg1=        2001
         NFxFlg=           0 DoJE=T BraDBF=F KetDBF=T FulRan=T
         wScrn=  0.000000 ICntrl=       500 IOpCl=  0 I1Cent=   200000004 NGrid=           0
         NMat0=    1 NMatS0=      1 NMatT0=    0 NMatD0=    1 NMtDS0=    0 NMtDT0=    0
 Symmetry not used in FoFCou.
 Harris En= -2199.55574023409    
 JPrj=0 DoOrth=F DoCkMO=F.
 Leave Link  401 at Mon Mar 23 17:08:34 2026, MaxMem=   104857600 cpu:             112.8 elap:             113.0
 (Enter /sw/cluster/pub/apps//g16/l502.exe)
 Two-electron integral symmetry not used.
 Closed shell SCF:
 Using DIIS extrapolation, IDIIS=  1040.
 NGot=   104857600 LenX=    94101109 LenY=    88734937
 Requested convergence on RMS density matrix=1.00D-08 within 128 cycles.
 Requested convergence on MAX density matrix=1.00D-06.
 Requested convergence on             energy=1.00D-06.
 No special actions if energy rises.
 Fock matrices will be formed incrementally for  20 cycles.
 Integral accuracy reduced to 1.0D-05 until final iterations.

 Cycle   1  Pass 0  IDiag  1:
 FoFJK:  IHMeth= 1 ICntrl=       0 DoSepK=F KAlg= 0 I1Cent=           0 FoldK=F
 IRaf= 750000000 NMat=       1 IRICut=       1 DoRegI=T DoRafI=F ISym2E= 0 IDoP0=0 IntGTp=1.
 FoFCou: FMM=T IPFlag=           0 FMFlag=      100000 FMFlg1=        2001
         NFxFlg=           0 DoJE=F BraDBF=F KetDBF=F FulRan=T
         wScrn=  0.000000 ICntrl=         0 IOpCl=  0 I1Cent=           0 NGrid=           0
         NMat0=    1 NMatS0=      1 NMatT0=    0 NMatD0=    1 NMtDS0=    0 NMtDT0=    0
 Symmetry not used in FoFCou.
 FMM levels:  10  Number of levels for PrismC:   9
 E= -2197.96452353712    
 DIIS: error= 1.52D-02 at cycle   1 NSaved=   1.
 NSaved= 1 IEnMin= 1 EnMin= -2197.96452353712     IErMin= 1 ErrMin= 1.52D-02
 ErrMax= 1.52D-02  0.00D+00 EMaxC= 1.00D-01 BMatC= 1.41D+00 BMatP= 1.41D+00
 IDIUse=3 WtCom= 8.48D-01 WtEn= 1.52D-01
 Coeff-Com:  0.100D+01
 Coeff-En:   0.100D+01
 Coeff:      0.100D+01
 Gap=     0.183 Goal=   None    Shift=    0.000
 GapD=    0.183 DampG=1.000 DampE=0.500 DampFc=0.5000 IDamp=-1.
 Damping current iteration by 5.00D-01
 RMSDP=2.86D+02 MaxDP=7.22D+04              OVMax= 9.89D-01

 Problem detected with inexpensive integrals.
 Switching to full accuracy and repeating last cycle.
 Cycle   2  Pass 1  IDiag  1:
 E= -2197.96492296402     Delta-E=       -0.000399426901 Rises=F Damp=F
 DIIS: error= 1.52D-02 at cycle   1 NSaved=   1.
 NSaved= 1 IEnMin= 1 EnMin= -2197.96492296402     IErMin= 1 ErrMin= 1.52D-02
 ErrMax= 1.52D-02  0.00D+00 EMaxC= 1.00D-01 BMatC= 1.39D+00 BMatP= 1.39D+00
 IDIUse=3 WtCom= 8.48D-01 WtEn= 1.52D-01
 Coeff-Com:  0.100D+01
 Coeff-En:   0.100D+01
 Coeff:      0.100D+01
 Gap=     0.183 Goal=   None    Shift=    0.000
 GapD=    0.183 DampG=1.000 DampE=0.500 DampFc=0.5000 IDamp=-1.
 Damping current iteration by 5.00D-01
 RMSDP=4.42D-03 MaxDP=8.49D-01 DE=-3.99D-04 OVMax= 1.70D-01

 Cycle   3  Pass 1  IDiag  1:
 RMSU=  2.19D-03    CP:  1.07D+00
 E= -2198.57507243017     Delta-E=       -0.610149466154 Rises=F Damp=T
 DIIS: error= 4.38D-03 at cycle   2 NSaved=   2.
 NSaved= 2 IEnMin= 2 EnMin= -2198.57507243017     IErMin= 2 ErrMin= 4.38D-03
 ErrMax= 4.38D-03  0.00D+00 EMaxC= 1.00D-01 BMatC= 8.93D-02 BMatP= 1.39D+00
 IDIUse=3 WtCom= 9.56D-01 WtEn= 4.38D-02
 Coeff-Com:  0.208D-01 0.979D+00
 Coeff-En:   0.955D-01 0.904D+00
 Coeff:      0.240D-01 0.976D+00
 Gap=     0.259 Goal=   None    Shift=    0.000
 GapD=    0.259 DampG=1.000 DampE=1.000 DampFc=1.0000 IDamp=-1.
 RMSDP=2.17D-03 MaxDP=4.37D-01 DE=-6.10D-01 OVMax= 1.26D-01

 Cycle   4  Pass 1  IDiag  1:
 RMSU=  8.48D-04    CP:  9.24D-01  1.35D-01
 E= -2199.29773733900     Delta-E=       -0.722664908833 Rises=F Damp=F
 DIIS: error= 5.48D-03 at cycle   3 NSaved=   3.
 NSaved= 3 IEnMin= 3 EnMin= -2199.29773733900     IErMin= 2 ErrMin= 4.38D-03
 ErrMax= 5.48D-03  0.00D+00 EMaxC= 1.00D-01 BMatC= 6.12D-02 BMatP= 8.93D-02
 IDIUse=3 WtCom= 9.45D-01 WtEn= 5.48D-02
 Coeff-Com: -0.530D-01 0.455D+00 0.598D+00
 Coeff-En:   0.000D+00 0.000D+00 0.100D+01
 Coeff:     -0.501D-01 0.430D+00 0.620D+00
 Gap=     0.187 Goal=   None    Shift=    0.000
 RMSDP=6.01D-04 MaxDP=6.43D-02 DE=-7.23D-01 OVMax= 7.48D-02

 Cycle   5  Pass 1  IDiag  1:
 RMSU=  4.24D-04    CP:  9.37D-01  3.10D-01  7.85D-01
 E= -2199.32253430835     Delta-E=       -0.024796969345 Rises=F Damp=F
 DIIS: error= 5.64D-03 at cycle   4 NSaved=   4.
 NSaved= 4 IEnMin= 4 EnMin= -2199.32253430835     IErMin= 2 ErrMin= 4.38D-03
 ErrMax= 5.64D-03  0.00D+00 EMaxC= 1.00D-01 BMatC= 4.01D-02 BMatP= 6.12D-02
 IDIUse=3 WtCom= 9.44D-01 WtEn= 5.64D-02
 Coeff-Com: -0.439D-01 0.217D+00 0.450D+00 0.377D+00
 Coeff-En:   0.000D+00 0.000D+00 0.398D+00 0.602D+00
 Coeff:     -0.414D-01 0.205D+00 0.447D+00 0.389D+00
 Gap=     0.175 Goal=   None    Shift=    0.000
 RMSDP=1.98D-04 MaxDP=1.39D-02 DE=-2.48D-02 OVMax= 4.56D-02

 Cycle   6  Pass 1  IDiag  1:
 RMSU=  1.19D-04    CP:  9.35D-01  2.80D-01  8.52D-01  6.88D-01
 E= -2199.36101376997     Delta-E=       -0.038479461618 Rises=F Damp=F
 DIIS: error= 1.46D-03 at cycle   5 NSaved=   5.
 NSaved= 5 IEnMin= 5 EnMin= -2199.36101376997     IErMin= 5 ErrMin= 1.46D-03
 ErrMax= 1.46D-03  0.00D+00 EMaxC= 1.00D-01 BMatC= 2.56D-03 BMatP= 4.01D-02
 IDIUse=3 WtCom= 9.85D-01 WtEn= 1.46D-02
 Coeff-Com: -0.171D-01 0.552D-01 0.169D+00 0.239D+00 0.554D+00
 Coeff-En:   0.000D+00 0.000D+00 0.000D+00 0.540D-01 0.946D+00
 Coeff:     -0.168D-01 0.544D-01 0.166D+00 0.236D+00 0.560D+00
 Gap=     0.175 Goal=   None    Shift=    0.000
 RMSDP=6.15D-05 MaxDP=7.10D-03 DE=-3.85D-02 OVMax= 1.34D-02

 Cycle   7  Pass 1  IDiag  1:
 RMSU=  3.89D-05    CP:  9.34D-01  2.78D-01  8.50D-01  7.24D-01  6.24D-01
 E= -2199.36318099210     Delta-E=       -0.002167222128 Rises=F Damp=F
 DIIS: error= 4.95D-04 at cycle   6 NSaved=   6.
 NSaved= 6 IEnMin= 6 EnMin= -2199.36318099210     IErMin= 6 ErrMin= 4.95D-04
 ErrMax= 4.95D-04  0.00D+00 EMaxC= 1.00D-01 BMatC= 4.89D-04 BMatP= 2.56D-03
 IDIUse=3 WtCom= 9.95D-01 WtEn= 4.95D-03
 Coeff-Com: -0.667D-02 0.135D-01 0.622D-01 0.115D+00 0.382D+00 0.434D+00
 Coeff-En:   0.000D+00 0.000D+00 0.000D+00 0.000D+00 0.183D+00 0.817D+00
 Coeff:     -0.663D-02 0.135D-01 0.619D-01 0.115D+00 0.381D+00 0.436D+00
 Gap=     0.175 Goal=   None    Shift=    0.000
 RMSDP=2.36D-05 MaxDP=1.40D-03 DE=-2.17D-03 OVMax= 5.48D-03

 Cycle   8  Pass 1  IDiag  1:
 RMSU=  1.35D-05    CP:  9.34D-01  2.77D-01  8.55D-01  7.19D-01  7.00D-01
                    CP:  5.80D-01
 E= -2199.36369631935     Delta-E=       -0.000515327252 Rises=F Damp=F
 DIIS: error= 1.38D-04 at cycle   7 NSaved=   7.
 NSaved= 7 IEnMin= 7 EnMin= -2199.36369631935     IErMin= 7 ErrMin= 1.38D-04
 ErrMax= 1.38D-04  0.00D+00 EMaxC= 1.00D-01 BMatC= 2.96D-05 BMatP= 4.89D-04
 IDIUse=3 WtCom= 9.99D-01 WtEn= 1.38D-03
 Coeff-Com: -0.291D-02 0.439D-02 0.268D-01 0.551D-01 0.200D+00 0.273D+00
 Coeff-Com:  0.444D+00
 Coeff-En:   0.000D+00 0.000D+00 0.000D+00 0.000D+00 0.000D+00 0.000D+00
 Coeff-En:   0.100D+01
 Coeff:     -0.291D-02 0.438D-02 0.268D-01 0.550D-01 0.200D+00 0.272D+00
 Coeff:      0.444D+00
 Gap=     0.175 Goal=   None    Shift=    0.000
 RMSDP=5.80D-06 MaxDP=4.09D-04 DE=-5.15D-04 OVMax= 1.52D-03

 Cycle   9  Pass 1  IDiag  1:
 RMSU=  4.37D-06    CP:  9.34D-01  2.77D-01  8.55D-01  7.17D-01  6.99D-01
                    CP:  6.08D-01  7.35D-01
 E= -2199.36372484173     Delta-E=       -0.000028522385 Rises=F Damp=F
 DIIS: error= 4.70D-05 at cycle   8 NSaved=   8.
 NSaved= 8 IEnMin= 8 EnMin= -2199.36372484173     IErMin= 8 ErrMin= 4.70D-05
 ErrMax= 4.70D-05  0.00D+00 EMaxC= 1.00D-01 BMatC= 3.39D-06 BMatP= 2.96D-05
 IDIUse=1 WtCom= 1.00D+00 WtEn= 0.00D+00
 Coeff-Com: -0.591D-03 0.282D-03 0.552D-02 0.137D-01 0.551D-01 0.909D-01
 Coeff-Com:  0.277D+00 0.558D+00
 Coeff:     -0.591D-03 0.282D-03 0.552D-02 0.137D-01 0.551D-01 0.909D-01
 Coeff:      0.277D+00 0.558D+00
 Gap=     0.175 Goal=   None    Shift=    0.000
 RMSDP=2.10D-06 MaxDP=2.06D-04 DE=-2.85D-05 OVMax= 5.08D-04

 Cycle  10  Pass 1  IDiag  1:
 RMSU=  1.49D-06    CP:  9.34D-01  2.77D-01  8.55D-01  7.18D-01  6.98D-01
                    CP:  5.97D-01  7.75D-01  7.32D-01
 E= -2199.36372811865     Delta-E=       -0.000003276915 Rises=F Damp=F
 DIIS: error= 1.57D-05 at cycle   9 NSaved=   9.
 NSaved= 9 IEnMin= 9 EnMin= -2199.36372811865     IErMin= 9 ErrMin= 1.57D-05
 ErrMax= 1.57D-05  0.00D+00 EMaxC= 1.00D-01 BMatC= 4.55D-07 BMatP= 3.39D-06
 IDIUse=1 WtCom= 1.00D+00 WtEn= 0.00D+00
 Coeff-Com: -0.815D-04-0.230D-03 0.737D-03 0.313D-02 0.138D-01 0.288D-01
 Coeff-Com:  0.124D+00 0.344D+00 0.486D+00
 Coeff:     -0.815D-04-0.230D-03 0.737D-03 0.313D-02 0.138D-01 0.288D-01
 Coeff:      0.124D+00 0.344D+00 0.486D+00
 Gap=     0.175 Goal=   None    Shift=    0.000
 RMSDP=7.32D-07 MaxDP=6.06D-05 DE=-3.28D-06 OVMax= 1.50D-04

 Cycle  11  Pass 1  IDiag  1:
 RMSU=  4.87D-07    CP:  9.34D-01  2.77D-01  8.56D-01  7.18D-01  6.98D-01
                    CP:  6.02D-01  7.81D-01  7.72D-01  7.48D-01
 E= -2199.36372859600     Delta-E=       -0.000000477357 Rises=F Damp=F
 DIIS: error= 2.80D-06 at cycle  10 NSaved=  10.
 NSaved=10 IEnMin=10 EnMin= -2199.36372859600     IErMin=10 ErrMin= 2.80D-06
 ErrMax= 2.80D-06  0.00D+00 EMaxC= 1.00D-01 BMatC= 2.42D-08 BMatP= 4.55D-07
 IDIUse=1 WtCom= 1.00D+00 WtEn= 0.00D+00
 Coeff-Com:  0.177D-04-0.135D-03-0.240D-03 0.174D-03 0.927D-03 0.458D-02
 Coeff-Com:  0.294D-01 0.105D+00 0.238D+00 0.623D+00
 Coeff:      0.177D-04-0.135D-03-0.240D-03 0.174D-03 0.927D-03 0.458D-02
 Coeff:      0.294D-01 0.105D+00 0.238D+00 0.623D+00
 Gap=     0.175 Goal=   None    Shift=    0.000
 RMSDP=1.90D-07 MaxDP=1.54D-05 DE=-4.77D-07 OVMax= 3.36D-05

 Cycle  12  Pass 1  IDiag  1:
 RMSU=  1.43D-07    CP:  9.34D-01  2.77D-01  8.56D-01  7.18D-01  6.98D-01
                    CP:  6.03D-01  7.85D-01  7.72D-01  7.73D-01  8.65D-01
 E= -2199.36372861785     Delta-E=       -0.000000021848 Rises=F Damp=F
 DIIS: error= 1.18D-06 at cycle  11 NSaved=  11.
 NSaved=11 IEnMin=11 EnMin= -2199.36372861785     IErMin=11 ErrMin= 1.18D-06
 ErrMax= 1.18D-06  0.00D+00 EMaxC= 1.00D-01 BMatC= 4.29D-09 BMatP= 2.42D-08
 IDIUse=1 WtCom= 1.00D+00 WtEn= 0.00D+00
 Coeff-Com:  0.143D-04-0.539D-04-0.194D-03-0.122D-03-0.509D-03 0.441D-03
 Coeff-Com:  0.712D-02 0.333D-01 0.101D+00 0.372D+00 0.487D+00
 Coeff:      0.143D-04-0.539D-04-0.194D-03-0.122D-03-0.509D-03 0.441D-03
 Coeff:      0.712D-02 0.333D-01 0.101D+00 0.372D+00 0.487D+00
 Gap=     0.175 Goal=   None    Shift=    0.000
 RMSDP=5.92D-08 MaxDP=3.46D-06 DE=-2.18D-08 OVMax= 1.39D-05

 Cycle  13  Pass 1  IDiag  1:
 RMSU=  4.12D-08    CP:  9.34D-01  2.77D-01  8.56D-01  7.18D-01  6.98D-01
                    CP:  6.03D-01  7.86D-01  7.74D-01  7.74D-01  8.78D-01
                    CP:  7.48D-01
 E= -2199.36372862208     Delta-E=       -0.000000004231 Rises=F Damp=F
 DIIS: error= 3.67D-07 at cycle  12 NSaved=  12.
 NSaved=12 IEnMin=12 EnMin= -2199.36372862208     IErMin=12 ErrMin= 3.67D-07
 ErrMax= 3.67D-07  0.00D+00 EMaxC= 1.00D-01 BMatC= 3.21D-10 BMatP= 4.29D-09
 IDIUse=1 WtCom= 1.00D+00 WtEn= 0.00D+00
 Coeff-Com:  0.529D-05-0.157D-04-0.835D-04-0.763D-04-0.333D-03-0.104D-03
 Coeff-Com:  0.132D-02 0.898D-02 0.344D-01 0.151D+00 0.270D+00 0.535D+00
 Coeff:      0.529D-05-0.157D-04-0.835D-04-0.763D-04-0.333D-03-0.104D-03
 Coeff:      0.132D-02 0.898D-02 0.344D-01 0.151D+00 0.270D+00 0.535D+00
 Gap=     0.175 Goal=   None    Shift=    0.000
 RMSDP=2.05D-08 MaxDP=2.17D-06 DE=-4.23D-09 OVMax= 4.79D-06

 Cycle  14  Pass 1  IDiag  1:
 RMSU=  1.69D-08    CP:  9.34D-01  2.77D-01  8.56D-01  7.18D-01  6.98D-01
                    CP:  6.03D-01  7.86D-01  7.75D-01  7.77D-01  8.72D-01
                    CP:  7.44D-01  8.07D-01
 E= -2199.36372862233     Delta-E=       -0.000000000251 Rises=F Damp=F
 DIIS: error= 1.49D-07 at cycle  13 NSaved=  13.
 NSaved=13 IEnMin=13 EnMin= -2199.36372862233     IErMin=13 ErrMin= 1.49D-07
 ErrMax= 1.49D-07  0.00D+00 EMaxC= 1.00D-01 BMatC= 4.92D-11 BMatP= 3.21D-10
 IDIUse=1 WtCom= 1.00D+00 WtEn= 0.00D+00
 Coeff-Com:  0.115D-05-0.241D-05-0.241D-04-0.298D-04-0.126D-03-0.103D-03
 Coeff-Com: -0.180D-03 0.890D-03 0.689D-02 0.388D-01 0.923D-01 0.321D+00
 Coeff-Com:  0.540D+00
 Coeff:      0.115D-05-0.241D-05-0.241D-04-0.298D-04-0.126D-03-0.103D-03
 Coeff:     -0.180D-03 0.890D-03 0.689D-02 0.388D-01 0.923D-01 0.321D+00
 Coeff:      0.540D+00
 Gap=     0.175 Goal=   None    Shift=    0.000
 RMSDP=7.26D-09 MaxDP=1.25D-06 DE=-2.51D-10 OVMax= 1.38D-06

 Cycle  15  Pass 1  IDiag  1:
 RMSU=  4.78D-09    CP:  9.34D-01  2.77D-01  8.56D-01  7.18D-01  6.98D-01
                    CP:  6.03D-01  7.86D-01  7.74D-01  7.77D-01  8.76D-01
                    CP:  7.53D-01  8.52D-01  7.85D-01
 E= -2199.36372862220     Delta-E=        0.000000000136 Rises=F Damp=F
 DIIS: error= 3.63D-08 at cycle  14 NSaved=  14.
 NSaved=14 IEnMin=13 EnMin= -2199.36372862233     IErMin=14 ErrMin= 3.63D-08
 ErrMax= 3.63D-08  0.00D+00 EMaxC= 1.00D-01 BMatC= 4.43D-12 BMatP= 4.92D-11
 IDIUse=1 WtCom= 1.00D+00 WtEn= 0.00D+00
 Coeff-Com:  0.166D-06 0.898D-07-0.557D-05-0.104D-04-0.404D-04-0.463D-04
 Coeff-Com: -0.243D-03-0.426D-03 0.304D-03 0.584D-02 0.220D-01 0.121D+00
 Coeff-Com:  0.301D+00 0.550D+00
 Coeff:      0.166D-06 0.898D-07-0.557D-05-0.104D-04-0.404D-04-0.463D-04
 Coeff:     -0.243D-03-0.426D-03 0.304D-03 0.584D-02 0.220D-01 0.121D+00
 Coeff:      0.301D+00 0.550D+00
 Gap=     0.175 Goal=   None    Shift=    0.000
 RMSDP=2.12D-09 MaxDP=1.30D-07 DE= 1.36D-10 OVMax= 4.32D-07

 SCF Done:  E(RB3LYP) =  -2199.36372862     A.U. after   15 cycles
            NFock= 15  Conv=0.21D-08     -V/T= 2.0053
 KE= 2.187792104636D+03 PE=-2.124630064358D+04 EE= 8.787188183531D+03
 Leave Link  502 at Tue Mar 24 03:47:59 2026, MaxMem=   104857600 cpu:           38319.4 elap:           38364.8
 (Enter /sw/cluster/pub/apps//g16/l601.exe)
 Copying SCF densities to generalized density rwf, IOpCl= 0 IROHF=0.
 Hyperfine terms turned off by default for NAtoms > 100.

 **********************************************************************

            Population analysis using the SCF density.

 **********************************************************************

 Alpha  occ. eigenvalues --  -10.20161 -10.20161 -10.19862 -10.19862 -10.18361
 Alpha  occ. eigenvalues --  -10.18255 -10.18255 -10.17441 -10.17441 -10.17365
 Alpha  occ. eigenvalues --  -10.17365 -10.17328 -10.17328 -10.17252 -10.17252
 Alpha  occ. eigenvalues --  -10.17245 -10.17245 -10.17238 -10.17238 -10.17181
 Alpha  occ. eigenvalues --  -10.17181 -10.17172 -10.17172 -10.17153 -10.17153
 Alpha  occ. eigenvalues --  -10.17148 -10.17148 -10.17086 -10.17086 -10.17083
 Alpha  occ. eigenvalues --  -10.17083 -10.16995 -10.16995 -10.16981 -10.16980
 Alpha  occ. eigenvalues --  -10.16930 -10.16930 -10.16919 -10.16918 -10.16914
 Alpha  occ. eigenvalues --  -10.16914 -10.16829 -10.16829 -10.16778 -10.16778
 Alpha  occ. eigenvalues --  -10.16712 -10.16712 -10.16668 -10.16668 -10.16503
 Alpha  occ. eigenvalues --  -10.16503 -10.16444 -10.16444 -10.16334 -10.16333
 Alpha  occ. eigenvalues --  -10.16231 -10.16231  -0.89593  -0.89192  -0.88614
 Alpha  occ. eigenvalues --   -0.88089  -0.84440  -0.84417  -0.84206  -0.84019
 Alpha  occ. eigenvalues --   -0.82732  -0.81860  -0.80602  -0.79527  -0.77711
 Alpha  occ. eigenvalues --   -0.77539  -0.77062  -0.76308  -0.74249  -0.74209
 Alpha  occ. eigenvalues --   -0.74012  -0.73965  -0.73707  -0.73589  -0.72729
 Alpha  occ. eigenvalues --   -0.71234  -0.71232  -0.71057  -0.70973  -0.70936
 Alpha  occ. eigenvalues --   -0.67685  -0.65280  -0.64557  -0.64401  -0.64315
 Alpha  occ. eigenvalues --   -0.62698  -0.62116  -0.61909  -0.61884  -0.58450
 Alpha  occ. eigenvalues --   -0.58370  -0.58148  -0.57938  -0.57701  -0.57484
 Alpha  occ. eigenvalues --   -0.57474  -0.57263  -0.57059  -0.55964  -0.55159
 Alpha  occ. eigenvalues --   -0.55101  -0.51617  -0.51071  -0.50620  -0.50617
 Alpha  occ. eigenvalues --   -0.50074  -0.49740  -0.49294  -0.48823  -0.47751
 Alpha  occ. eigenvalues --   -0.47563  -0.46886  -0.46725  -0.46030  -0.45599
 Alpha  occ. eigenvalues --   -0.45375  -0.45259  -0.44557  -0.44379  -0.44220
 Alpha  occ. eigenvalues --   -0.43984  -0.43913  -0.43663  -0.43522  -0.43514
 Alpha  occ. eigenvalues --   -0.43410  -0.43353  -0.42763  -0.42162  -0.41859
 Alpha  occ. eigenvalues --   -0.41854  -0.41740  -0.41711  -0.41511  -0.41497
 Alpha  occ. eigenvalues --   -0.41476  -0.41190  -0.40457  -0.39622  -0.39229
 Alpha  occ. eigenvalues --   -0.38755  -0.38430  -0.38225  -0.38215  -0.38155
 Alpha  occ. eigenvalues --   -0.38141  -0.37780  -0.37574  -0.37462  -0.36957
 Alpha  occ. eigenvalues --   -0.36084  -0.35826  -0.35130  -0.35093  -0.34984
 Alpha  occ. eigenvalues --   -0.34878  -0.34704  -0.34567  -0.34441  -0.34417
 Alpha  occ. eigenvalues --   -0.34201  -0.33920  -0.33712  -0.32938  -0.32714
 Alpha  occ. eigenvalues --   -0.32436  -0.32339  -0.32174  -0.31731  -0.31650
 Alpha  occ. eigenvalues --   -0.31395  -0.30987  -0.28366  -0.28325  -0.28170
 Alpha  occ. eigenvalues --   -0.27783  -0.25753  -0.25715  -0.25272  -0.25163
 Alpha  occ. eigenvalues --   -0.24727  -0.24262  -0.24022  -0.22754  -0.21673
 Alpha  occ. eigenvalues --   -0.21579  -0.21320  -0.21159
 Alpha virt. eigenvalues --   -0.03673  -0.03624  -0.03452  -0.03195  -0.02221
 Alpha virt. eigenvalues --   -0.02154  -0.01857  -0.01193   0.00144   0.00190
 Alpha virt. eigenvalues --    0.00588   0.00641   0.01563   0.03187   0.03394
 Alpha virt. eigenvalues --    0.03414   0.03568   0.03767   0.03924   0.04749
 Alpha virt. eigenvalues --    0.05310   0.05458   0.05518   0.05586   0.06120
 Alpha virt. eigenvalues --    0.06150   0.06319   0.06556   0.07117   0.07264
 Alpha virt. eigenvalues --    0.07473   0.08215   0.08236   0.08618   0.08808
 Alpha virt. eigenvalues --    0.08953   0.09038   0.09211   0.09624   0.09880
 Alpha virt. eigenvalues --    0.10061   0.10070   0.10202   0.10327   0.10770
 Alpha virt. eigenvalues --    0.10772   0.10865   0.11746   0.11999   0.12079
 Alpha virt. eigenvalues --    0.12291   0.12640   0.12709   0.13256   0.13336
 Alpha virt. eigenvalues --    0.13613   0.13645   0.13878   0.14130   0.14198
 Alpha virt. eigenvalues --    0.14632   0.14743   0.14854   0.15366   0.15607
 Alpha virt. eigenvalues --    0.15757   0.15918   0.16267   0.16289   0.16341
 Alpha virt. eigenvalues --    0.16505   0.17036   0.17066   0.17501   0.17683
 Alpha virt. eigenvalues --    0.17869   0.18332   0.18617   0.18727   0.19204
 Alpha virt. eigenvalues --    0.19238   0.19325   0.19419   0.19558   0.19591
 Alpha virt. eigenvalues --    0.19817   0.20054   0.20260   0.20319   0.20643
 Alpha virt. eigenvalues --    0.20847   0.20934   0.21002   0.21124   0.21249
 Alpha virt. eigenvalues --    0.21384   0.21578   0.21607   0.21901   0.22057
 Alpha virt. eigenvalues --    0.22281   0.22391   0.22590   0.22910   0.23103
 Alpha virt. eigenvalues --    0.23157   0.23325   0.23564   0.24005   0.24201
 Alpha virt. eigenvalues --    0.24339   0.24582   0.24617   0.24649   0.24995
 Alpha virt. eigenvalues --    0.25185   0.25397   0.25562   0.25868   0.26175
 Alpha virt. eigenvalues --    0.26301   0.26716   0.26748   0.27504   0.27767
 Alpha virt. eigenvalues --    0.28007   0.28375   0.28419   0.28577   0.29018
 Alpha virt. eigenvalues --    0.29455   0.29568   0.29725   0.29757   0.29943
 Alpha virt. eigenvalues --    0.30154   0.30316   0.30329   0.30396   0.30570
 Alpha virt. eigenvalues --    0.30762   0.30942   0.31140   0.31218   0.31504
 Alpha virt. eigenvalues --    0.31535   0.31697   0.31970   0.32090   0.32451
 Alpha virt. eigenvalues --    0.32497   0.33111   0.33178   0.33414   0.33538
 Alpha virt. eigenvalues --    0.33729   0.33800   0.34205   0.34254   0.34329
 Alpha virt. eigenvalues --    0.34623   0.34799   0.34835   0.35011   0.35097
 Alpha virt. eigenvalues --    0.35341   0.35353   0.35667   0.35774   0.35939
 Alpha virt. eigenvalues --    0.36054   0.36070   0.36218   0.36392   0.36992
 Alpha virt. eigenvalues --    0.37199   0.37210   0.37356   0.37367   0.37720
 Alpha virt. eigenvalues --    0.37853   0.37909   0.38073   0.38120   0.38378
 Alpha virt. eigenvalues --    0.38500   0.38707   0.38882   0.39060   0.39509
 Alpha virt. eigenvalues --    0.39845   0.39944   0.40080   0.40207   0.40407
 Alpha virt. eigenvalues --    0.40514   0.40760   0.40812   0.41196   0.41281
 Alpha virt. eigenvalues --    0.41575   0.41577   0.41607   0.41673   0.42040
 Alpha virt. eigenvalues --    0.42097   0.42158   0.42188   0.42376   0.42608
 Alpha virt. eigenvalues --    0.42674   0.42891   0.42894   0.43011   0.43160
 Alpha virt. eigenvalues --    0.43339   0.43403   0.43649   0.43658   0.43778
 Alpha virt. eigenvalues --    0.43953   0.44294   0.44318   0.44437   0.44451
 Alpha virt. eigenvalues --    0.44618   0.44811   0.45014   0.45126   0.45340
 Alpha virt. eigenvalues --    0.45598   0.45604   0.45682   0.46072   0.46258
 Alpha virt. eigenvalues --    0.46309   0.46351   0.46613   0.46913   0.46994
 Alpha virt. eigenvalues --    0.47056   0.47496   0.47646   0.47762   0.47932
 Alpha virt. eigenvalues --    0.48055   0.48141   0.48503   0.48864   0.49007
 Alpha virt. eigenvalues --    0.49045   0.49199   0.49577   0.49666   0.49811
 Alpha virt. eigenvalues --    0.49888   0.49989   0.50309   0.50330   0.50438
 Alpha virt. eigenvalues --    0.50508   0.50795   0.50907   0.51027   0.51440
 Alpha virt. eigenvalues --    0.51563   0.51647   0.51743   0.52198   0.52297
 Alpha virt. eigenvalues --    0.52442   0.53064   0.53255   0.53324   0.53329
 Alpha virt. eigenvalues --    0.53845   0.53931   0.54395   0.54706   0.55133
 Alpha virt. eigenvalues --    0.55219   0.55311   0.55776   0.56146   0.56157
 Alpha virt. eigenvalues --    0.56216   0.56781   0.56970   0.57000   0.57099
 Alpha virt. eigenvalues --    0.57411   0.57644   0.57986   0.58257   0.58566
 Alpha virt. eigenvalues --    0.58664   0.58779   0.58992   0.59144   0.59303
 Alpha virt. eigenvalues --    0.59617   0.59841   0.59984   0.60120   0.60482
 Alpha virt. eigenvalues --    0.61234   0.61405   0.61602   0.61645   0.62259
 Alpha virt. eigenvalues --    0.62626   0.63234   0.63747   0.64345   0.64417
 Alpha virt. eigenvalues --    0.64670   0.64799   0.64838   0.65300   0.65335
 Alpha virt. eigenvalues --    0.65628   0.65861   0.66219   0.66404   0.66488
 Alpha virt. eigenvalues --    0.66662   0.66960   0.67317   0.67424   0.67581
 Alpha virt. eigenvalues --    0.67829   0.67836   0.68111   0.68476   0.68792
 Alpha virt. eigenvalues --    0.69015   0.69250   0.69878   0.70207   0.70344
 Alpha virt. eigenvalues --    0.70471   0.70632   0.70891   0.70973   0.71031
 Alpha virt. eigenvalues --    0.71323   0.71670   0.71695   0.72099   0.72176
 Alpha virt. eigenvalues --    0.72208   0.72795   0.72809   0.73188   0.73272
 Alpha virt. eigenvalues --    0.73703   0.73800   0.73852   0.74523   0.74589
 Alpha virt. eigenvalues --    0.74866   0.75040   0.75518   0.75559   0.75737
 Alpha virt. eigenvalues --    0.75790   0.75864   0.76060   0.76503   0.76749
 Alpha virt. eigenvalues --    0.76750   0.76885   0.77160   0.77322   0.77551
 Alpha virt. eigenvalues --    0.77617   0.77839   0.77961   0.78632   0.78661
 Alpha virt. eigenvalues --    0.79008   0.79270   0.79643   0.79898   0.80179
 Alpha virt. eigenvalues --    0.80221   0.80891   0.81384   0.81549   0.81800
 Alpha virt. eigenvalues --    0.81883   0.82162   0.82328   0.82693   0.82736
 Alpha virt. eigenvalues --    0.83022   0.83141   0.83435   0.83840   0.84178
 Alpha virt. eigenvalues --    0.84575   0.84899   0.85060   0.85325   0.85861
 Alpha virt. eigenvalues --    0.85928   0.86554   0.86788   0.87188   0.87364
 Alpha virt. eigenvalues --    0.87941   0.88018   0.88374   0.88459   0.88573
 Alpha virt. eigenvalues --    0.88781   0.88889   0.89090   0.89466   0.89585
 Alpha virt. eigenvalues --    0.89939   0.90097   0.90218   0.90239   0.91052
 Alpha virt. eigenvalues --    0.91226   0.91244   0.91572   0.91631   0.92469
 Alpha virt. eigenvalues --    0.92655   0.92812   0.93242   0.93682   0.93694
 Alpha virt. eigenvalues --    0.93969   0.94284   0.94508   0.94770   0.95197
 Alpha virt. eigenvalues --    0.95349   0.95647   0.95881   0.95884   0.96233
 Alpha virt. eigenvalues --    0.96695   0.97194   0.97225   0.97379   0.97520
 Alpha virt. eigenvalues --    0.97766   0.97973   0.98367   0.98458   0.98969
 Alpha virt. eigenvalues --    0.99095   0.99561   0.99758   1.00064   1.00820
 Alpha virt. eigenvalues --    1.00869   1.00924   1.01545   1.01549   1.01616
 Alpha virt. eigenvalues --    1.01941   1.02489   1.02783   1.03080   1.03270
 Alpha virt. eigenvalues --    1.03430   1.03702   1.04192   1.04489   1.04802
 Alpha virt. eigenvalues --    1.04990   1.05658   1.05684   1.06216   1.06507
 Alpha virt. eigenvalues --    1.06548   1.06868   1.07284   1.07322   1.07820
 Alpha virt. eigenvalues --    1.07923   1.08507   1.08782   1.08896   1.09321
 Alpha virt. eigenvalues --    1.09325   1.09955   1.10352   1.10511   1.10658
 Alpha virt. eigenvalues --    1.10754   1.10966   1.11233   1.12012   1.12196
 Alpha virt. eigenvalues --    1.12591   1.12751   1.13201   1.13461   1.13475
 Alpha virt. eigenvalues --    1.13611   1.13721   1.14368   1.14562   1.14599
 Alpha virt. eigenvalues --    1.14673   1.15008   1.15120   1.15824   1.16194
 Alpha virt. eigenvalues --    1.16406   1.16545   1.16905   1.16946   1.17382
 Alpha virt. eigenvalues --    1.17518   1.18033   1.18173   1.18471   1.19012
 Alpha virt. eigenvalues --    1.19570   1.19627   1.20038   1.20383   1.20524
 Alpha virt. eigenvalues --    1.20939   1.21057   1.21121   1.21610   1.21885
 Alpha virt. eigenvalues --    1.21945   1.22531   1.22611   1.23160   1.23392
 Alpha virt. eigenvalues --    1.23415   1.23645   1.23715   1.23891   1.24258
 Alpha virt. eigenvalues --    1.24393   1.24953   1.25094   1.25246   1.25402
 Alpha virt. eigenvalues --    1.25949   1.26099   1.26422   1.26575   1.26879
 Alpha virt. eigenvalues --    1.27064   1.27672   1.27873   1.28201   1.28485
 Alpha virt. eigenvalues --    1.28674   1.28790   1.28938   1.29103   1.29734
 Alpha virt. eigenvalues --    1.29953   1.30146   1.30400   1.30624   1.30724
 Alpha virt. eigenvalues --    1.30946   1.31858   1.31910   1.32154   1.32159
 Alpha virt. eigenvalues --    1.32607   1.32759   1.32785   1.33190   1.33293
 Alpha virt. eigenvalues --    1.33905   1.34183   1.34469   1.34615   1.34691
 Alpha virt. eigenvalues --    1.34984   1.35190   1.35298   1.36036   1.36113
 Alpha virt. eigenvalues --    1.36437   1.36715   1.36910   1.37217   1.37341
 Alpha virt. eigenvalues --    1.37460   1.38007   1.38129   1.38940   1.39021
 Alpha virt. eigenvalues --    1.39038   1.39246   1.39968   1.40196   1.40607
 Alpha virt. eigenvalues --    1.40800   1.40912   1.41246   1.41481   1.42077
 Alpha virt. eigenvalues --    1.42183   1.42304   1.42504   1.42852   1.43059
 Alpha virt. eigenvalues --    1.43350   1.44172   1.44538   1.44802   1.45255
 Alpha virt. eigenvalues --    1.45713   1.45858   1.46313   1.46564   1.46610
 Alpha virt. eigenvalues --    1.47304   1.47422   1.47590   1.47812   1.48090
 Alpha virt. eigenvalues --    1.48142   1.48672   1.48845   1.49092   1.49199
 Alpha virt. eigenvalues --    1.49563   1.49998   1.50255   1.50680   1.50777
 Alpha virt. eigenvalues --    1.51139   1.51174   1.51922   1.52123   1.52523
 Alpha virt. eigenvalues --    1.52733   1.53226   1.53648   1.53993   1.54078
 Alpha virt. eigenvalues --    1.54708   1.54793   1.55063   1.55391   1.55589
 Alpha virt. eigenvalues --    1.55925   1.56329   1.56719   1.56831   1.57039
 Alpha virt. eigenvalues --    1.57287   1.57443   1.57586   1.57832   1.58647
 Alpha virt. eigenvalues --    1.58716   1.59150   1.59546   1.59650   1.60109
 Alpha virt. eigenvalues --    1.60119   1.60555   1.61151   1.61327   1.61600
 Alpha virt. eigenvalues --    1.62142   1.62191   1.62202   1.62493   1.62671
 Alpha virt. eigenvalues --    1.62934   1.63052   1.63536   1.63607   1.63711
 Alpha virt. eigenvalues --    1.64248   1.64503   1.64549   1.64990   1.65234
 Alpha virt. eigenvalues --    1.65406   1.65812   1.65845   1.66503   1.66647
 Alpha virt. eigenvalues --    1.66870   1.67008   1.67084   1.67397   1.67799
 Alpha virt. eigenvalues --    1.68048   1.68617   1.69005   1.69070   1.69209
 Alpha virt. eigenvalues --    1.69569   1.69919   1.70503   1.70520   1.70859
 Alpha virt. eigenvalues --    1.71220   1.71352   1.71606   1.71741   1.71746
 Alpha virt. eigenvalues --    1.71938   1.72393   1.72459   1.72860   1.73253
 Alpha virt. eigenvalues --    1.73569   1.73630   1.73716   1.74189   1.74516
 Alpha virt. eigenvalues --    1.74607   1.74720   1.74819   1.75144   1.75365
 Alpha virt. eigenvalues --    1.75399   1.75807   1.75928   1.76384   1.76563
 Alpha virt. eigenvalues --    1.76568   1.76899   1.76914   1.77282   1.78011
 Alpha virt. eigenvalues --    1.78019   1.78216   1.78581   1.78616   1.79104
 Alpha virt. eigenvalues --    1.79291   1.79517   1.79767   1.80000   1.80249
 Alpha virt. eigenvalues --    1.80266   1.80559   1.81034   1.81347   1.81837
 Alpha virt. eigenvalues --    1.82148   1.82420   1.82709   1.82933   1.83344
 Alpha virt. eigenvalues --    1.83816   1.84613   1.84863   1.85042   1.85154
 Alpha virt. eigenvalues --    1.85292   1.86305   1.86468   1.86556   1.87019
 Alpha virt. eigenvalues --    1.87542   1.87707   1.88798   1.88944   1.88996
 Alpha virt. eigenvalues --    1.89167   1.89648   1.89829   1.89962   1.90115
 Alpha virt. eigenvalues --    1.91432   1.91973   1.92620   1.92658   1.93117
 Alpha virt. eigenvalues --    1.93349   1.93981   1.94190   1.94773   1.94919
 Alpha virt. eigenvalues --    1.95392   1.96302   1.96443   1.96995   1.97008
 Alpha virt. eigenvalues --    1.97285   1.97837   1.98226   1.99724   1.99771
 Alpha virt. eigenvalues --    2.00452   2.00741   2.01359   2.01467   2.02220
 Alpha virt. eigenvalues --    2.02415   2.02680   2.02876   2.02995   2.03616
 Alpha virt. eigenvalues --    2.03808   2.03949   2.04405   2.04608   2.04742
 Alpha virt. eigenvalues --    2.05356   2.06066   2.06089   2.06095   2.06225
 Alpha virt. eigenvalues --    2.06630   2.06814   2.06998   2.07339   2.07780
 Alpha virt. eigenvalues --    2.08245   2.08631   2.08715   2.09398   2.09737
 Alpha virt. eigenvalues --    2.10038   2.10495   2.10646   2.10876   2.11130
 Alpha virt. eigenvalues --    2.11602   2.11697   2.12041   2.12915   2.12985
 Alpha virt. eigenvalues --    2.13321   2.13405   2.13739   2.14308   2.14368
 Alpha virt. eigenvalues --    2.14859   2.15325   2.15995   2.16125   2.16637
 Alpha virt. eigenvalues --    2.16782   2.16934   2.17537   2.17617   2.17968
 Alpha virt. eigenvalues --    2.18423   2.18472   2.18804   2.19532   2.19595
 Alpha virt. eigenvalues --    2.19955   2.20106   2.20311   2.20401   2.21135
 Alpha virt. eigenvalues --    2.21300   2.21528   2.21821   2.21940   2.22369
 Alpha virt. eigenvalues --    2.22373   2.22467   2.23131   2.23507   2.23934
 Alpha virt. eigenvalues --    2.24227   2.24572   2.24642   2.25247   2.25763
 Alpha virt. eigenvalues --    2.25893   2.26515   2.26717   2.27085   2.27207
 Alpha virt. eigenvalues --    2.27260   2.27728   2.28711   2.28830   2.29095
 Alpha virt. eigenvalues --    2.29349   2.29486   2.29534   2.29939   2.30191
 Alpha virt. eigenvalues --    2.31204   2.31206   2.31734   2.32652   2.32842
 Alpha virt. eigenvalues --    2.32956   2.33705   2.33950   2.34091   2.34528
 Alpha virt. eigenvalues --    2.34773   2.35450   2.35747   2.36014   2.36213
 Alpha virt. eigenvalues --    2.36597   2.37162   2.37355   2.37517   2.37984
 Alpha virt. eigenvalues --    2.38080   2.39120   2.39421   2.39800   2.39850
 Alpha virt. eigenvalues --    2.40529   2.40907   2.41114   2.41137   2.41528
 Alpha virt. eigenvalues --    2.42451   2.42501   2.43113   2.43551   2.44150
 Alpha virt. eigenvalues --    2.45043   2.45180   2.45656   2.46228   2.46338
 Alpha virt. eigenvalues --    2.46532   2.46941   2.47183   2.47541   2.47797
 Alpha virt. eigenvalues --    2.47984   2.48251   2.48552   2.48665   2.48941
 Alpha virt. eigenvalues --    2.49196   2.49608   2.49832   2.50140   2.50537
 Alpha virt. eigenvalues --    2.51015   2.51437   2.51895   2.52004   2.52183
 Alpha virt. eigenvalues --    2.52511   2.52709   2.53241   2.53301   2.53505
 Alpha virt. eigenvalues --    2.53909   2.54085   2.54517   2.54913   2.55009
 Alpha virt. eigenvalues --    2.55121   2.55556   2.56561   2.57024   2.57177
 Alpha virt. eigenvalues --    2.57690   2.58296   2.58677   2.58783   2.58997
 Alpha virt. eigenvalues --    2.59880   2.60458   2.60662   2.60859   2.61049
 Alpha virt. eigenvalues --    2.61185   2.61481   2.61560   2.61967   2.62195
 Alpha virt. eigenvalues --    2.62578   2.62623   2.63061   2.63276   2.63332
 Alpha virt. eigenvalues --    2.63473   2.63763   2.64193   2.64425   2.64618
 Alpha virt. eigenvalues --    2.64968   2.65136   2.65300   2.65378   2.65602
 Alpha virt. eigenvalues --    2.65619   2.65943   2.65971   2.66494   2.66739
 Alpha virt. eigenvalues --    2.66981   2.67300   2.67388   2.67806   2.67876
 Alpha virt. eigenvalues --    2.67902   2.68434   2.68889   2.68991   2.69494
 Alpha virt. eigenvalues --    2.69733   2.69769   2.69929   2.70017   2.70309
 Alpha virt. eigenvalues --    2.70601   2.70613   2.71002   2.71553   2.71586
 Alpha virt. eigenvalues --    2.71847   2.72035   2.72334   2.72547   2.72979
 Alpha virt. eigenvalues --    2.73271   2.73919   2.73992   2.74105   2.74362
 Alpha virt. eigenvalues --    2.74556   2.74805   2.75200   2.75271   2.75368
 Alpha virt. eigenvalues --    2.75407   2.75800   2.75992   2.76108   2.76213
 Alpha virt. eigenvalues --    2.76539   2.76578   2.76882   2.77012   2.77175
 Alpha virt. eigenvalues --    2.77402   2.77589   2.77631   2.77663   2.77804
 Alpha virt. eigenvalues --    2.77845   2.78135   2.78180   2.78856   2.78936
 Alpha virt. eigenvalues --    2.79095   2.79146   2.79849   2.79953   2.80228
 Alpha virt. eigenvalues --    2.80413   2.81132   2.81219   2.81405   2.81562
 Alpha virt. eigenvalues --    2.81807   2.82016   2.82159   2.82168   2.82748
 Alpha virt. eigenvalues --    2.82894   2.83257   2.83556   2.83702   2.83923
 Alpha virt. eigenvalues --    2.84222   2.84359   2.84448   2.85065   2.85080
 Alpha virt. eigenvalues --    2.85298   2.85763   2.86053   2.86263   2.86665
 Alpha virt. eigenvalues --    2.86877   2.87077   2.87316   2.87354   2.87863
 Alpha virt. eigenvalues --    2.87924   2.87979   2.88016   2.88409   2.88892
 Alpha virt. eigenvalues --    2.89162   2.89198   2.89418   2.89461   2.89740
 Alpha virt. eigenvalues --    2.89949   2.90183   2.90560   2.90696   2.90836
 Alpha virt. eigenvalues --    2.91251   2.91251   2.91395   2.91590   2.91960
 Alpha virt. eigenvalues --    2.92455   2.92511   2.93050   2.93185   2.93449
 Alpha virt. eigenvalues --    2.93851   2.93944   2.94747   2.95073   2.95098
 Alpha virt. eigenvalues --    2.95280   2.95565   2.95882   2.95989   2.96180
 Alpha virt. eigenvalues --    2.96401   2.96696   2.96992   2.97288   2.97466
 Alpha virt. eigenvalues --    2.97970   2.98098   2.98212   2.98444   2.99098
 Alpha virt. eigenvalues --    2.99263   2.99348   2.99397   2.99808   3.00664
 Alpha virt. eigenvalues --    3.00712   3.01067   3.01515   3.02122   3.02709
 Alpha virt. eigenvalues --    3.02826   3.03082   3.03255   3.03819   3.04290
 Alpha virt. eigenvalues --    3.04312   3.04664   3.04832   3.05168   3.05778
 Alpha virt. eigenvalues --    3.05964   3.06229   3.06434   3.06849   3.07249
 Alpha virt. eigenvalues --    3.07512   3.08342   3.08867   3.09097   3.09518
 Alpha virt. eigenvalues --    3.09657   3.09659   3.10462   3.10706   3.10730
 Alpha virt. eigenvalues --    3.11035   3.11383   3.11526   3.11602   3.12181
 Alpha virt. eigenvalues --    3.12483   3.12948   3.13215   3.13644   3.13691
 Alpha virt. eigenvalues --    3.13739   3.13973   3.14702   3.14897   3.15007
 Alpha virt. eigenvalues --    3.15033   3.15594   3.15865   3.16056   3.16369
 Alpha virt. eigenvalues --    3.16844   3.17576   3.18039   3.18231   3.18642
 Alpha virt. eigenvalues --    3.18930   3.19093   3.19219   3.19372   3.19641
 Alpha virt. eigenvalues --    3.19700   3.20474   3.20520   3.20884   3.21010
 Alpha virt. eigenvalues --    3.21316   3.21371   3.21786   3.21801   3.22114
 Alpha virt. eigenvalues --    3.22545   3.22729   3.22828   3.23015   3.23112
 Alpha virt. eigenvalues --    3.23216   3.23711   3.24122   3.24305   3.24448
 Alpha virt. eigenvalues --    3.24755   3.24848   3.24925   3.25026   3.25596
 Alpha virt. eigenvalues --    3.26024   3.26043   3.26148   3.26150   3.26344
 Alpha virt. eigenvalues --    3.26553   3.26815   3.26844   3.27374   3.27604
 Alpha virt. eigenvalues --    3.28005   3.28217   3.28326   3.28548   3.28629
 Alpha virt. eigenvalues --    3.28929   3.29004   3.29178   3.29696   3.29804
 Alpha virt. eigenvalues --    3.29937   3.30086   3.30490   3.30507   3.30956
 Alpha virt. eigenvalues --    3.31188   3.31236   3.31678   3.31815   3.32088
 Alpha virt. eigenvalues --    3.32201   3.32519   3.32928   3.33045   3.33384
 Alpha virt. eigenvalues --    3.33521   3.34033   3.34344   3.34565   3.34812
 Alpha virt. eigenvalues --    3.34867   3.35112   3.35248   3.35490   3.35618
 Alpha virt. eigenvalues --    3.36039   3.36258   3.36383   3.37000   3.37160
 Alpha virt. eigenvalues --    3.37313   3.37396   3.37449   3.37699   3.37910
 Alpha virt. eigenvalues --    3.38151   3.38543   3.38611   3.38864   3.38941
 Alpha virt. eigenvalues --    3.39154   3.39932   3.40035   3.40100   3.40104
 Alpha virt. eigenvalues --    3.40344   3.40567   3.40719   3.40866   3.41636
 Alpha virt. eigenvalues --    3.41691   3.41886   3.42039   3.42142   3.42389
 Alpha virt. eigenvalues --    3.42941   3.43181   3.43219   3.43508   3.43549
 Alpha virt. eigenvalues --    3.44212   3.44362   3.44463   3.44639   3.44941
 Alpha virt. eigenvalues --    3.45072   3.45146   3.45593   3.45788   3.45894
 Alpha virt. eigenvalues --    3.46410   3.46665   3.46924   3.47061   3.47312
 Alpha virt. eigenvalues --    3.47399   3.47583   3.48021   3.48036   3.48445
 Alpha virt. eigenvalues --    3.48508   3.48679   3.49539   3.49719   3.49766
 Alpha virt. eigenvalues --    3.49876   3.50270   3.50561   3.50905   3.51101
 Alpha virt. eigenvalues --    3.51265   3.51478   3.51530   3.51736   3.51990
 Alpha virt. eigenvalues --    3.52289   3.52352   3.52393   3.52658   3.52921
 Alpha virt. eigenvalues --    3.53440   3.53686   3.53942   3.54211   3.54273
 Alpha virt. eigenvalues --    3.54568   3.54846   3.54988   3.55324   3.55424
 Alpha virt. eigenvalues --    3.55631   3.55829   3.55871   3.56034   3.56634
 Alpha virt. eigenvalues --    3.56788   3.56887   3.57080   3.57380   3.57723
 Alpha virt. eigenvalues --    3.57983   3.58047   3.58360   3.58733   3.59145
 Alpha virt. eigenvalues --    3.59238   3.59588   3.59599   3.59881   3.60181
 Alpha virt. eigenvalues --    3.60329   3.60815   3.60923   3.61480   3.61498
 Alpha virt. eigenvalues --    3.61719   3.61812   3.62206   3.62278   3.62468
 Alpha virt. eigenvalues --    3.62509   3.62821   3.62883   3.63451   3.63815
 Alpha virt. eigenvalues --    3.63975   3.64225   3.64375   3.65026   3.65565
 Alpha virt. eigenvalues --    3.65701   3.65864   3.65958   3.66240   3.66652
 Alpha virt. eigenvalues --    3.66802   3.67736   3.67773   3.67934   3.68056
 Alpha virt. eigenvalues --    3.68698   3.69020   3.69433   3.69863   3.70508
 Alpha virt. eigenvalues --    3.70585   3.71126   3.71568   3.71872   3.72140
 Alpha virt. eigenvalues --    3.72623   3.72694   3.72912   3.73996   3.74449
 Alpha virt. eigenvalues --    3.74853   3.75055   3.75298   3.75857   3.76272
 Alpha virt. eigenvalues --    3.76557   3.76735   3.77534   3.78612   3.78765
 Alpha virt. eigenvalues --    3.79263   3.79530   3.80287   3.80291   3.81345
 Alpha virt. eigenvalues --    3.81567   3.82444   3.83166   3.83365   3.83429
 Alpha virt. eigenvalues --    3.83637   3.83665   3.83966   3.84375   3.84783
 Alpha virt. eigenvalues --    3.84796   3.85760   3.85809   3.86585   3.87115
 Alpha virt. eigenvalues --    3.87154   3.87671   3.88594   3.88741   3.89380
 Alpha virt. eigenvalues --    3.89687   3.90120   3.90321   3.90867   3.91355
 Alpha virt. eigenvalues --    3.91633   3.92242   3.93048   3.93244   3.93683
 Alpha virt. eigenvalues --    3.94129   3.94761   3.95045   3.95796   3.96827
 Alpha virt. eigenvalues --    3.97230   3.97530   3.97719   3.98449   3.98966
 Alpha virt. eigenvalues --    3.98984   3.99983   4.00583   4.01065   4.01086
 Alpha virt. eigenvalues --    4.01399   4.01506   4.02188   4.02400   4.03324
 Alpha virt. eigenvalues --    4.03340   4.04016   4.04322   4.04920   4.05309
 Alpha virt. eigenvalues --    4.05648   4.06647   4.07222   4.07351   4.08188
 Alpha virt. eigenvalues --    4.08383   4.09019   4.09650   4.09945   4.10082
 Alpha virt. eigenvalues --    4.10482   4.11291   4.11343   4.11815   4.11852
 Alpha virt. eigenvalues --    4.11975   4.12727   4.12913   4.13116   4.13203
 Alpha virt. eigenvalues --    4.13820   4.14093   4.14287   4.14451   4.14929
 Alpha virt. eigenvalues --    4.15225   4.15574   4.15740   4.16455   4.17000
 Alpha virt. eigenvalues --    4.17308   4.17316   4.17716   4.17962   4.18331
 Alpha virt. eigenvalues --    4.18807   4.19257   4.19333   4.19573   4.19899
 Alpha virt. eigenvalues --    4.20085   4.20654   4.20682   4.20794   4.21066
 Alpha virt. eigenvalues --    4.21682   4.21845   4.22622   4.22979   4.23084
 Alpha virt. eigenvalues --    4.23604   4.23678   4.23811   4.24188   4.24492
 Alpha virt. eigenvalues --    4.24704   4.25130   4.25465   4.25807   4.26441
 Alpha virt. eigenvalues --    4.26515   4.27230   4.27681   4.28088   4.28096
 Alpha virt. eigenvalues --    4.28350   4.28527   4.28747   4.29234   4.29439
 Alpha virt. eigenvalues --    4.30314   4.30429   4.30474   4.30893   4.31180
 Alpha virt. eigenvalues --    4.31382   4.31390   4.32202   4.32275   4.32497
 Alpha virt. eigenvalues --    4.33426   4.33767   4.33861   4.34316   4.34601
 Alpha virt. eigenvalues --    4.34984   4.34991   4.35265   4.35760   4.35847
 Alpha virt. eigenvalues --    4.35952   4.36295   4.36707   4.37159   4.37177
 Alpha virt. eigenvalues --    4.37327   4.37990   4.38691   4.38810   4.38852
 Alpha virt. eigenvalues --    4.39513   4.39964   4.40047   4.40667   4.41278
 Alpha virt. eigenvalues --    4.41684   4.42224   4.42655   4.43312   4.43689
 Alpha virt. eigenvalues --    4.43829   4.44237   4.44775   4.45034   4.45990
 Alpha virt. eigenvalues --    4.46170   4.46584   4.47118   4.47733   4.48562
 Alpha virt. eigenvalues --    4.49092   4.49105   4.50176   4.50514   4.51705
 Alpha virt. eigenvalues --    4.51788   4.52308   4.53036   4.53412   4.53536
 Alpha virt. eigenvalues --    4.54508   4.54767   4.55064   4.55439   4.55765
 Alpha virt. eigenvalues --    4.56177   4.57134   4.57242   4.57323   4.57911
 Alpha virt. eigenvalues --    4.58205   4.58530   4.58844   4.60154   4.61044
 Alpha virt. eigenvalues --    4.61154   4.62596   4.62615   4.63087   4.63351
 Alpha virt. eigenvalues --    4.64045   4.64557   4.65206   4.65460   4.65599
 Alpha virt. eigenvalues --    4.67361   4.68802   4.69839   4.70931   4.72018
 Alpha virt. eigenvalues --    4.72916   4.73964   4.75266   4.75563   4.76642
 Alpha virt. eigenvalues --    4.76829   4.77249   4.77360   4.77671   4.77972
 Alpha virt. eigenvalues --    4.78434   4.79093   4.79114   4.79181   4.80202
 Alpha virt. eigenvalues --    4.80814   4.81478   4.82185   4.82377   4.83313
 Alpha virt. eigenvalues --    4.83400   4.83570   4.83960   4.84152   4.84952
 Alpha virt. eigenvalues --    4.84983   4.86065   4.86364   4.86555   4.86854
 Alpha virt. eigenvalues --    4.87082   4.87242   4.88883   4.90133   4.90721
 Alpha virt. eigenvalues --    4.91826   4.92422   4.94009   4.94939   4.95026
 Alpha virt. eigenvalues --    4.96169   4.96361   4.97743   4.97841   4.98050
 Alpha virt. eigenvalues --    4.98532   4.98548   5.00146   5.01026   5.01858
 Alpha virt. eigenvalues --    5.02152   5.02371   5.03281   5.04342   5.05107
 Alpha virt. eigenvalues --    5.06276   5.06560   5.06897   5.08196   5.08325
 Alpha virt. eigenvalues --    5.09507   5.11481   5.14105   5.14363   5.14382
 Alpha virt. eigenvalues --    5.15022   5.16108   5.16146   5.17448   5.18357
 Alpha virt. eigenvalues --    5.19741   5.21847   5.22434   5.26125   5.27914
 Alpha virt. eigenvalues --    5.27979   5.28953   5.29518   5.30311   5.31008
 Alpha virt. eigenvalues --    5.32060   5.32147   5.34009   5.34166   5.34934
 Alpha virt. eigenvalues --    5.35100   5.37276   5.37443   5.37601   5.38645
 Alpha virt. eigenvalues --    5.39179   5.39864   5.42106   5.42787   5.47330
 Alpha virt. eigenvalues --    5.47528   5.50559   5.51775   5.53081   5.53370
 Alpha virt. eigenvalues --    5.54743   5.54764   5.59900   5.59902   5.61939
 Alpha virt. eigenvalues --    5.62080   5.62619   5.62940   5.63103   5.64179
 Alpha virt. eigenvalues --    5.65570   5.65780   5.71268   5.72304   5.77504
 Alpha virt. eigenvalues --    5.77528   5.78355   5.78915   5.79858   5.80079
 Alpha virt. eigenvalues --    5.80593   5.83895   6.11382   6.11596   6.12993
 Alpha virt. eigenvalues --    6.14268  22.19944  22.20836  22.37415  22.48171
 Alpha virt. eigenvalues --   22.49886  22.51182  22.51556  22.52801  22.54317
 Alpha virt. eigenvalues --   22.57425  22.63387  22.63723  22.65809  22.65921
 Alpha virt. eigenvalues --   22.66808  22.69306  22.70249  22.71125  22.71549
 Alpha virt. eigenvalues --   22.72453  22.73748  22.74365  22.75272  22.75315
 Alpha virt. eigenvalues --   22.77388  22.77651  22.79593  22.80623  22.82014
 Alpha virt. eigenvalues --   22.83829  22.84757  22.86658  22.96440  22.96567
 Alpha virt. eigenvalues --   22.97490  23.00257  23.00822  23.01937  23.03435
 Alpha virt. eigenvalues --   23.07135  23.08470  23.11544  23.11850  23.16646
 Alpha virt. eigenvalues --   23.16846  23.18752  23.23281  23.24199  23.24323
 Alpha virt. eigenvalues --   23.61820  23.61926  23.65352  23.65496  23.80507
 Alpha virt. eigenvalues --   23.80696  23.84659  23.85732
          Condensed to atoms (all electrons):
 Mulliken charges:
               1
     1  C    0.835272
     2  C    0.568418
     3  C    0.834363
     4  H    0.096657
     5  H    0.096671
     6  C    0.568060
     7  H    0.098547
     8  H    0.099540
     9  H    0.099543
    10  H    0.098550
    11  C   -0.125120
    12  C   -0.081708
    13  C   -0.110095
    14  C   -0.130376
    15  C    0.202435
    16  C    0.275693
    17  C    0.065829
    18  C   -0.002011
    19  C    0.274941
    20  C    0.202425
    21  C   -0.002569
    22  C    0.066049
    23  C   -0.124262
    24  C   -0.081272
    25  C   -0.109692
    26  C   -0.130267
    27  C   -0.364944
    28  C   -0.281739
    29  C   -0.195881
    30  C   -0.145128
    31  C   -0.066483
    32  C   -0.097514
    33  C   -0.109752
    34  C   -0.115986
    35  C   -0.074186
    36  C   -0.085875
    37  C   -0.102560
    38  C   -0.091067
    39  C   -0.235058
    40  C   -0.225757
    41  C   -0.231093
    42  C   -0.257336
    43  H    0.088970
    44  H    0.095156
    45  H    0.089497
    46  H    0.096053
    47  H    0.097137
    48  H    0.101695
    49  H    0.100631
    50  H    0.095498
    51  H    0.100280
    52  H    0.102301
    53  H    0.089845
    54  H    0.098508
    55  H    0.086476
    56  H    0.093539
    57  H    0.084636
    58  H    0.100896
    59  C   -0.230878
    60  C   -0.257465
    61  C   -0.225704
    62  C   -0.235134
    63  C   -0.086012
    64  C   -0.074129
    65  C   -0.091043
    66  C   -0.102626
    67  C   -0.115940
    68  C   -0.109672
    69  C   -0.097563
    70  C   -0.066500
    71  C   -0.281396
    72  C   -0.364996
    73  C   -0.195600
    74  C   -0.145156
    75  H    0.093543
    76  H    0.086478
    77  H    0.084545
    78  H    0.100855
    79  H    0.098504
    80  H    0.089851
    81  H    0.102302
    82  H    0.100274
    83  H    0.100626
    84  H    0.095502
    85  H    0.101696
    86  H    0.097145
    87  H    0.095161
    88  H    0.088959
    89  H    0.096042
    90  H    0.089487
    91  C   -0.360939
    92  H    0.129510
    93  H    0.108096
    94  H    0.112470
    95  C   -0.393763
    96  C   -0.393784
    97  C   -0.458290
    98  C   -0.360908
    99  H    0.108095
   100  H    0.112467
   101  H    0.129507
 Sum of Mulliken charges =  -0.00000
 Mulliken charges with hydrogens summed into heavy atoms:
               1
     1  C    0.835272
     2  C    0.568418
     3  C    0.834363
     6  C    0.568060
    11  C   -0.125120
    12  C   -0.081708
    13  C   -0.110095
    14  C   -0.130376
    15  C    0.202435
    16  C    0.275693
    17  C    0.065829
    18  C   -0.002011
    19  C    0.274941
    20  C    0.202425
    21  C   -0.002569
    22  C    0.066049
    23  C   -0.124262
    24  C   -0.081272
    25  C   -0.109692
    26  C   -0.130267
    27  C   -0.278469
    28  C   -0.188199
    29  C   -0.094985
    30  C   -0.060492
    31  C    0.033798
    32  C    0.004788
    33  C   -0.019907
    34  C   -0.017478
    35  C    0.021312
    36  C    0.014756
    37  C   -0.005423
    38  C    0.010628
    39  C   -0.145560
    40  C   -0.129704
    41  C   -0.135937
    42  C   -0.168366
    59  C   -0.135717
    60  C   -0.168506
    61  C   -0.129662
    62  C   -0.145647
    63  C    0.014614
    64  C    0.021372
    65  C    0.010653
    66  C   -0.005481
    67  C   -0.017436
    68  C   -0.019821
    69  C    0.004739
    70  C    0.033774
    71  C   -0.187853
    72  C   -0.278518
    73  C   -0.094745
    74  C   -0.060611
    91  C   -0.010863
    95  C   -0.195673
    96  C   -0.195695
    97  C   -0.264961
    98  C   -0.010839
 Electronic spatial extent (au):  <R**2>=          31391.0196
 Charge=             -0.0000 electrons
 Dipole moment (field-independent basis, Debye):
    X=             -0.4357    Y=              0.0664    Z=             -0.3334  Tot=              0.5526
 Quadrupole moment (field-independent basis, Debye-Ang):
   XX=           -326.0827   YY=           -309.8135   ZZ=           -335.4877
   XY=              1.0861   XZ=             16.7415   YZ=             -0.6964
 Traceless Quadrupole moment (field-independent basis, Debye-Ang):
   XX=             -2.2881   YY=             13.9811   ZZ=            -11.6930
   XY=              1.0861   XZ=             16.7415   YZ=             -0.6964
 Octapole moment (field-independent basis, Debye-Ang**2):
  XXX=            120.6636  YYY=             -3.1806  ZZZ=            142.8564  XYY=              6.5366
  XXY=             -3.2560  XXZ=            -52.7938  XZZ=             -1.5770  YZZ=            -12.6743
  YYZ=              5.9653  XYZ=              5.3595
 Hexadecapole moment (field-independent basis, Debye-Ang**3):
 XXXX=         -14241.5917 YYYY=          -9366.1178 ZZZZ=         -20617.0551 XXXY=           -566.5792
 XXXZ=           6006.3181 YYYX=           -496.2555 YYYZ=            236.1275 ZZZX=           6240.6432
 ZZZY=            260.8526 XXYY=          -3900.1042 XXZZ=          -6043.2830 YYZZ=          -4924.5494
 XXYZ=             62.5526 YYXZ=           1905.3566 ZZXY=           -126.7260
 N-N= 8.071956626791D+03 E-N=-2.124630065318D+04  KE= 2.187792104636D+03
 Leave Link  601 at Tue Mar 24 03:48:00 2026, MaxMem=   104857600 cpu:               0.5 elap:               0.5
 (Enter /sw/cluster/pub/apps//g16/l9999.exe)
 1\1\GINC-N05\SP\RB3LYP\def2TZVP\C57H44\UNKNOWN\24-Mar-2026\0\\#p B3LYP
 /def2TZVP nosymm density=current sp\\Generated by extraQ₂\\0,1\C,0,-
 1.45473584,0.33297164,0.62766096\C,0,0.99359238,0.24489464,-4.23366773
 \C,0,0.1788122,-0.13881496,-1.60306075\H,0,-1.88165143,-0.5904378,-1.2
 8302443\H,0,-1.56798933,1.1151271,-1.35407605\C,0,-3.83048947,0.186624
 05,2.0649696\H,0,-0.64969486,1.08701961,-3.1858683\H,0,-3.3548661,1.25
 607408,0.25467721\H,0,-0.81451521,-0.62180622,-3.44202323\H,0,-3.39437
 516,-0.47179704,0.09424873\C,0,-0.75055216,-0.67819949,1.52882232\C,0,
 2.14559214,-0.75757486,-4.21885024\C,0,-3.88154657,-1.24591854,2.59255
 136\C,0,0.57062262,-1.60069845,-1.38967512\C,0,-3.5024796,-1.29668151,
 3.94078212\C,0,1.8295963,-1.69941483,-0.78537969\C,0,3.38153689,-0.091
 07884,-4.22084679\C,0,0.10064282,-0.02312661,2.43407552\C,0,0.02131498
 ,1.41806161,2.20024437\C,0,3.13858022,1.35181125,-4.21885024\C,0,2.344
 03225,-0.34852265,-0.56528162\C,0,-3.17191204,0.05891827,4.38127987\C,
 0,1.39916196,0.57968374,-1.03302983\C,0,-3.34546277,0.93994024,3.30171
 374\C,0,1.7541566,1.56944992,-4.21885024\C,0,-0.87948296,1.64779199,1.
 15347656\C,0,-1.14754917,2.94113488,0.73640757\C,0,1.25228779,2.859457
 72,-4.27611925\C,0,-3.18105246,2.30304989,3.48990132\C,0,1.66772342,1.
 93633531,-0.94743048\C,0,-0.50997923,4.00799997,1.36738923\C,0,2.13806
 861,3.93532804,-4.30847633\C,0,2.8713511,2.36202067,-0.39252529\C,0,-2
 .80750025,2.77947372,4.74455913\C,0,3.80425021,1.43846314,0.07366316\C
 ,0,-2.61065668,1.90056203,5.80755421\C,0,0.38789679,3.77705718,2.40746
 667\C,0,3.51427875,3.71796659,-4.29017623\C,0,0.65918351,2.48065383,2.
 83069148\C,0,4.02376973,2.42469322,-4.24957084\C,0,-2.79769358,0.53420
 051,5.63441275\C,0,3.54679749,0.07569354,-0.01024396\H,0,4.2739216,-0.
 6418653,0.34949309\H,0,-2.66246723,-0.14532025,6.46702022\H,0,1.356810
 29,2.30710128,3.64053076\H,0,5.09444805,2.26118693,-4.24459933\H,0,0.8
 7753411,4.61429067,2.8892381\H,0,4.19121536,4.5628554,-4.31461562\H,0,
 -2.31903129,2.28622408,6.77658773\H,0,4.73612068,1.78583522,0.50259861
 \H,0,-0.71302694,5.02249548,1.04708753\H,0,1.75434419,4.94707864,-4.35
 156788\H,0,3.08191593,3.42136436,-0.32393974\H,0,-2.665255,3.84244806,
 4.89239551\H,0,-1.84359109,3.13731534,-0.07184171\H,0,0.18415695,3.044
 33257,-4.29520558\H,0,0.95820935,2.66942921,-1.3032792\H,0,-3.32691052
 ,3.00057614,2.67584251\C,0,4.57472564,-0.80492223,-4.2756448\C,0,0.841
 95924,-0.74298364,3.36516514\C,0,-3.51879963,-2.5018063,4.63575602\C,0
 ,2.3839212,-2.94330663,-0.5044886\C,0,4.52633376,-2.19238945,-4.342731
 56\C,0,0.72680611,-2.12739211,3.39000059\C,0,-3.92661718,-3.65546515,3
 .97504469\C,0,1.66989999,-4.08986647,-0.83456367\C,0,3.30086356,-2.854
 82731,-4.36707543\C,0,-0.11908469,-2.78044239,2.49636572\C,0,-4.321043
 87,-3.6033369,2.63966219\C,0,0.41777999,-3.99384816,-1.43809994\C,0,-4
 .30274532,-2.39543371,1.94411114\C,0,-0.13617401,-2.74578558,-1.717934
 52\C,0,2.10660319,-2.13978104,-4.3110675\C,0,-0.86020688,-2.05901436,1
 .56463153\H,0,-4.61658932,-2.36997177,0.90666233\H,0,-1.11195234,-2.68
 772597,-2.18773938\H,0,-1.5105826,-2.58530587,0.88089732\H,0,1.1646829
 5,-2.67174825,-4.32858624\H,0,3.27491817,-3.93550512,-4.4259399\H,0,-0
 .20284897,-3.85906718,2.5246711\H,0,-4.64723914,-4.50703785,2.14000101
 \H,0,-0.12835749,-4.89440959,-1.69058012\H,0,5.44612755,-2.7624309,-4.
 38558815\H,0,1.29658617,-2.70312371,4.10897234\H,0,-3.94462297,-4.6006
 4389,4.50324054\H,0,2.08926478,-5.0653339,-0.62148165\H,0,5.52828207,-
 0.291114,-4.27587641\H,0,1.49741091,-0.23567694,4.06232679\H,0,-3.2218
 2095,-2.54645705,5.67639019\H,0,3.35732094,-3.02387385,-0.03689327\C,0
 ,0.24552462,0.12343306,-5.5868023\H,0,0.93295509,0.27300239,-6.4196453
 3\H,0,-0.54695689,0.87140666,-5.6597995\H,0,-0.20739143,-0.86441706,-5
 .68868677\C,0,-3.02414237,0.33162194,0.73532202\C,0,-0.10166887,0.1438
 9664,-3.12491203\C,0,-1.2017076,0.18279988,-0.91866239\C,0,-5.27702619
 ,0.64206228,1.74029137\H,0,-5.68147286,0.07624596,0.89821413\H,0,-5.29
 744965,1.70194697,1.48031349\H,0,-5.9296937,0.48719497,2.59971144\\Ver
 sion=ES64L-G16RevA.03\HF=-2199.3637286\RMSD=2.125e-09\Dipole=-0.171398
 8,0.0261433,-0.1311822\Quadrupole=-1.7011231,10.394619,-8.6934959,0.80
 75011,12.4468639,-0.5177782\PG=C01 [X(C57H44)]\\@


 IF YOU GET CONFUSED, LOGIC OUT YOUR DILEMMA

           --  PICKER X-RAY CORP.    DIGITAL PRINTER MANUAL CA. 1964
 Job cpu time:       0 days 10 hours 40 minutes 43.2 seconds.
 Elapsed time:       0 days 10 hours 41 minutes 28.9 seconds.
 File lengths (MBytes):  RWF=   2213 Int=      0 D2E=      0 Chk=    238 Scr=      1
 Normal termination of Gaussian 16 at Tue Mar 24 03:48:02 2026.
