101

 C  -1.365587    0.319406    0.808849
 C   3.961551   -0.206735    1.798476
 C   1.365550   -0.319399    0.808891
 H  -0.174417   -0.850225    2.186796
 H   0.174278    0.850009    2.186946
 C  -3.961653    0.206583    1.798390
 H   2.179286    0.656538    2.563814
 H  -2.179681    1.077248    2.643149
 H   2.179547   -1.077408    2.643174
 H  -2.179360   -0.656684    2.563672
 C  -1.705116   -0.532945   -0.411254
 C   4.595628   -1.130393    0.760656
 C  -4.493589   -1.152785    1.348623
 C   1.350696   -1.719401    0.195763
 C  -5.327960   -1.018901    0.230636
 C   1.638684   -1.670364   -1.173394
 C   5.392888   -0.397143   -0.132933
 C  -1.859518    0.275148   -1.549798
 C  -1.638539    1.670639   -1.173279
 C   5.327840    1.018675    0.230649
 C   1.859670   -0.274818   -1.549710
 C  -5.393041    0.396904   -0.132991
 C   1.705183    0.533117   -0.411066
 C  -4.595773    1.130198    0.760556
 C   4.493502    1.152608    1.348655
 C  -1.350632    1.719486    0.195903
 C  -1.109362    2.935324    0.814020
 C   4.307729    2.394516    1.933826
 C  -4.563094    2.513353    0.681010
 C   1.882126    1.903710   -0.511674
 C  -1.153858    4.105978    0.058756
 C   4.938827    3.509141    1.383846
 C   2.206165    2.463241   -1.744464
 C  -5.295909    3.158131   -0.312937
 C   2.354831    1.659019   -2.872168
 C  -6.065729    2.426315   -1.214610
 C  -1.438348    4.054954   -1.304233
 C   5.753722    3.377194    0.261317
 C  -1.682683    2.837012   -1.928969
 C   5.957109    2.130500   -0.320210
 C  -6.124313    1.040407   -1.126681
 C   2.182990    0.283222   -2.782076
 H   2.301855   -0.341779   -3.658578
 H  -6.738360    0.474902   -1.816913
 H  -1.904738    2.803406   -2.988311
 H   6.598728    2.032283   -1.187268
 H  -1.469249    4.971397   -1.880415
 H   6.237135    4.251531   -0.156444
 H  -6.628768    2.942030   -1.982615
 H   2.607297    2.109775   -3.824069
 H  -0.965586    5.060927    0.533781
 H   4.797739    4.483970    1.833894
 H   2.343480    3.533731   -1.824753
 H  -5.262692    4.237696   -0.386692
 H  -0.886255    2.991639    1.873869
 H   3.680063    2.512366    2.809950
 H   1.771888    2.545613    0.350459
 H  -3.969119    3.098300    1.370604
 C   6.124119   -1.040691   -1.126624
 C  -2.182726   -0.282722   -2.782271
 C  -5.957231   -2.130754   -0.320165
 C   1.682911   -2.836635   -1.929237
 C   6.065487   -2.426600   -1.214523
 C  -2.354530   -1.658510   -2.872574
 C  -5.753817   -3.377423    0.261404
 C   1.438594   -4.054669   -1.304675
 C   5.295651   -3.158371   -0.312826
 C  -2.205926   -2.462891   -1.744976
 C  -4.938898   -3.509319    1.383922
 C   1.154042   -4.105884    0.058295
 C  -4.307797   -2.394665    1.933844
 C   1.109455   -2.935331    0.813709
 C   4.562881   -2.513549    0.681125
 C  -1.881998   -1.903530   -0.512079
 H  -3.680119   -2.512473    2.809965
 H   0.886294   -2.991796    1.873540
 H  -1.771812   -2.545555    0.349969
 H   3.968883   -3.098459    1.370731
 H   5.262386   -4.237935   -0.386567
 H  -2.343202   -3.533373   -1.825429
 H  -4.797795   -4.484128    1.834008
 H   0.965788   -5.060904    0.533185
 H   6.628489   -2.942349   -1.982531
 H  -2.606902   -2.109136   -3.824562
 H  -6.237233   -4.251781   -0.156310
 H   1.469564   -4.971035   -1.880975
 H   6.738165   -0.475220   -1.816884
 H  -2.301517    0.342400   -3.658697
 H  -6.598875   -2.032576   -1.187208
 H   1.905030   -2.802881   -2.988561
 C   4.563812   -0.533674    3.189779
 H   5.650171   -0.444809    3.167727
 H   4.180598    0.152022    3.948586
 H   4.308676   -1.551620    3.489867
 C  -2.410967    0.238316    1.981553
 C   2.410880   -0.238434    1.981647
 C  -0.000040   -0.000056    1.523633
 C  -4.563887    0.533545    3.189691
 H  -4.180656   -0.152131    3.948507
 H  -4.308756    1.551499    3.489756
 H  -5.650247    0.444672    3.167665