%chk=f4-def2TZVP_SP.chk
#p B3LYP/def2TZVP nosymm density=current sp

Generated by extraQ₂

0 1
C        -1.45473584       0.33297164       0.62766096
C         0.99359238       0.24489464      -4.23366773
C         0.17881220      -0.13881496      -1.60306075
H        -1.88165143      -0.59043780      -1.28302443
H        -1.56798933       1.11512710      -1.35407605
C        -3.83048947       0.18662405       2.06496960
H        -0.64969486       1.08701961      -3.18586830
H        -3.35486610       1.25607408       0.25467721
H        -0.81451521      -0.62180622      -3.44202323
H        -3.39437516      -0.47179704       0.09424873
C        -0.75055216      -0.67819949       1.52882232
C         2.14559214      -0.75757486      -4.21885024
C        -3.88154657      -1.24591854       2.59255136
C         0.57062262      -1.60069845      -1.38967512
C        -3.50247960      -1.29668151       3.94078212
C         1.82959630      -1.69941483      -0.78537969
C         3.38153689      -0.09107884      -4.22084679
C         0.10064282      -0.02312661       2.43407552
C         0.02131498       1.41806161       2.20024437
C         3.13858022       1.35181125      -4.21885024
C         2.34403225      -0.34852265      -0.56528162
C        -3.17191204       0.05891827       4.38127987
C         1.39916196       0.57968374      -1.03302983
C        -3.34546277       0.93994024       3.30171374
C         1.75415660       1.56944992      -4.21885024
C        -0.87948296       1.64779199       1.15347656
C        -1.14754917       2.94113488       0.73640757
C         1.25228779       2.85945772      -4.27611925
C        -3.18105246       2.30304989       3.48990132
C         1.66772342       1.93633531      -0.94743048
C        -0.50997923       4.00799997       1.36738923
C         2.13806861       3.93532804      -4.30847633
C         2.87135110       2.36202067      -0.39252529
C        -2.80750025       2.77947372       4.74455913
C         3.80425021       1.43846314       0.07366316
C        -2.61065668       1.90056203       5.80755421
C         0.38789679       3.77705718       2.40746667
C         3.51427875       3.71796659      -4.29017623
C         0.65918351       2.48065383       2.83069148
C         4.02376973       2.42469322      -4.24957084
C        -2.79769358       0.53420051       5.63441275
C         3.54679749       0.07569354      -0.01024396
H         4.27392160      -0.64186530       0.34949309
H        -2.66246723      -0.14532025       6.46702022
H         1.35681029       2.30710128       3.64053076
H         5.09444805       2.26118693      -4.24459933
H         0.87753411       4.61429067       2.88923810
H         4.19121536       4.56285540      -4.31461562
H        -2.31903129       2.28622408       6.77658773
H         4.73612068       1.78583522       0.50259861
H        -0.71302694       5.02249548       1.04708753
H         1.75434419       4.94707864      -4.35156788
H         3.08191593       3.42136436      -0.32393974
H        -2.66525500       3.84244806       4.89239551
H        -1.84359109       3.13731534      -0.07184171
H         0.18415695       3.04433257      -4.29520558
H         0.95820935       2.66942921      -1.30327920
H        -3.32691052       3.00057614       2.67584251
C         4.57472564      -0.80492223      -4.27564480
C         0.84195924      -0.74298364       3.36516514
C        -3.51879963      -2.50180630       4.63575602
C         2.38392120      -2.94330663      -0.50448860
C         4.52633376      -2.19238945      -4.34273156
C         0.72680611      -2.12739211       3.39000059
C        -3.92661718      -3.65546515       3.97504469
C         1.66989999      -4.08986647      -0.83456367
C         3.30086356      -2.85482731      -4.36707543
C        -0.11908469      -2.78044239       2.49636572
C        -4.32104387      -3.60333690       2.63966219
C         0.41777999      -3.99384816      -1.43809994
C        -4.30274532      -2.39543371       1.94411114
C        -0.13617401      -2.74578558      -1.71793452
C         2.10660319      -2.13978104      -4.31106750
C        -0.86020688      -2.05901436       1.56463153
H        -4.61658932      -2.36997177       0.90666233
H        -1.11195234      -2.68772597      -2.18773938
H        -1.51058260      -2.58530587       0.88089732
H         1.16468295      -2.67174825      -4.32858624
H         3.27491817      -3.93550512      -4.42593990
H        -0.20284897      -3.85906718       2.52467110
H        -4.64723914      -4.50703785       2.14000101
H        -0.12835749      -4.89440959      -1.69058012
H         5.44612755      -2.76243090      -4.38558815
H         1.29658617      -2.70312371       4.10897234
H        -3.94462297      -4.60064389       4.50324054
H         2.08926478      -5.06533390      -0.62148165
H         5.52828207      -0.29111400      -4.27587641
H         1.49741091      -0.23567694       4.06232679
H        -3.22182095      -2.54645705       5.67639019
H         3.35732094      -3.02387385      -0.03689327
C         0.24552462       0.12343306      -5.58680230
H         0.93295509       0.27300239      -6.41964533
H        -0.54695689       0.87140666      -5.65979950
H        -0.20739143      -0.86441706      -5.68868677
C        -3.02414237       0.33162194       0.73532202
C        -0.10166887       0.14389664      -3.12491203
C        -1.20170760       0.18279988      -0.91866239
C        -5.27702619       0.64206228       1.74029137
H        -5.68147286       0.07624596       0.89821413
H        -5.29744965       1.70194697       1.48031349
H        -5.92969370       0.48719497       2.59971144



