 Entering Gaussian System, Link 0=g16
 Initial command:
 /sw/cluster/pub/apps//g16/l1.exe "/data/mmaximo/44370/Gau-38244.inp" -scrdir="/data/mmaximo/44370/"
 Entering Link 1 = /sw/cluster/pub/apps//g16/l1.exe PID=     38245.
  
 Copyright (c) 1988,1990,1992,1993,1995,1998,2003,2009,2016,
            Gaussian, Inc.  All Rights Reserved.
  
 This is part of the Gaussian(R) 16 program.  It is based on
 the Gaussian(R) 09 system (copyright 2009, Gaussian, Inc.),
 the Gaussian(R) 03 system (copyright 2003, Gaussian, Inc.),
 the Gaussian(R) 98 system (copyright 1998, Gaussian, Inc.),
 the Gaussian(R) 94 system (copyright 1995, Gaussian, Inc.),
 the Gaussian 92(TM) system (copyright 1992, Gaussian, Inc.),
 the Gaussian 90(TM) system (copyright 1990, Gaussian, Inc.),
 the Gaussian 88(TM) system (copyright 1988, Gaussian, Inc.),
 the Gaussian 86(TM) system (copyright 1986, Carnegie Mellon
 University), and the Gaussian 82(TM) system (copyright 1983,
 Carnegie Mellon University). Gaussian is a federally registered
 trademark of Gaussian, Inc.
  
 This software contains proprietary and confidential information,
 including trade secrets, belonging to Gaussian, Inc.
  
 This software is provided under written license and may be
 used, copied, transmitted, or stored only in accord with that
 written license.
  
 The following legend is applicable only to US Government
 contracts under FAR:
  
                    RESTRICTED RIGHTS LEGEND
  
 Use, reproduction and disclosure by the US Government is
 subject to restrictions as set forth in subparagraphs (a)
 and (c) of the Commercial Computer Software - Restricted
 Rights clause in FAR 52.227-19.
  
 Gaussian, Inc.
 340 Quinnipiac St., Bldg. 40, Wallingford CT 06492
  
  
 ---------------------------------------------------------------
 Warning -- This program may not be used in any manner that
 competes with the business of Gaussian, Inc. or will provide
 assistance to any competitor of Gaussian, Inc.  The licensee
 of this program is prohibited from giving any competitor of
 Gaussian, Inc. access to this program.  By using this program,
 the user acknowledges that Gaussian, Inc. is engaged in the
 business of creating and licensing software in the field of
 computational chemistry and represents and warrants to the
 licensee that it is not a competitor of Gaussian, Inc. and that
 it will not use this program in any manner prohibited above.
 ---------------------------------------------------------------
  

 Cite this work as:
 Gaussian 16, Revision A.03,
 M. J. Frisch, G. W. Trucks, H. B. Schlegel, G. E. Scuseria, 
 M. A. Robb, J. R. Cheeseman, G. Scalmani, V. Barone, 
 G. A. Petersson, H. Nakatsuji, X. Li, M. Caricato, A. V. Marenich, 
 J. Bloino, B. G. Janesko, R. Gomperts, B. Mennucci, H. P. Hratchian, 
 J. V. Ortiz, A. F. Izmaylov, J. L. Sonnenberg, D. Williams-Young, 
 F. Ding, F. Lipparini, F. Egidi, J. Goings, B. Peng, A. Petrone, 
 T. Henderson, D. Ranasinghe, V. G. Zakrzewski, J. Gao, N. Rega, 
 G. Zheng, W. Liang, M. Hada, M. Ehara, K. Toyota, R. Fukuda, 
 J. Hasegawa, M. Ishida, T. Nakajima, Y. Honda, O. Kitao, H. Nakai, 
 T. Vreven, K. Throssell, J. A. Montgomery, Jr., J. E. Peralta, 
 F. Ogliaro, M. J. Bearpark, J. J. Heyd, E. N. Brothers, K. N. Kudin, 
 V. N. Staroverov, T. A. Keith, R. Kobayashi, J. Normand, 
 K. Raghavachari, A. P. Rendell, J. C. Burant, S. S. Iyengar, 
 J. Tomasi, M. Cossi, J. M. Millam, M. Klene, C. Adamo, R. Cammi, 
 J. W. Ochterski, R. L. Martin, K. Morokuma, O. Farkas, 
 J. B. Foresman, and D. J. Fox, Gaussian, Inc., Wallingford CT, 2016.
 
 ******************************************
 Gaussian 16:  ES64L-G16RevA.03 25-Dec-2016
                23-Mar-2026 
 ******************************************
 %nprocshared=4
 Will use up to    4 processors via shared memory.
 %chk=f4-6-31+Gstar_SP.chk
 --------------------------------------------
 #p b3lyp/6-31+g(d) nosymm density=current sp
 --------------------------------------------
 1/30=1,38=1,172=1/1;
 2/12=2,15=1,17=6,18=5,40=1/2;
 3/5=1,6=6,7=11,11=2,25=1,30=1,74=-5/1,2,3;
 4//1;
 5/5=2,38=5/2;
 6/7=2,8=2,9=2,10=2,22=-1,28=1/1;
 99/5=1,9=1/99;
 Leave Link    1 at Mon Mar 23 17:06:37 2026, MaxMem=           0 cpu:               0.0 elap:               0.0
 (Enter /sw/cluster/pub/apps//g16/l101.exe)
 ----------------------
 Generated by extraQ₂
 ----------------------
 Symbolic Z-matrix:
 Charge =  0 Multiplicity = 1
 C                    -0.1742    0.13258  -1.61109 
 C                     3.8372   -0.20534   2.06949 
 C                     1.46183  -0.34505   0.62244 
 H                     1.56859  -1.1416   -1.3614 
 H                     1.898     0.56949  -1.30021 
 C                    -1.01407  -0.26077  -4.23704 
 H                     3.41999   0.43433   0.08186 
 H                     0.8101    0.61016  -3.46592 
 H                     3.35931  -1.29836   0.26457 
 H                     0.64432  -1.10517  -3.20233 
 C                    -1.40189  -0.57494  -1.03222 
 C                     3.33509  -0.93396   3.31897 
 C                    -1.77218  -1.59151  -4.21719 
 C                     0.87205  -1.65596   1.15508 
 C                    -3.16367  -1.37735  -4.21719 
 C                    -0.03146  -1.41232   2.20477 
 C                     3.18275  -0.03165   4.39252 
 C                    -2.34063   0.36748  -0.56149 
 C                    -1.81314   1.71693  -0.78856 
 C                     3.53688   1.31565   3.93076 
 C                    -0.09659   0.03495   2.43273 
 C                    -3.41108   0.06925  -4.21719 
 C                     0.76549   0.6801    1.52082 
 C                    -2.17106   0.74172  -4.21274 
 C                     3.91047   1.23845   2.57556 
 C                    -0.55222   1.60326  -1.40071 
 C                     0.16742   2.74541  -1.73897 
 C                     4.3512    2.37621   1.9055 
 C                    -2.13494   2.13089  -4.30001 
 C                     0.89015   2.06617   1.5505 
 C                    -0.37603   4.0066   -1.46098 
 C                     4.39473   3.59986   2.58691 
 C                     0.15225   2.80314   2.4833 
 C                    -3.33705   2.84696  -4.35456 
 C                    -0.70516   2.15931   3.38402 
 C                    -4.56726   2.17771  -4.33406 
 C                    -1.63097   4.11703  -0.84878 
 C                     4.0059    3.67797   3.93037 
 C                    -2.35756   2.97228  -0.5088 
 C                     3.57865   2.53489   4.61244 
 C                    -4.61194   0.78256  -4.27062 
 C                    -0.83475   0.76868   3.36474 
 H                    -1.49798   0.26815   4.06632 
 H                    -5.56774   0.26369  -4.27263 
 H                    -3.33212   3.06343  -0.03538 
 H                     3.28659   2.59908   5.65799 
 H                    -2.04279   5.10078  -0.63655 
 H                     4.04338   4.63336   4.44803 
 H                    -5.49271   2.74701  -4.37563 
 H                    -1.27206   2.7456    4.10338 
 H                     0.18028   4.9042   -1.72085 
 H                     4.73559   4.49384   2.07028 
 H                     0.248     3.88534   2.50635 
 H                    -3.31319   3.9323   -4.40894 
 H                     1.14441   2.67464  -2.21492 
 H                     4.66167   2.32873   0.8632 
 H                     1.5491    2.58362   0.86158 
 H                    -1.18997   2.66616  -4.31238 
 C                     2.80315  -0.48408   5.65938 
 C                    -3.55065  -0.04464   0.00231 
 C                    -4.05019  -2.45716  -4.25021 
 C                    -0.6826   -2.47032   2.84293 
 C                     2.58903  -1.85127   5.85284 
 C                    -3.82223  -1.41183   0.09205 
 C                    -3.53449  -3.75589  -4.29203 
 C                    -0.42126  -3.77816   2.42434 
 C                     2.76339  -2.75237   4.79485 
 C                    -2.89496  -2.35027  -0.37749 
 C                    -2.15036  -3.97044  -4.30983 
 C                     0.48023  -4.02371   1.38083 
 C                    -1.26361  -2.88597  -4.2759 
 C                     1.13065  -2.9596    0.7422 
 C                     3.14278  -2.29736   3.52606 
 C                    -1.68359  -1.9351   -0.94134 
 H                    -0.19036  -3.0669   -4.296 
 H                     1.82874  -3.16535  -0.06797 
 H                    -0.97872  -2.67768  -1.29954 
 H                     3.2692   -3.00948   2.71579 
 H                     2.59901  -3.81452   4.95705 
 H                    -3.11515  -3.41194  -0.30499 
 H                    -1.76142  -4.98489  -4.35347 
 H                     0.67559  -5.04539   1.06353 
 H                     2.29286  -2.21892   6.83233 
 H                    -4.75958  -1.7498    0.52765 
 H                    -4.21237  -4.60557  -4.31795 
 H                    -0.92136  -4.61137   2.91225 
 H                     2.68449   0.21215   6.48641 
 H                    -4.27201   0.68446   0.36381 
 H                    -5.12559  -2.29562  -4.24584 
 H                    -1.38188  -2.28515   3.65467 
 C                     5.28389  -0.68926   1.76008 
 H                     5.93762  -0.5276    2.62321 
 H                     5.70276  -0.14273   0.9062 
 H                     5.29088  -1.75868   1.51899 
 C                     0.09662  -0.15694  -3.13819 
 C                     3.03559  -0.36007   0.7333 
 C                     1.20989  -0.19967  -0.92895 
 C                    -0.27848  -0.13719  -5.60323 
 H                     0.52019  -0.88474  -5.68416 
 H                     0.17058   0.85693  -5.71233 
 H                    -0.97635  -0.2916   -6.43247 
 
 ITRead=  0  0  0  0  0  0  0  0  0  0  0  0  0  0  0  0  0  0  0  0
 ITRead=  0  0  0  0  0  0  0  0  0  0  0  0  0  0  0  0  0  0  0  0
 ITRead=  0  0  0  0  0  0  0  0  0  0  0  0  0  0  0  0  0  0  0  0
 ITRead=  0  0  0  0  0  0  0  0  0  0  0  0  0  0  0  0  0  0  0  0
 ITRead=  0  0  0  0  0  0  0  0  0  0  0  0  0  0  0  0  0  0  0  0
 ITRead=  0
 MicOpt= -1 -1 -1 -1 -1 -1 -1 -1 -1 -1 -1 -1 -1 -1 -1 -1 -1 -1 -1 -1
 MicOpt= -1 -1 -1 -1 -1 -1 -1 -1 -1 -1 -1 -1 -1 -1 -1 -1 -1 -1 -1 -1
 MicOpt= -1 -1 -1 -1 -1 -1 -1 -1 -1 -1 -1 -1 -1 -1 -1 -1 -1 -1 -1 -1
 MicOpt= -1 -1 -1 -1 -1 -1 -1 -1 -1 -1 -1 -1 -1 -1 -1 -1 -1 -1 -1 -1
 MicOpt= -1 -1 -1 -1 -1 -1 -1 -1 -1 -1 -1 -1 -1 -1 -1 -1 -1 -1 -1 -1
 MicOpt= -1
 NAtoms=    101 NQM=      101 NQMF=       0 NMMI=      0 NMMIF=      0
                NMic=       0 NMicF=      0.
                    Isotopes and Nuclear Properties:
 (Nuclear quadrupole moments (NQMom) in fm**2, nuclear magnetic moments (NMagM)
  in nuclear magnetons)

  Atom         1           2           3           4           5           6           7           8           9          10
 IAtWgt=          12          12          12           1           1          12           1           1           1           1
 AtmWgt=  12.0000000  12.0000000  12.0000000   1.0078250   1.0078250  12.0000000   1.0078250   1.0078250   1.0078250   1.0078250
 NucSpn=           0           0           0           1           1           0           1           1           1           1
 AtZEff=  -0.0000000  -0.0000000  -0.0000000  -0.0000000  -0.0000000  -0.0000000  -0.0000000  -0.0000000  -0.0000000  -0.0000000
 NQMom=    0.0000000   0.0000000   0.0000000   0.0000000   0.0000000   0.0000000   0.0000000   0.0000000   0.0000000   0.0000000
 NMagM=    0.0000000   0.0000000   0.0000000   2.7928460   2.7928460   0.0000000   2.7928460   2.7928460   2.7928460   2.7928460
 AtZNuc=   6.0000000   6.0000000   6.0000000   1.0000000   1.0000000   6.0000000   1.0000000   1.0000000   1.0000000   1.0000000

  Atom        11          12          13          14          15          16          17          18          19          20
 IAtWgt=          12          12          12          12          12          12          12          12          12          12
 AtmWgt=  12.0000000  12.0000000  12.0000000  12.0000000  12.0000000  12.0000000  12.0000000  12.0000000  12.0000000  12.0000000
 NucSpn=           0           0           0           0           0           0           0           0           0           0
 AtZEff=  -0.0000000  -0.0000000  -0.0000000  -0.0000000  -0.0000000  -0.0000000  -0.0000000  -0.0000000  -0.0000000  -0.0000000
 NQMom=    0.0000000   0.0000000   0.0000000   0.0000000   0.0000000   0.0000000   0.0000000   0.0000000   0.0000000   0.0000000
 NMagM=    0.0000000   0.0000000   0.0000000   0.0000000   0.0000000   0.0000000   0.0000000   0.0000000   0.0000000   0.0000000
 AtZNuc=   6.0000000   6.0000000   6.0000000   6.0000000   6.0000000   6.0000000   6.0000000   6.0000000   6.0000000   6.0000000

  Atom        21          22          23          24          25          26          27          28          29          30
 IAtWgt=          12          12          12          12          12          12          12          12          12          12
 AtmWgt=  12.0000000  12.0000000  12.0000000  12.0000000  12.0000000  12.0000000  12.0000000  12.0000000  12.0000000  12.0000000
 NucSpn=           0           0           0           0           0           0           0           0           0           0
 AtZEff=  -0.0000000  -0.0000000  -0.0000000  -0.0000000  -0.0000000  -0.0000000  -0.0000000  -0.0000000  -0.0000000  -0.0000000
 NQMom=    0.0000000   0.0000000   0.0000000   0.0000000   0.0000000   0.0000000   0.0000000   0.0000000   0.0000000   0.0000000
 NMagM=    0.0000000   0.0000000   0.0000000   0.0000000   0.0000000   0.0000000   0.0000000   0.0000000   0.0000000   0.0000000
 AtZNuc=   6.0000000   6.0000000   6.0000000   6.0000000   6.0000000   6.0000000   6.0000000   6.0000000   6.0000000   6.0000000

  Atom        31          32          33          34          35          36          37          38          39          40
 IAtWgt=          12          12          12          12          12          12          12          12          12          12
 AtmWgt=  12.0000000  12.0000000  12.0000000  12.0000000  12.0000000  12.0000000  12.0000000  12.0000000  12.0000000  12.0000000
 NucSpn=           0           0           0           0           0           0           0           0           0           0
 AtZEff=  -0.0000000  -0.0000000  -0.0000000  -0.0000000  -0.0000000  -0.0000000  -0.0000000  -0.0000000  -0.0000000  -0.0000000
 NQMom=    0.0000000   0.0000000   0.0000000   0.0000000   0.0000000   0.0000000   0.0000000   0.0000000   0.0000000   0.0000000
 NMagM=    0.0000000   0.0000000   0.0000000   0.0000000   0.0000000   0.0000000   0.0000000   0.0000000   0.0000000   0.0000000
 AtZNuc=   6.0000000   6.0000000   6.0000000   6.0000000   6.0000000   6.0000000   6.0000000   6.0000000   6.0000000   6.0000000

  Atom        41          42          43          44          45          46          47          48          49          50
 IAtWgt=          12          12           1           1           1           1           1           1           1           1
 AtmWgt=  12.0000000  12.0000000   1.0078250   1.0078250   1.0078250   1.0078250   1.0078250   1.0078250   1.0078250   1.0078250
 NucSpn=           0           0           1           1           1           1           1           1           1           1
 AtZEff=  -0.0000000  -0.0000000  -0.0000000  -0.0000000  -0.0000000  -0.0000000  -0.0000000  -0.0000000  -0.0000000  -0.0000000
 NQMom=    0.0000000   0.0000000   0.0000000   0.0000000   0.0000000   0.0000000   0.0000000   0.0000000   0.0000000   0.0000000
 NMagM=    0.0000000   0.0000000   2.7928460   2.7928460   2.7928460   2.7928460   2.7928460   2.7928460   2.7928460   2.7928460
 AtZNuc=   6.0000000   6.0000000   1.0000000   1.0000000   1.0000000   1.0000000   1.0000000   1.0000000   1.0000000   1.0000000

  Atom        51          52          53          54          55          56          57          58          59          60
 IAtWgt=           1           1           1           1           1           1           1           1          12          12
 AtmWgt=   1.0078250   1.0078250   1.0078250   1.0078250   1.0078250   1.0078250   1.0078250   1.0078250  12.0000000  12.0000000
 NucSpn=           1           1           1           1           1           1           1           1           0           0
 AtZEff=  -0.0000000  -0.0000000  -0.0000000  -0.0000000  -0.0000000  -0.0000000  -0.0000000  -0.0000000  -0.0000000  -0.0000000
 NQMom=    0.0000000   0.0000000   0.0000000   0.0000000   0.0000000   0.0000000   0.0000000   0.0000000   0.0000000   0.0000000
 NMagM=    2.7928460   2.7928460   2.7928460   2.7928460   2.7928460   2.7928460   2.7928460   2.7928460   0.0000000   0.0000000
 AtZNuc=   1.0000000   1.0000000   1.0000000   1.0000000   1.0000000   1.0000000   1.0000000   1.0000000   6.0000000   6.0000000

  Atom        61          62          63          64          65          66          67          68          69          70
 IAtWgt=          12          12          12          12          12          12          12          12          12          12
 AtmWgt=  12.0000000  12.0000000  12.0000000  12.0000000  12.0000000  12.0000000  12.0000000  12.0000000  12.0000000  12.0000000
 NucSpn=           0           0           0           0           0           0           0           0           0           0
 AtZEff=  -0.0000000  -0.0000000  -0.0000000  -0.0000000  -0.0000000  -0.0000000  -0.0000000  -0.0000000  -0.0000000  -0.0000000
 NQMom=    0.0000000   0.0000000   0.0000000   0.0000000   0.0000000   0.0000000   0.0000000   0.0000000   0.0000000   0.0000000
 NMagM=    0.0000000   0.0000000   0.0000000   0.0000000   0.0000000   0.0000000   0.0000000   0.0000000   0.0000000   0.0000000
 AtZNuc=   6.0000000   6.0000000   6.0000000   6.0000000   6.0000000   6.0000000   6.0000000   6.0000000   6.0000000   6.0000000

  Atom        71          72          73          74          75          76          77          78          79          80
 IAtWgt=          12          12          12          12           1           1           1           1           1           1
 AtmWgt=  12.0000000  12.0000000  12.0000000  12.0000000   1.0078250   1.0078250   1.0078250   1.0078250   1.0078250   1.0078250
 NucSpn=           0           0           0           0           1           1           1           1           1           1
 AtZEff=  -0.0000000  -0.0000000  -0.0000000  -0.0000000  -0.0000000  -0.0000000  -0.0000000  -0.0000000  -0.0000000  -0.0000000
 NQMom=    0.0000000   0.0000000   0.0000000   0.0000000   0.0000000   0.0000000   0.0000000   0.0000000   0.0000000   0.0000000
 NMagM=    0.0000000   0.0000000   0.0000000   0.0000000   2.7928460   2.7928460   2.7928460   2.7928460   2.7928460   2.7928460
 AtZNuc=   6.0000000   6.0000000   6.0000000   6.0000000   1.0000000   1.0000000   1.0000000   1.0000000   1.0000000   1.0000000

  Atom        81          82          83          84          85          86          87          88          89          90
 IAtWgt=           1           1           1           1           1           1           1           1           1           1
 AtmWgt=   1.0078250   1.0078250   1.0078250   1.0078250   1.0078250   1.0078250   1.0078250   1.0078250   1.0078250   1.0078250
 NucSpn=           1           1           1           1           1           1           1           1           1           1
 AtZEff=  -0.0000000  -0.0000000  -0.0000000  -0.0000000  -0.0000000  -0.0000000  -0.0000000  -0.0000000  -0.0000000  -0.0000000
 NQMom=    0.0000000   0.0000000   0.0000000   0.0000000   0.0000000   0.0000000   0.0000000   0.0000000   0.0000000   0.0000000
 NMagM=    2.7928460   2.7928460   2.7928460   2.7928460   2.7928460   2.7928460   2.7928460   2.7928460   2.7928460   2.7928460
 AtZNuc=   1.0000000   1.0000000   1.0000000   1.0000000   1.0000000   1.0000000   1.0000000   1.0000000   1.0000000   1.0000000

  Atom        91          92          93          94          95          96          97          98          99         100
 IAtWgt=          12           1           1           1          12          12          12          12           1           1
 AtmWgt=  12.0000000   1.0078250   1.0078250   1.0078250  12.0000000  12.0000000  12.0000000  12.0000000   1.0078250   1.0078250
 NucSpn=           0           1           1           1           0           0           0           0           1           1
 AtZEff=  -0.0000000  -0.0000000  -0.0000000  -0.0000000  -0.0000000  -0.0000000  -0.0000000  -0.0000000  -0.0000000  -0.0000000
 NQMom=    0.0000000   0.0000000   0.0000000   0.0000000   0.0000000   0.0000000   0.0000000   0.0000000   0.0000000   0.0000000
 NMagM=    0.0000000   2.7928460   2.7928460   2.7928460   0.0000000   0.0000000   0.0000000   0.0000000   2.7928460   2.7928460
 AtZNuc=   6.0000000   1.0000000   1.0000000   1.0000000   6.0000000   6.0000000   6.0000000   6.0000000   1.0000000   1.0000000

  Atom       101
 IAtWgt=           1
 AtmWgt=   1.0078250
 NucSpn=           1
 AtZEff=  -0.0000000
 NQMom=    0.0000000
 NMagM=    2.7928460
 AtZNuc=   1.0000000
 Leave Link  101 at Mon Mar 23 17:06:38 2026, MaxMem=   104857600 cpu:               0.1 elap:               0.0
 (Enter /sw/cluster/pub/apps//g16/l202.exe)
 Symmetry turned off by external request.
 Stoichiometry    C57H44
 Framework group  C1[X(C57H44)]
 Deg. of freedom   297
 Full point group                 C1      NOp   1
                          Input orientation:                          
 ---------------------------------------------------------------------
 Center     Atomic      Atomic             Coordinates (Angstroms)
 Number     Number       Type             X           Y           Z
 ---------------------------------------------------------------------
      1          6           0       -0.174197    0.132585   -1.611087
      2          6           0        3.837200   -0.205341    2.069489
      3          6           0        1.461835   -0.345050    0.622436
      4          1           0        1.568586   -1.141602   -1.361400
      5          1           0        1.897998    0.569488   -1.300205
      6          6           0       -1.014074   -0.260767   -4.237045
      7          1           0        3.419994    0.434333    0.081859
      8          1           0        0.810098    0.610157   -3.465920
      9          1           0        3.359314   -1.298357    0.264575
     10          1           0        0.644315   -1.105166   -3.202328
     11          6           0       -1.401895   -0.574945   -1.032222
     12          6           0        3.335086   -0.933959    3.318967
     13          6           0       -1.772182   -1.591513   -4.217187
     14          6           0        0.872050   -1.655963    1.155078
     15          6           0       -3.163672   -1.377352   -4.217187
     16          6           0       -0.031464   -1.412325    2.204773
     17          6           0        3.182750   -0.031652    4.392517
     18          6           0       -2.340626    0.367478   -0.561488
     19          6           0       -1.813136    1.716927   -0.788559
     20          6           0        3.536884    1.315653    3.930761
     21          6           0       -0.096587    0.034952    2.432734
     22          6           0       -3.411078    0.069248   -4.217187
     23          6           0        0.765487    0.680099    1.520824
     24          6           0       -2.171065    0.741722   -4.212738
     25          6           0        3.910475    1.238455    2.575556
     26          6           0       -0.552220    1.603263   -1.400710
     27          6           0        0.167423    2.745408   -1.738972
     28          6           0        4.351198    2.376208    1.905498
     29          6           0       -2.134938    2.130893   -4.300006
     30          6           0        0.890154    2.066174    1.550505
     31          6           0       -0.376030    4.006597   -1.460983
     32          6           0        4.394731    3.599861    2.586909
     33          6           0        0.152247    2.803138    2.483297
     34          6           0       -3.337055    2.846962   -4.354559
     35          6           0       -0.705160    2.159309    3.384021
     36          6           0       -4.567259    2.177711   -4.334064
     37          6           0       -1.630973    4.117031   -0.848778
     38          6           0        4.005901    3.677970    3.930366
     39          6           0       -2.357559    2.972279   -0.508805
     40          6           0        3.578654    2.534893    4.612442
     41          6           0       -4.611941    0.782557   -4.270616
     42          6           0       -0.834751    0.768676    3.364743
     43          1           0       -1.497982    0.268152    4.066319
     44          1           0       -5.567742    0.263695   -4.272631
     45          1           0       -3.332117    3.063428   -0.035384
     46          1           0        3.286591    2.599083    5.657988
     47          1           0       -2.042794    5.100780   -0.636548
     48          1           0        4.043382    4.633365    4.448031
     49          1           0       -5.492707    2.747012   -4.375631
     50          1           0       -1.272064    2.745600    4.103382
     51          1           0        0.180277    4.904198   -1.720846
     52          1           0        4.735594    4.493844    2.070283
     53          1           0        0.247999    3.885345    2.506346
     54          1           0       -3.313189    3.932303   -4.408941
     55          1           0        1.144410    2.674637   -2.214923
     56          1           0        4.661671    2.328732    0.863205
     57          1           0        1.549104    2.583618    0.861581
     58          1           0       -1.189965    2.666160   -4.312380
     59          6           0        2.803151   -0.484077    5.659384
     60          6           0       -3.550654   -0.044638    0.002311
     61          6           0       -4.050190   -2.457155   -4.250206
     62          6           0       -0.682599   -2.470316    2.842930
     63          6           0        2.589026   -1.851265    5.852837
     64          6           0       -3.822228   -1.411832    0.092050
     65          6           0       -3.534491   -3.755885   -4.292033
     66          6           0       -0.421257   -3.778156    2.424337
     67          6           0        2.763392   -2.752369    4.794853
     68          6           0       -2.894960   -2.350273   -0.377488
     69          6           0       -2.150360   -3.970435   -4.309826
     70          6           0        0.480228   -4.023705    1.380831
     71          6           0       -1.263615   -2.885966   -4.275897
     72          6           0        1.130647   -2.959599    0.742201
     73          6           0        3.142785   -2.297357    3.526058
     74          6           0       -1.683589   -1.935097   -0.941344
     75          1           0       -0.190356   -3.066897   -4.296001
     76          1           0        1.828736   -3.165347   -0.067971
     77          1           0       -0.978720   -2.677683   -1.299539
     78          1           0        3.269196   -3.009479    2.715788
     79          1           0        2.599011   -3.814520    4.957051
     80          1           0       -3.115153   -3.411937   -0.304990
     81          1           0       -1.761419   -4.984888   -4.353472
     82          1           0        0.675595   -5.045393    1.063534
     83          1           0        2.292858   -2.218918    6.832328
     84          1           0       -4.759581   -1.749801    0.527646
     85          1           0       -4.212371   -4.605572   -4.317954
     86          1           0       -0.921357   -4.611371    2.912249
     87          1           0        2.684494    0.212147    6.486408
     88          1           0       -4.272008    0.684458    0.363806
     89          1           0       -5.125587   -2.295625   -4.245842
     90          1           0       -1.381879   -2.285148    3.654669
     91          6           0        5.283888   -0.689259    1.760081
     92          1           0        5.937624   -0.527599    2.623212
     93          1           0        5.702755   -0.142731    0.906200
     94          1           0        5.290875   -1.758681    1.518986
     95          6           0        0.096620   -0.156937   -3.138191
     96          6           0        3.035585   -0.360067    0.733301
     97          6           0        1.209895   -0.199665   -0.928950
     98          6           0       -0.278476   -0.137193   -5.603228
     99          1           0        0.520195   -0.884742   -5.684161
    100          1           0        0.170584    0.856931   -5.712331
    101          1           0       -0.976346   -0.291597   -6.432467
 ---------------------------------------------------------------------
 Rotational constants (GHZ):           0.0968027           0.0406282           0.0354899
 Leave Link  202 at Mon Mar 23 17:06:38 2026, MaxMem=   104857600 cpu:               0.0 elap:               0.0
 (Enter /sw/cluster/pub/apps//g16/l301.exe)
 Standard basis: 6-31+G(d) (6D, 7F)
 Ernie: Thresh=  0.10000D-02 Tol=  0.10000D-05 Strict=F.
  1171 basis functions,  2000 primitive gaussians,  1171 cartesian basis functions
   193 alpha electrons      193 beta electrons
       nuclear repulsion energy      8045.6111522532 Hartrees.
 IExCor=  402 DFT=T Ex+Corr=B3LYP ExCW=0 ScaHFX=  0.200000
 ScaDFX=  0.800000  0.720000  1.000000  0.810000 ScalE2=  1.000000  1.000000
 IRadAn=      5 IRanWt=     -1 IRanGd=            0 ICorTp=0 IEmpDi=  4
 NAtoms=  101 NActive=  101 NUniq=  101 SFac= 1.00D+00 NAtFMM=   60 NAOKFM=T Big=T
 Integral buffers will be    131072 words long.
 Raffenetti 2 integral format.
 Two-electron integral symmetry is turned off.
 Leave Link  301 at Mon Mar 23 17:06:38 2026, MaxMem=   104857600 cpu:               0.1 elap:               0.0
 (Enter /sw/cluster/pub/apps//g16/l302.exe)
 NPDir=0 NMtPBC=     1 NCelOv=     1 NCel=       1 NClECP=     1 NCelD=      1
         NCelK=      1 NCelE2=     1 NClLst=     1 CellRange=     0.0.
 One-electron integrals computed using PRISM.
 NBasis=  1171 RedAO= T EigKep=  1.10D-06  NBF=  1171
 NBsUse=  1141 1.00D-06 EigRej=  9.82D-07 NBFU=  1141
 Precomputing XC quadrature grid using
 IXCGrd= 4 IRadAn=           5 IRanWt=          -1 IRanGd=           0 AccXCQ= 0.00D+00.
 Generated NRdTot=       0 NPtTot=           0 NUsed=           0 NTot=          32
 NSgBfM=  1108  1098  1099  1107  1108 MxSgAt=   101 MxSgA2=   101.
 Leave Link  302 at Mon Mar 23 17:06:43 2026, MaxMem=   104857600 cpu:               9.0 elap:               2.3
 (Enter /sw/cluster/pub/apps//g16/l303.exe)
 DipDrv:  MaxL=1.
 Leave Link  303 at Mon Mar 23 17:06:43 2026, MaxMem=   104857600 cpu:               0.3 elap:               0.1
 (Enter /sw/cluster/pub/apps//g16/l401.exe)
 ExpMin= 4.38D-02 ExpMax= 3.05D+03 ExpMxC= 4.57D+02 IAcc=3 IRadAn=         5 AccDes= 0.00D+00
 Harris functional with IExCor=  402 and IRadAn=       5 diagonalized for initial guess.
 HarFok:  IExCor=  402 AccDes= 0.00D+00 IRadAn=         5 IDoV= 1 UseB2=F ITyADJ=14
 ICtDFT=  3500011 ScaDFX=  1.000000  1.000000  1.000000  1.000000
 FoFCou: FMM=F IPFlag=           0 FMFlag=      100000 FMFlg1=        2001
         NFxFlg=           0 DoJE=T BraDBF=F KetDBF=T FulRan=T
         wScrn=  0.000000 ICntrl=       500 IOpCl=  0 I1Cent=   200000004 NGrid=           0
         NMat0=    1 NMatS0=      1 NMatT0=    0 NMatD0=    1 NMtDS0=    0 NMtDT0=    0
 Symmetry not used in FoFCou.
 Harris En= -2198.65058398391    
 JPrj=0 DoOrth=F DoCkMO=F.
 Leave Link  401 at Mon Mar 23 17:06:59 2026, MaxMem=   104857600 cpu:              65.2 elap:              16.4
 (Enter /sw/cluster/pub/apps//g16/l502.exe)
 Two-electron integral symmetry not used.
 Closed shell SCF:
 Using DIIS extrapolation, IDIIS=  1040.
 NGot=   104857600 LenX=   102098934 LenY=   100726522
 Requested convergence on RMS density matrix=1.00D-08 within 128 cycles.
 Requested convergence on MAX density matrix=1.00D-06.
 Requested convergence on             energy=1.00D-06.
 No special actions if energy rises.
 Fock matrices will be formed incrementally for  20 cycles.

 Cycle   1  Pass 1  IDiag  1:
 FoFJK:  IHMeth= 1 ICntrl=       0 DoSepK=F KAlg= 0 I1Cent=           0 FoldK=F
 IRaf= 960000000 NMat=       1 IRICut=       1 DoRegI=T DoRafI=F ISym2E= 0 IDoP0=0 IntGTp=1.
 FoFCou: FMM=T IPFlag=           0 FMFlag=      100000 FMFlg1=        2001
         NFxFlg=           0 DoJE=F BraDBF=F KetDBF=F FulRan=T
         wScrn=  0.000000 ICntrl=         0 IOpCl=  0 I1Cent=           0 NGrid=           0
         NMat0=    1 NMatS0=      1 NMatT0=    0 NMatD0=    1 NMtDS0=    0 NMtDT0=    0
 Symmetry not used in FoFCou.
 FMM levels:  10  Number of levels for PrismC:   9
 E= -2197.47387698259    
 DIIS: error= 1.92D-02 at cycle   1 NSaved=   1.
 NSaved= 1 IEnMin= 1 EnMin= -2197.47387698259     IErMin= 1 ErrMin= 1.92D-02
 ErrMax= 1.92D-02  0.00D+00 EMaxC= 1.00D-01 BMatC= 1.08D+00 BMatP= 1.08D+00
 IDIUse=3 WtCom= 8.08D-01 WtEn= 1.92D-01
 Coeff-Com:  0.100D+01
 Coeff-En:   0.100D+01
 Coeff:      0.100D+01
 Gap=     0.181 Goal=   None    Shift=    0.000
 GapD=    0.181 DampG=1.000 DampE=0.500 DampFc=0.5000 IDamp=-1.
 Damping current iteration by 5.00D-01
 RMSDP=6.08D-02 MaxDP=4.84D+00              OVMax= 1.75D-01

 Cycle   2  Pass 1  IDiag  1:
 RMSU=  2.29D-02    CP:  1.25D+00
 E= -2197.99864647510     Delta-E=       -0.524769492511 Rises=F Damp=T
 DIIS: error= 4.79D-03 at cycle   2 NSaved=   2.
 NSaved= 2 IEnMin= 2 EnMin= -2197.99864647510     IErMin= 2 ErrMin= 4.79D-03
 ErrMax= 4.79D-03  0.00D+00 EMaxC= 1.00D-01 BMatC= 7.21D-02 BMatP= 1.08D+00
 IDIUse=3 WtCom= 9.52D-01 WtEn= 4.79D-02
 Coeff-Com:  0.271D-01 0.973D+00
 Coeff-En:   0.851D-01 0.915D+00
 Coeff:      0.299D-01 0.970D+00
 Gap=     0.226 Goal=   None    Shift=    0.000
 RMSDP=4.74D-02 MaxDP=3.92D+00 DE=-5.25D-01 OVMax= 1.29D-01

 Cycle   3  Pass 1  IDiag  1:
 RMSU=  9.24D-03    CP:  7.03D-01  3.17D-01
 E= -2198.62247058380     Delta-E=       -0.623824108705 Rises=F Damp=F
 DIIS: error= 3.73D-03 at cycle   3 NSaved=   3.
 NSaved= 3 IEnMin= 3 EnMin= -2198.62247058380     IErMin= 3 ErrMin= 3.73D-03
 ErrMax= 3.73D-03  0.00D+00 EMaxC= 1.00D-01 BMatC= 4.05D-02 BMatP= 7.21D-02
 IDIUse=3 WtCom= 9.63D-01 WtEn= 3.73D-02
 Coeff-Com: -0.460D-01 0.418D+00 0.628D+00
 Coeff-En:   0.000D+00 0.000D+00 0.100D+01
 Coeff:     -0.443D-01 0.403D+00 0.642D+00
 Gap=     0.185 Goal=   None    Shift=    0.000
 RMSDP=8.57D-03 MaxDP=6.57D-01 DE=-6.24D-01 OVMax= 7.09D-02

 Cycle   4  Pass 1  IDiag  1:
 RMSU=  5.64D-03    CP:  7.60D-01  3.98D-01  5.53D-01
 E= -2198.63071399894     Delta-E=       -0.008243415134 Rises=F Damp=F
 DIIS: error= 4.55D-03 at cycle   4 NSaved=   4.
 NSaved= 4 IEnMin= 4 EnMin= -2198.63071399894     IErMin= 3 ErrMin= 3.73D-03
 ErrMax= 4.55D-03  0.00D+00 EMaxC= 1.00D-01 BMatC= 3.48D-02 BMatP= 4.05D-02
 IDIUse=3 WtCom= 9.54D-01 WtEn= 4.55D-02
 Coeff-Com: -0.406D-01 0.185D+00 0.477D+00 0.378D+00
 Coeff-En:   0.000D+00 0.000D+00 0.458D+00 0.542D+00
 Coeff:     -0.388D-01 0.177D+00 0.476D+00 0.386D+00
 Gap=     0.173 Goal=   None    Shift=    0.000
 RMSDP=3.00D-03 MaxDP=1.31D-01 DE=-8.24D-03 OVMax= 4.20D-02

 Cycle   5  Pass 1  IDiag  1:
 RMSU=  1.81D-03    CP:  7.59D-01  4.22D-01  6.85D-01  6.47D-01
 E= -2198.66587107041     Delta-E=       -0.035157071467 Rises=F Damp=F
 DIIS: error= 7.57D-04 at cycle   5 NSaved=   5.
 NSaved= 5 IEnMin= 5 EnMin= -2198.66587107041     IErMin= 5 ErrMin= 7.57D-04
 ErrMax= 7.57D-04  0.00D+00 EMaxC= 1.00D-01 BMatC= 1.56D-03 BMatP= 3.48D-02
 IDIUse=3 WtCom= 9.92D-01 WtEn= 7.57D-03
 Coeff-Com: -0.166D-01 0.501D-01 0.186D+00 0.221D+00 0.560D+00
 Coeff-En:   0.000D+00 0.000D+00 0.000D+00 0.529D-02 0.995D+00
 Coeff:     -0.165D-01 0.497D-01 0.184D+00 0.220D+00 0.563D+00
 Gap=     0.174 Goal=   None    Shift=    0.000
 RMSDP=9.33D-04 MaxDP=6.00D-02 DE=-3.52D-02 OVMax= 1.14D-02

 Cycle   6  Pass 1  IDiag  1:
 RMSU=  6.26D-04    CP:  7.56D-01  4.16D-01  7.05D-01  6.63D-01  6.78D-01
 E= -2198.66715932054     Delta-E=       -0.001288250134 Rises=F Damp=F
 DIIS: error= 3.05D-04 at cycle   6 NSaved=   6.
 NSaved= 6 IEnMin= 6 EnMin= -2198.66715932054     IErMin= 6 ErrMin= 3.05D-04
 ErrMax= 3.05D-04  0.00D+00 EMaxC= 1.00D-01 BMatC= 3.62D-04 BMatP= 1.56D-03
 IDIUse=3 WtCom= 9.97D-01 WtEn= 3.05D-03
 Coeff-Com: -0.648D-02 0.126D-01 0.672D-01 0.101D+00 0.385D+00 0.442D+00
 Coeff-En:   0.000D+00 0.000D+00 0.000D+00 0.000D+00 0.218D+00 0.782D+00
 Coeff:     -0.646D-02 0.125D-01 0.669D-01 0.100D+00 0.384D+00 0.443D+00
 Gap=     0.173 Goal=   None    Shift=    0.000
 RMSDP=3.19D-04 MaxDP=1.68D-02 DE=-1.29D-03 OVMax= 4.94D-03

 Cycle   7  Pass 1  IDiag  1:
 RMSU=  1.59D-04    CP:  7.56D-01  4.17D-01  7.08D-01  6.54D-01  7.31D-01
                    CP:  5.96D-01
 E= -2198.66755108569     Delta-E=       -0.000391765147 Rises=F Damp=F
 DIIS: error= 1.07D-04 at cycle   7 NSaved=   7.
 NSaved= 7 IEnMin= 7 EnMin= -2198.66755108569     IErMin= 7 ErrMin= 1.07D-04
 ErrMax= 1.07D-04  0.00D+00 EMaxC= 1.00D-01 BMatC= 2.17D-05 BMatP= 3.62D-04
 IDIUse=3 WtCom= 9.99D-01 WtEn= 1.07D-03
 Coeff-Com: -0.306D-02 0.479D-02 0.307D-01 0.497D-01 0.210D+00 0.280D+00
 Coeff-Com:  0.428D+00
 Coeff-En:   0.000D+00 0.000D+00 0.000D+00 0.000D+00 0.000D+00 0.000D+00
 Coeff-En:   0.100D+01
 Coeff:     -0.306D-02 0.478D-02 0.307D-01 0.496D-01 0.210D+00 0.280D+00
 Coeff:      0.428D+00
 Gap=     0.173 Goal=   None    Shift=    0.000
 RMSDP=8.16D-05 MaxDP=7.32D-03 DE=-3.92D-04 OVMax= 1.26D-03

 Cycle   8  Pass 1  IDiag  1:
 RMSU=  4.87D-05    CP:  7.56D-01  4.17D-01  7.07D-01  6.57D-01  7.43D-01
                    CP:  6.11D-01  6.28D-01
 E= -2198.66757324473     Delta-E=       -0.000022159040 Rises=F Damp=F
 DIIS: error= 2.69D-05 at cycle   8 NSaved=   8.
 NSaved= 8 IEnMin= 8 EnMin= -2198.66757324473     IErMin= 8 ErrMin= 2.69D-05
 ErrMax= 2.69D-05  0.00D+00 EMaxC= 1.00D-01 BMatC= 1.76D-06 BMatP= 2.17D-05
 IDIUse=1 WtCom= 1.00D+00 WtEn= 0.00D+00
 Coeff-Com: -0.846D-03 0.965D-03 0.799D-02 0.143D-01 0.656D-01 0.994D-01
 Coeff-Com:  0.252D+00 0.560D+00
 Coeff:     -0.846D-03 0.965D-03 0.799D-02 0.143D-01 0.656D-01 0.994D-01
 Coeff:      0.252D+00 0.560D+00
 Gap=     0.173 Goal=   None    Shift=    0.000
 RMSDP=2.74D-05 MaxDP=1.56D-03 DE=-2.22D-05 OVMax= 3.94D-04

 Cycle   9  Pass 1  IDiag  1:
 RMSU=  1.79D-05    CP:  7.56D-01  4.16D-01  7.07D-01  6.58D-01  7.43D-01
                    CP:  5.96D-01  6.63D-01  8.10D-01
 E= -2198.66757495327     Delta-E=       -0.000001708542 Rises=F Damp=F
 DIIS: error= 8.39D-06 at cycle   9 NSaved=   9.
 NSaved= 9 IEnMin= 9 EnMin= -2198.66757495327     IErMin= 9 ErrMin= 8.39D-06
 ErrMax= 8.39D-06  0.00D+00 EMaxC= 1.00D-01 BMatC= 2.86D-07 BMatP= 1.76D-06
 IDIUse=1 WtCom= 1.00D+00 WtEn= 0.00D+00
 Coeff-Com: -0.142D-03 0.153D-04 0.967D-03 0.262D-02 0.133D-01 0.255D-01
 Coeff-Com:  0.981D-01 0.345D+00 0.514D+00
 Coeff:     -0.142D-03 0.153D-04 0.967D-03 0.262D-02 0.133D-01 0.255D-01
 Coeff:      0.981D-01 0.345D+00 0.514D+00
 Gap=     0.173 Goal=   None    Shift=    0.000
 RMSDP=9.21D-06 MaxDP=6.83D-04 DE=-1.71D-06 OVMax= 1.20D-04

 Cycle  10  Pass 1  IDiag  1:
 RMSU=  4.89D-06    CP:  7.56D-01  4.16D-01  7.07D-01  6.57D-01  7.42D-01
                    CP:  6.02D-01  6.59D-01  7.99D-01  7.28D-01
 E= -2198.66757526216     Delta-E=       -0.000000308897 Rises=F Damp=F
 DIIS: error= 2.18D-06 at cycle  10 NSaved=  10.
 NSaved=10 IEnMin=10 EnMin= -2198.66757526216     IErMin=10 ErrMin= 2.18D-06
 ErrMax= 2.18D-06  0.00D+00 EMaxC= 1.00D-01 BMatC= 1.60D-08 BMatP= 2.86D-07
 IDIUse=1 WtCom= 1.00D+00 WtEn= 0.00D+00
 Coeff-Com:  0.208D-05-0.774D-04-0.290D-03 0.547D-04 0.611D-03 0.387D-02
 Coeff-Com:  0.249D-01 0.119D+00 0.256D+00 0.596D+00
 Coeff:      0.208D-05-0.774D-04-0.290D-03 0.547D-04 0.611D-03 0.387D-02
 Coeff:      0.249D-01 0.119D+00 0.256D+00 0.596D+00
 Gap=     0.173 Goal=   None    Shift=    0.000
 RMSDP=2.69D-06 MaxDP=1.80D-04 DE=-3.09D-07 OVMax= 2.85D-05

 Cycle  11  Pass 1  IDiag  1:
 RMSU=  1.98D-06    CP:  7.56D-01  4.16D-01  7.07D-01  6.57D-01  7.42D-01
                    CP:  6.04D-01  6.62D-01  7.96D-01  6.89D-01  7.37D-01
 E= -2198.66757527748     Delta-E=       -0.000000015314 Rises=F Damp=F
 DIIS: error= 1.11D-06 at cycle  11 NSaved=  11.
 NSaved=11 IEnMin=11 EnMin= -2198.66757527748     IErMin=11 ErrMin= 1.11D-06
 ErrMax= 1.11D-06  0.00D+00 EMaxC= 1.00D-01 BMatC= 2.57D-09 BMatP= 1.60D-08
 IDIUse=1 WtCom= 1.00D+00 WtEn= 0.00D+00
 Coeff-Com:  0.124D-04-0.386D-04-0.259D-03-0.207D-03-0.954D-03-0.322D-03
 Coeff-Com:  0.392D-02 0.317D-01 0.929D-01 0.345D+00 0.528D+00
 Coeff:      0.124D-04-0.386D-04-0.259D-03-0.207D-03-0.954D-03-0.322D-03
 Coeff:      0.392D-02 0.317D-01 0.929D-01 0.345D+00 0.528D+00
 Gap=     0.173 Goal=   None    Shift=    0.000
 RMSDP=1.04D-06 MaxDP=6.19D-05 DE=-1.53D-08 OVMax= 1.19D-05

 Cycle  12  Pass 1  IDiag  1:
 RMSU=  5.86D-07    CP:  7.56D-01  4.16D-01  7.07D-01  6.57D-01  7.42D-01
                    CP:  6.03D-01  6.63D-01  7.99D-01  7.00D-01  7.98D-01
                    CP:  6.79D-01
 E= -2198.66757527921     Delta-E=       -0.000000001726 Rises=F Damp=F
 DIIS: error= 2.99D-07 at cycle  12 NSaved=  12.
 NSaved=12 IEnMin=12 EnMin= -2198.66757527921     IErMin=12 ErrMin= 2.99D-07
 ErrMax= 2.99D-07  0.00D+00 EMaxC= 1.00D-01 BMatC= 2.57D-10 BMatP= 2.57D-09
 IDIUse=1 WtCom= 1.00D+00 WtEn= 0.00D+00
 Coeff-Com:  0.582D-05-0.135D-04-0.122D-03-0.115D-03-0.563D-03-0.439D-03
 Coeff-Com:  0.274D-03 0.855D-02 0.330D-01 0.152D+00 0.309D+00 0.498D+00
 Coeff:      0.582D-05-0.135D-04-0.122D-03-0.115D-03-0.563D-03-0.439D-03
 Coeff:      0.274D-03 0.855D-02 0.330D-01 0.152D+00 0.309D+00 0.498D+00
 Gap=     0.173 Goal=   None    Shift=    0.000
 RMSDP=3.62D-07 MaxDP=2.31D-05 DE=-1.73D-09 OVMax= 4.10D-06

 Cycle  13  Pass 1  IDiag  1:
 RMSU=  1.82D-07    CP:  7.56D-01  4.16D-01  7.07D-01  6.57D-01  7.42D-01
                    CP:  6.03D-01  6.62D-01  8.01D-01  7.08D-01  7.96D-01
                    CP:  6.87D-01  6.84D-01
 E= -2198.66757528006     Delta-E=       -0.000000000853 Rises=F Damp=F
 DIIS: error= 8.37D-08 at cycle  13 NSaved=  13.
 NSaved=13 IEnMin=13 EnMin= -2198.66757528006     IErMin=13 ErrMin= 8.37D-08
 ErrMax= 8.37D-08  0.00D+00 EMaxC= 1.00D-01 BMatC= 2.20D-11 BMatP= 2.57D-10
 IDIUse=1 WtCom= 1.00D+00 WtEn= 0.00D+00
 Coeff-Com:  0.171D-05-0.318D-05-0.389D-04-0.411D-04-0.202D-03-0.193D-03
 Coeff-Com: -0.285D-03 0.123D-02 0.793D-02 0.452D-01 0.109D+00 0.275D+00
 Coeff-Com:  0.562D+00
 Coeff:      0.171D-05-0.318D-05-0.389D-04-0.411D-04-0.202D-03-0.193D-03
 Coeff:     -0.285D-03 0.123D-02 0.793D-02 0.452D-01 0.109D+00 0.275D+00
 Coeff:      0.562D+00
 Gap=     0.173 Goal=   None    Shift=    0.000
 RMSDP=9.71D-08 MaxDP=8.17D-06 DE=-8.53D-10 OVMax= 1.00D-06

 Cycle  14  Pass 1  IDiag  1:
 RMSU=  5.66D-08    CP:  7.56D-01  4.16D-01  7.07D-01  6.57D-01  7.42D-01
                    CP:  6.03D-01  6.62D-01  8.00D-01  7.08D-01  8.01D-01
                    CP:  6.87D-01  7.16D-01  7.77D-01
 E= -2198.66757527974     Delta-E=        0.000000000320 Rises=F Damp=F
 DIIS: error= 3.79D-08 at cycle  14 NSaved=  14.
 NSaved=14 IEnMin=13 EnMin= -2198.66757528006     IErMin=14 ErrMin= 3.79D-08
 ErrMax= 3.79D-08  0.00D+00 EMaxC= 1.00D-01 BMatC= 2.83D-12 BMatP= 2.20D-11
 IDIUse=1 WtCom= 1.00D+00 WtEn= 0.00D+00
 Coeff-Com:  0.301D-06-0.196D-06-0.759D-05-0.106D-04-0.493D-04-0.572D-04
 Coeff-Com: -0.219D-03-0.429D-03 0.264D-03 0.605D-02 0.210D-01 0.917D-01
 Coeff-Com:  0.320D+00 0.562D+00
 Coeff:      0.301D-06-0.196D-06-0.759D-05-0.106D-04-0.493D-04-0.572D-04
 Coeff:     -0.219D-03-0.429D-03 0.264D-03 0.605D-02 0.210D-01 0.917D-01
 Coeff:      0.320D+00 0.562D+00
 Gap=     0.173 Goal=   None    Shift=    0.000
 RMSDP=3.04D-08 MaxDP=1.59D-06 DE= 3.20D-10 OVMax= 3.34D-07

 Cycle  15  Pass 1  IDiag  1:
 RMSU=  1.80D-08    CP:  7.56D-01  4.16D-01  7.07D-01  6.57D-01  7.42D-01
                    CP:  6.03D-01  6.62D-01  8.00D-01  7.08D-01  8.01D-01
                    CP:  6.92D-01  7.14D-01  8.05D-01  7.06D-01
 E= -2198.66757528021     Delta-E=       -0.000000000475 Rises=F Damp=F
 DIIS: error= 1.08D-08 at cycle  15 NSaved=  15.
 NSaved=15 IEnMin=15 EnMin= -2198.66757528021     IErMin=15 ErrMin= 1.08D-08
 ErrMax= 1.08D-08  0.00D+00 EMaxC= 1.00D-01 BMatC= 2.82D-13 BMatP= 2.83D-12
 IDIUse=1 WtCom= 1.00D+00 WtEn= 0.00D+00
 Coeff-Com: -0.114D-07 0.234D-06-0.285D-07-0.158D-05-0.651D-05-0.108D-04
 Coeff-Com: -0.934D-04-0.365D-03-0.687D-03-0.153D-02-0.458D-03 0.205D-01
 Coeff-Com:  0.118D+00 0.300D+00 0.565D+00
 Coeff:     -0.114D-07 0.234D-06-0.285D-07-0.158D-05-0.651D-05-0.108D-04
 Coeff:     -0.934D-04-0.365D-03-0.687D-03-0.153D-02-0.458D-03 0.205D-01
 Coeff:      0.118D+00 0.300D+00 0.565D+00
 Gap=     0.173 Goal=   None    Shift=    0.000
 RMSDP=1.27D-08 MaxDP=1.02D-06 DE=-4.75D-10 OVMax= 1.44D-07

 Cycle  16  Pass 1  IDiag  1:
 RMSU=  7.52D-09    CP:  7.56D-01  4.16D-01  7.07D-01  6.57D-01  7.42D-01
                    CP:  6.03D-01  6.62D-01  8.00D-01  7.08D-01  8.00D-01
                    CP:  6.91D-01  7.22D-01  8.12D-01  7.15D-01  7.31D-01
 E= -2198.66757528013     Delta-E=        0.000000000087 Rises=F Damp=F
 DIIS: error= 6.60D-09 at cycle  16 NSaved=  16.
 NSaved=16 IEnMin=15 EnMin= -2198.66757528021     IErMin=16 ErrMin= 6.60D-09
 ErrMax= 6.60D-09  0.00D+00 EMaxC= 1.00D-01 BMatC= 6.90D-14 BMatP= 2.82D-13
 IDIUse=1 WtCom= 1.00D+00 WtEn= 0.00D+00
 Coeff-Com: -0.522D-07 0.168D-06 0.127D-05 0.799D-06 0.431D-05 0.311D-05
 Coeff-Com: -0.190D-04-0.148D-03-0.470D-03-0.205D-02-0.415D-02-0.363D-02
 Coeff-Com:  0.178D-01 0.866D-01 0.363D+00 0.543D+00
 Coeff:     -0.522D-07 0.168D-06 0.127D-05 0.799D-06 0.431D-05 0.311D-05
 Coeff:     -0.190D-04-0.148D-03-0.470D-03-0.205D-02-0.415D-02-0.363D-02
 Coeff:      0.178D-01 0.866D-01 0.363D+00 0.543D+00
 Gap=     0.173 Goal=   None    Shift=    0.000
 RMSDP=4.41D-09 MaxDP=2.98D-07 DE= 8.73D-11 OVMax= 5.99D-08

 SCF Done:  E(RB3LYP) =  -2198.66757528     A.U. after   16 cycles
            NFock= 16  Conv=0.44D-08     -V/T= 2.0097
 KE= 2.177634539027D+03 PE=-2.118049573772D+04 EE= 8.758582471164D+03
 Leave Link  502 at Mon Mar 23 17:37:47 2026, MaxMem=   104857600 cpu:            7375.6 elap:            1847.0
 (Enter /sw/cluster/pub/apps//g16/l601.exe)
 Copying SCF densities to generalized density rwf, IOpCl= 0 IROHF=0.
 Hyperfine terms turned off by default for NAtoms > 100.

 **********************************************************************

            Population analysis using the SCF density.

 **********************************************************************

 Alpha  occ. eigenvalues --  -10.21779 -10.21779 -10.21532 -10.21532 -10.20196
 Alpha  occ. eigenvalues --  -10.20089 -10.20089 -10.19344 -10.19344 -10.19303
 Alpha  occ. eigenvalues --  -10.19303 -10.19282 -10.19282 -10.19248 -10.19248
 Alpha  occ. eigenvalues --  -10.19232 -10.19232 -10.19194 -10.19194 -10.19183
 Alpha  occ. eigenvalues --  -10.19183 -10.19169 -10.19169 -10.19160 -10.19160
 Alpha  occ. eigenvalues --  -10.19112 -10.19112 -10.19058 -10.19058 -10.19036
 Alpha  occ. eigenvalues --  -10.19036 -10.18987 -10.18986 -10.18980 -10.18979
 Alpha  occ. eigenvalues --  -10.18933 -10.18933 -10.18924 -10.18924 -10.18829
 Alpha  occ. eigenvalues --  -10.18828 -10.18768 -10.18767 -10.18722 -10.18721
 Alpha  occ. eigenvalues --  -10.18706 -10.18706 -10.18562 -10.18562 -10.18552
 Alpha  occ. eigenvalues --  -10.18552 -10.18471 -10.18471 -10.18283 -10.18283
 Alpha  occ. eigenvalues --  -10.18218 -10.18218  -0.89515  -0.89109  -0.88536
 Alpha  occ. eigenvalues --   -0.88011  -0.84322  -0.84300  -0.84096  -0.83910
 Alpha  occ. eigenvalues --   -0.82678  -0.81804  -0.80554  -0.79491  -0.77715
 Alpha  occ. eigenvalues --   -0.77549  -0.77085  -0.76345  -0.74289  -0.74253
 Alpha  occ. eigenvalues --   -0.74060  -0.74018  -0.73749  -0.73624  -0.72763
 Alpha  occ. eigenvalues --   -0.71299  -0.71297  -0.71096  -0.71020  -0.71002
 Alpha  occ. eigenvalues --   -0.67748  -0.65324  -0.64571  -0.64420  -0.64345
 Alpha  occ. eigenvalues --   -0.62739  -0.62185  -0.61972  -0.61943  -0.58495
 Alpha  occ. eigenvalues --   -0.58428  -0.58219  -0.58017  -0.57687  -0.57510
 Alpha  occ. eigenvalues --   -0.57501  -0.57290  -0.57088  -0.55961  -0.55132
 Alpha  occ. eigenvalues --   -0.55066  -0.51526  -0.51057  -0.50668  -0.50660
 Alpha  occ. eigenvalues --   -0.50059  -0.49720  -0.49274  -0.48803  -0.47732
 Alpha  occ. eigenvalues --   -0.47448  -0.46652  -0.46486  -0.46016  -0.45509
 Alpha  occ. eigenvalues --   -0.45331  -0.45276  -0.44583  -0.44484  -0.44362
 Alpha  occ. eigenvalues --   -0.44001  -0.43972  -0.43816  -0.43605  -0.43586
 Alpha  occ. eigenvalues --   -0.43481  -0.43300  -0.42677  -0.42103  -0.41808
 Alpha  occ. eigenvalues --   -0.41712  -0.41674  -0.41666  -0.41544  -0.41493
 Alpha  occ. eigenvalues --   -0.41378  -0.41097  -0.40388  -0.39520  -0.39207
 Alpha  occ. eigenvalues --   -0.38777  -0.38497  -0.38304  -0.38290  -0.38211
 Alpha  occ. eigenvalues --   -0.38204  -0.37740  -0.37399  -0.37252  -0.36768
 Alpha  occ. eigenvalues --   -0.35780  -0.35549  -0.35036  -0.34949  -0.34903
 Alpha  occ. eigenvalues --   -0.34802  -0.34765  -0.34637  -0.34527  -0.34286
 Alpha  occ. eigenvalues --   -0.34065  -0.33966  -0.33756  -0.32969  -0.32764
 Alpha  occ. eigenvalues --   -0.32470  -0.32221  -0.32188  -0.31772  -0.31691
 Alpha  occ. eigenvalues --   -0.31426  -0.31033  -0.28116  -0.28069  -0.27963
 Alpha  occ. eigenvalues --   -0.27583  -0.25571  -0.25524  -0.25066  -0.24971
 Alpha  occ. eigenvalues --   -0.24544  -0.24096  -0.23825  -0.22581  -0.21538
 Alpha  occ. eigenvalues --   -0.21416  -0.21164  -0.20963
 Alpha virt. eigenvalues --   -0.03640  -0.03595  -0.03425  -0.03169  -0.02140
 Alpha virt. eigenvalues --   -0.02071  -0.01817  -0.01279  -0.01178  -0.00118
 Alpha virt. eigenvalues --    0.00016   0.00186   0.00354   0.00416   0.00450
 Alpha virt. eigenvalues --    0.00606   0.01252   0.01328   0.01466   0.01491
 Alpha virt. eigenvalues --    0.01701   0.02327   0.02588   0.02977   0.03044
 Alpha virt. eigenvalues --    0.03051   0.03180   0.03256   0.03370   0.03503
 Alpha virt. eigenvalues --    0.03748   0.03800   0.04190   0.04225   0.04263
 Alpha virt. eigenvalues --    0.04716   0.05091   0.05326   0.05368   0.05578
 Alpha virt. eigenvalues --    0.05840   0.06152   0.06212   0.06400   0.06656
 Alpha virt. eigenvalues --    0.06673   0.07101   0.07341   0.07601   0.07627
 Alpha virt. eigenvalues --    0.07750   0.08093   0.08160   0.08506   0.08648
 Alpha virt. eigenvalues --    0.08969   0.09208   0.09338   0.09365   0.09519
 Alpha virt. eigenvalues --    0.09997   0.10212   0.10286   0.10548   0.10813
 Alpha virt. eigenvalues --    0.10837   0.11316   0.11395   0.11485   0.11793
 Alpha virt. eigenvalues --    0.11801   0.12118   0.12391   0.12444   0.12476
 Alpha virt. eigenvalues --    0.12517   0.12733   0.12829   0.13097   0.13294
 Alpha virt. eigenvalues --    0.13553   0.13699   0.13912   0.13922   0.14373
 Alpha virt. eigenvalues --    0.14414   0.14737   0.14769   0.14808   0.15112
 Alpha virt. eigenvalues --    0.15287   0.15364   0.15495   0.15712   0.15806
 Alpha virt. eigenvalues --    0.15987   0.15989   0.16182   0.16406   0.16828
 Alpha virt. eigenvalues --    0.16871   0.16988   0.17085   0.17305   0.17395
 Alpha virt. eigenvalues --    0.17506   0.17590   0.17629   0.17846   0.17933
 Alpha virt. eigenvalues --    0.18204   0.18217   0.18258   0.18335   0.18490
 Alpha virt. eigenvalues --    0.18563   0.18725   0.18841   0.18983   0.19255
 Alpha virt. eigenvalues --    0.19321   0.19414   0.19515   0.19553   0.19638
 Alpha virt. eigenvalues --    0.19734   0.19921   0.20163   0.20237   0.20270
 Alpha virt. eigenvalues --    0.20333   0.20353   0.20524   0.20560   0.20764
 Alpha virt. eigenvalues --    0.20896   0.20939   0.21151   0.21184   0.21327
 Alpha virt. eigenvalues --    0.21383   0.21578   0.21866   0.22131   0.22165
 Alpha virt. eigenvalues --    0.22212   0.22344   0.22379   0.22416   0.22561
 Alpha virt. eigenvalues --    0.22666   0.22738   0.22789   0.23046   0.23231
 Alpha virt. eigenvalues --    0.23243   0.23305   0.23434   0.23519   0.23694
 Alpha virt. eigenvalues --    0.23917   0.24044   0.24266   0.24387   0.24519
 Alpha virt. eigenvalues --    0.24580   0.24749   0.24791   0.24918   0.24932
 Alpha virt. eigenvalues --    0.25085   0.25379   0.25601   0.25712   0.25752
 Alpha virt. eigenvalues --    0.25853   0.26177   0.26283   0.26453   0.26524
 Alpha virt. eigenvalues --    0.26637   0.26672   0.26764   0.26784   0.27144
 Alpha virt. eigenvalues --    0.27192   0.27421   0.27447   0.27682   0.27749
 Alpha virt. eigenvalues --    0.27938   0.28019   0.28334   0.28395   0.28503
 Alpha virt. eigenvalues --    0.28630   0.28669   0.28728   0.28989   0.29050
 Alpha virt. eigenvalues --    0.29148   0.29245   0.29344   0.29606   0.29745
 Alpha virt. eigenvalues --    0.29821   0.29824   0.30129   0.30137   0.30183
 Alpha virt. eigenvalues --    0.30209   0.30629   0.30700   0.31004   0.31215
 Alpha virt. eigenvalues --    0.31339   0.31388   0.31636   0.31720   0.31904
 Alpha virt. eigenvalues --    0.31912   0.32235   0.32673   0.32682   0.32795
 Alpha virt. eigenvalues --    0.32845   0.32881   0.33094   0.33099   0.33354
 Alpha virt. eigenvalues --    0.33570   0.33802   0.33880   0.34085   0.34287
 Alpha virt. eigenvalues --    0.34366   0.34503   0.34759   0.34957   0.34983
 Alpha virt. eigenvalues --    0.35097   0.35178   0.35271   0.35378   0.35424
 Alpha virt. eigenvalues --    0.35650   0.35840   0.36075   0.36253   0.36389
 Alpha virt. eigenvalues --    0.36674   0.36960   0.37014   0.37157   0.37341
 Alpha virt. eigenvalues --    0.37379   0.37562   0.37628   0.38123   0.38312
 Alpha virt. eigenvalues --    0.38314   0.38559   0.38794   0.38848   0.38880
 Alpha virt. eigenvalues --    0.39110   0.39611   0.39849   0.40023   0.40111
 Alpha virt. eigenvalues --    0.40113   0.40880   0.41009   0.41074   0.41147
 Alpha virt. eigenvalues --    0.41317   0.41707   0.41775   0.42069   0.42270
 Alpha virt. eigenvalues --    0.42805   0.42856   0.43083   0.43572   0.43757
 Alpha virt. eigenvalues --    0.44019   0.44292   0.44619   0.44933   0.45285
 Alpha virt. eigenvalues --    0.45641   0.45851   0.46103   0.46767   0.47325
 Alpha virt. eigenvalues --    0.47387   0.47484   0.48010   0.48315   0.48555
 Alpha virt. eigenvalues --    0.48613   0.48767   0.49070   0.49909   0.50035
 Alpha virt. eigenvalues --    0.50622   0.51310   0.51675   0.51993   0.52032
 Alpha virt. eigenvalues --    0.52588   0.52857   0.53243   0.53274   0.54246
 Alpha virt. eigenvalues --    0.54453   0.55836   0.57586   0.58044   0.58918
 Alpha virt. eigenvalues --    0.58934   0.60372   0.63037   0.63108   0.63271
 Alpha virt. eigenvalues --    0.63282   0.63555   0.63619   0.64074   0.64138
 Alpha virt. eigenvalues --    0.65377   0.65638   0.65789   0.66875   0.70427
 Alpha virt. eigenvalues --    0.70765   0.70920   0.71220   0.71827   0.72236
 Alpha virt. eigenvalues --    0.72290   0.72503   0.72725   0.73245   0.73310
 Alpha virt. eigenvalues --    0.73757   0.73991   0.74249   0.74728   0.74864
 Alpha virt. eigenvalues --    0.75253   0.75332   0.75495   0.75503   0.76390
 Alpha virt. eigenvalues --    0.76450   0.76911   0.77105   0.77239   0.77508
 Alpha virt. eigenvalues --    0.77689   0.77984   0.78113   0.78310   0.78423
 Alpha virt. eigenvalues --    0.78488   0.78661   0.79134   0.79245   0.79721
 Alpha virt. eigenvalues --    0.79774   0.80040   0.80053   0.80533   0.80853
 Alpha virt. eigenvalues --    0.81085   0.81197   0.81470   0.81538   0.82126
 Alpha virt. eigenvalues --    0.82361   0.82480   0.82785   0.82976   0.83223
 Alpha virt. eigenvalues --    0.83239   0.83661   0.83802   0.84011   0.84183
 Alpha virt. eigenvalues --    0.84339   0.85176   0.85402   0.86015   0.86250
 Alpha virt. eigenvalues --    0.86489   0.86560   0.86833   0.87295   0.87704
 Alpha virt. eigenvalues --    0.87746   0.87880   0.88295   0.88431   0.89173
 Alpha virt. eigenvalues --    0.89213   0.89298   0.89435   0.89736   0.90030
 Alpha virt. eigenvalues --    0.90483   0.90905   0.91140   0.91171   0.91552
 Alpha virt. eigenvalues --    0.91756   0.91974   0.92202   0.92862   0.92984
 Alpha virt. eigenvalues --    0.93171   0.93340   0.93553   0.93599   0.94143
 Alpha virt. eigenvalues --    0.94194   0.94608   0.95054   0.95122   0.95694
 Alpha virt. eigenvalues --    0.96069   0.96148   0.96492   0.96856   0.96984
 Alpha virt. eigenvalues --    0.97307   0.97390   0.97424   0.97615   0.97755
 Alpha virt. eigenvalues --    0.97985   0.98602   0.98719   0.98821   0.99090
 Alpha virt. eigenvalues --    0.99257   0.99429   0.99562   0.99748   0.99840
 Alpha virt. eigenvalues --    1.01042   1.01249   1.01411   1.01473   1.01748
 Alpha virt. eigenvalues --    1.01911   1.02312   1.02838   1.02937   1.02987
 Alpha virt. eigenvalues --    1.03474   1.03496   1.04161   1.04267   1.04448
 Alpha virt. eigenvalues --    1.04921   1.05026   1.05301   1.05358   1.05723
 Alpha virt. eigenvalues --    1.06021   1.06154   1.06903   1.07088   1.07199
 Alpha virt. eigenvalues --    1.07526   1.07913   1.08316   1.08960   1.09334
 Alpha virt. eigenvalues --    1.09726   1.10297   1.10868   1.11150   1.11309
 Alpha virt. eigenvalues --    1.11569   1.12111   1.12768   1.13103   1.13632
 Alpha virt. eigenvalues --    1.13989   1.14590   1.14860   1.15619   1.15771
 Alpha virt. eigenvalues --    1.16018   1.16275   1.16490   1.16713   1.17270
 Alpha virt. eigenvalues --    1.17471   1.17931   1.18224   1.18587   1.19644
 Alpha virt. eigenvalues --    1.19700   1.19795   1.20283   1.20458   1.20644
 Alpha virt. eigenvalues --    1.20810   1.21500   1.21929   1.22275   1.22511
 Alpha virt. eigenvalues --    1.22794   1.22832   1.23410   1.23746   1.24404
 Alpha virt. eigenvalues --    1.24465   1.24852   1.24998   1.25117   1.25393
 Alpha virt. eigenvalues --    1.25559   1.25660   1.26362   1.27056   1.27294
 Alpha virt. eigenvalues --    1.27561   1.28336   1.28877   1.29109   1.29348
 Alpha virt. eigenvalues --    1.29918   1.30755   1.30856   1.31341   1.32132
 Alpha virt. eigenvalues --    1.32167   1.32848   1.32881   1.33102   1.33425
 Alpha virt. eigenvalues --    1.33612   1.33817   1.34782   1.35106   1.36301
 Alpha virt. eigenvalues --    1.36857   1.36985   1.37707   1.38523   1.38708
 Alpha virt. eigenvalues --    1.39007   1.39513   1.39891   1.39983   1.40999
 Alpha virt. eigenvalues --    1.41187   1.41857   1.42107   1.42214   1.42385
 Alpha virt. eigenvalues --    1.43462   1.43838   1.43925   1.44957   1.45156
 Alpha virt. eigenvalues --    1.45331   1.45436   1.46266   1.46701   1.46866
 Alpha virt. eigenvalues --    1.47283   1.47448   1.47916   1.48187   1.48246
 Alpha virt. eigenvalues --    1.48427   1.48906   1.49063   1.49600   1.49616
 Alpha virt. eigenvalues --    1.50036   1.50228   1.50371   1.50900   1.51071
 Alpha virt. eigenvalues --    1.51146   1.51485   1.51925   1.51966   1.52566
 Alpha virt. eigenvalues --    1.52578   1.52777   1.53104   1.53576   1.53818
 Alpha virt. eigenvalues --    1.54260   1.54392   1.54811   1.54842   1.56193
 Alpha virt. eigenvalues --    1.56214   1.57152   1.57593   1.58197   1.58618
 Alpha virt. eigenvalues --    1.58897   1.59068   1.59898   1.61202   1.62112
 Alpha virt. eigenvalues --    1.62376   1.62580   1.63187   1.64290   1.64536
 Alpha virt. eigenvalues --    1.65061   1.65897   1.66707   1.67019   1.67552
 Alpha virt. eigenvalues --    1.68962   1.69885   1.70224   1.71123   1.72024
 Alpha virt. eigenvalues --    1.72496   1.72896   1.74327   1.74933   1.75173
 Alpha virt. eigenvalues --    1.76078   1.78190   1.78690   1.79865   1.79901
 Alpha virt. eigenvalues --    1.80994   1.81054   1.81669   1.82283   1.82439
 Alpha virt. eigenvalues --    1.83071   1.83174   1.83416   1.83887   1.84021
 Alpha virt. eigenvalues --    1.84415   1.85060   1.85169   1.86470   1.86954
 Alpha virt. eigenvalues --    1.87360   1.87912   1.88182   1.88991   1.89410
 Alpha virt. eigenvalues --    1.89536   1.90033   1.90835   1.90995   1.91781
 Alpha virt. eigenvalues --    1.91901   1.92118   1.92716   1.92963   1.93614
 Alpha virt. eigenvalues --    1.93624   1.94586   1.94790   1.95652   1.95891
 Alpha virt. eigenvalues --    1.95929   1.97071   1.97444   1.97867   1.98100
 Alpha virt. eigenvalues --    1.98909   1.99213   1.99769   2.00488   2.01341
 Alpha virt. eigenvalues --    2.01483   2.02291   2.02384   2.02834   2.03087
 Alpha virt. eigenvalues --    2.03515   2.03633   2.04352   2.04479   2.05333
 Alpha virt. eigenvalues --    2.05601   2.06143   2.07383   2.07441   2.08213
 Alpha virt. eigenvalues --    2.08357   2.08516   2.08529   2.09297   2.09817
 Alpha virt. eigenvalues --    2.10198   2.10313   2.10902   2.10913   2.11902
 Alpha virt. eigenvalues --    2.12036   2.12182   2.12270   2.13021   2.13348
 Alpha virt. eigenvalues --    2.14170   2.14724   2.15316   2.15919   2.15959
 Alpha virt. eigenvalues --    2.16174   2.17200   2.17263   2.17985   2.18577
 Alpha virt. eigenvalues --    2.18641   2.19204   2.19397   2.20224   2.20515
 Alpha virt. eigenvalues --    2.20949   2.21084   2.21520   2.21995   2.22081
 Alpha virt. eigenvalues --    2.22175   2.22373   2.22741   2.23782   2.24387
 Alpha virt. eigenvalues --    2.24577   2.25245   2.25635   2.26106   2.26407
 Alpha virt. eigenvalues --    2.26717   2.26762   2.27339   2.27599   2.28429
 Alpha virt. eigenvalues --    2.28990   2.29509   2.29552   2.30089   2.30309
 Alpha virt. eigenvalues --    2.30495   2.30879   2.31010   2.31744   2.31955
 Alpha virt. eigenvalues --    2.32085   2.32351   2.32999   2.33324   2.33392
 Alpha virt. eigenvalues --    2.33847   2.34124   2.34694   2.34854   2.35480
 Alpha virt. eigenvalues --    2.35672   2.36365   2.37470   2.38161   2.38668
 Alpha virt. eigenvalues --    2.39666   2.40002   2.40944   2.41371   2.41825
 Alpha virt. eigenvalues --    2.42339   2.43086   2.43258   2.43824   2.44791
 Alpha virt. eigenvalues --    2.45162   2.45667   2.45899   2.47427   2.47545
 Alpha virt. eigenvalues --    2.48157   2.50488   2.51032   2.54221   2.54663
 Alpha virt. eigenvalues --    2.54848   2.56747   2.56973   2.58236   2.58581
 Alpha virt. eigenvalues --    2.58776   2.59755   2.60550   2.61267   2.61995
 Alpha virt. eigenvalues --    2.62529   2.62738   2.62871   2.63064   2.63388
 Alpha virt. eigenvalues --    2.63507   2.64158   2.64725   2.66144   2.66589
 Alpha virt. eigenvalues --    2.69262   2.69348   2.69992   2.69995   2.70421
 Alpha virt. eigenvalues --    2.70556   2.70656   2.71083   2.71386   2.72044
 Alpha virt. eigenvalues --    2.73681   2.73757   2.74411   2.74758   2.74993
 Alpha virt. eigenvalues --    2.75004   2.76162   2.76470   2.76668   2.76932
 Alpha virt. eigenvalues --    2.77802   2.77832   2.78199   2.79125   2.79161
 Alpha virt. eigenvalues --    2.79590   2.80316   2.80460   2.81067   2.81626
 Alpha virt. eigenvalues --    2.82717   2.83931   2.84213   2.84699   2.85097
 Alpha virt. eigenvalues --    2.85585   2.86143   2.86219   2.87427   2.88108
 Alpha virt. eigenvalues --    2.89003   2.89091   2.89575   2.90896   2.91895
 Alpha virt. eigenvalues --    2.92083   2.95197   2.96965   2.97336   2.98225
 Alpha virt. eigenvalues --    2.99869   3.02659   3.03129   3.04547   3.05546
 Alpha virt. eigenvalues --    3.05954   3.06583   3.07663   3.09909   3.12695
 Alpha virt. eigenvalues --    3.14073   3.14342   3.16748   3.23753   3.30020
 Alpha virt. eigenvalues --    3.30252   3.32010   3.32753   3.35152   3.35249
 Alpha virt. eigenvalues --    3.36597   3.36726   3.50600   3.50770   3.51630
 Alpha virt. eigenvalues --    3.52286   4.32709   4.33162   4.35234   4.35362
 Alpha virt. eigenvalues --    4.35951   4.37278   4.37645   4.38102   4.38342
 Alpha virt. eigenvalues --    4.39120   4.39703   4.41286   4.42341   4.42709
 Alpha virt. eigenvalues --    4.43096   4.43175   4.43354   4.43753   4.44778
 Alpha virt. eigenvalues --    4.45233   4.45975   4.46696   4.47151   4.48211
 Alpha virt. eigenvalues --    4.49882   4.49896   4.50912   4.51204   4.52130
 Alpha virt. eigenvalues --    4.53375   4.53815   4.54955   4.56099   4.56683
 Alpha virt. eigenvalues --    4.58462   4.58647   4.60425   4.61684   4.62464
 Alpha virt. eigenvalues --    4.65958   4.68709   4.70881   4.70924   4.71867
 Alpha virt. eigenvalues --    4.74467   4.75805   4.81244   4.84818   4.85142
 Alpha virt. eigenvalues --    4.86280   4.90360   4.92194   4.93466   4.94943
 Alpha virt. eigenvalues --    4.96128   5.05969   5.12638
          Condensed to atoms (all electrons):
 Mulliken charges:
               1
     1  C   -0.937682
     2  C   -0.140487
     3  C   -0.936712
     4  H    0.221657
     5  H    0.221673
     6  C   -0.139865
     7  H    0.215030
     8  H    0.233375
     9  H    0.233370
    10  H    0.215016
    11  C    0.132352
    12  C   -0.043070
    13  C    0.064482
    14  C    0.075718
    15  C    0.423225
    16  C    0.628266
    17  C    0.232421
    18  C    0.029596
    19  C    0.628486
    20  C    0.422711
    21  C    0.028950
    22  C    0.232689
    23  C    0.131374
    24  C   -0.043668
    25  C    0.064076
    26  C    0.076073
    27  C   -0.195425
    28  C   -0.127271
    29  C    0.161747
    30  C    0.004583
    31  C   -0.468146
    32  C   -0.405043
    33  C   -0.498353
    34  C   -0.434687
    35  C   -0.572201
    36  C   -0.418848
    37  C   -0.813367
    38  C   -0.528892
    39  C    0.131286
    40  C   -0.108327
    41  C   -0.139858
    42  C    0.110584
    43  H    0.173820
    44  H    0.175022
    45  H    0.174062
    46  H    0.175332
    47  H    0.175322
    48  H    0.175919
    49  H    0.176020
    50  H    0.173041
    51  H    0.175215
    52  H    0.174407
    53  H    0.172862
    54  H    0.174326
    55  H    0.181216
    56  H    0.175115
    57  H    0.190034
    58  H    0.188445
    59  C   -0.139640
    60  C    0.110253
    61  C   -0.108774
    62  C    0.131735
    63  C   -0.418654
    64  C   -0.572398
    65  C   -0.528849
    66  C   -0.813425
    67  C   -0.434671
    68  C   -0.498456
    69  C   -0.405070
    70  C   -0.468015
    71  C   -0.127552
    72  C   -0.195115
    73  C    0.161668
    74  C    0.004913
    75  H    0.175125
    76  H    0.181222
    77  H    0.190012
    78  H    0.188447
    79  H    0.174320
    80  H    0.172863
    81  H    0.174409
    82  H    0.175213
    83  H    0.176016
    84  H    0.173040
    85  H    0.175919
    86  H    0.175319
    87  H    0.175018
    88  H    0.173813
    89  H    0.175328
    90  H    0.174069
    91  C   -0.105044
    92  H    0.235868
    93  H    0.228906
    94  H    0.227301
    95  C   -0.122300
    96  C   -0.122504
    97  C   -0.254272
    98  C   -0.105111
    99  H    0.228909
   100  H    0.227299
   101  H    0.235866
 Sum of Mulliken charges =  -0.00000
 Mulliken charges with hydrogens summed into heavy atoms:
               1
     1  C   -0.937682
     2  C   -0.140487
     3  C   -0.936712
     6  C   -0.139865
    11  C    0.132352
    12  C   -0.043070
    13  C    0.064482
    14  C    0.075718
    15  C    0.423225
    16  C    0.628266
    17  C    0.232421
    18  C    0.029596
    19  C    0.628486
    20  C    0.422711
    21  C    0.028950
    22  C    0.232689
    23  C    0.131374
    24  C   -0.043668
    25  C    0.064076
    26  C    0.076073
    27  C   -0.014209
    28  C    0.047843
    29  C    0.350193
    30  C    0.194617
    31  C   -0.292931
    32  C   -0.230636
    33  C   -0.325491
    34  C   -0.260361
    35  C   -0.399160
    36  C   -0.242828
    37  C   -0.638045
    38  C   -0.352973
    39  C    0.305348
    40  C    0.067006
    41  C    0.035163
    42  C    0.284404
    59  C    0.035378
    60  C    0.284066
    61  C    0.066554
    62  C    0.305803
    63  C   -0.242638
    64  C   -0.399357
    65  C   -0.352930
    66  C   -0.638106
    67  C   -0.260350
    68  C   -0.325593
    69  C   -0.230661
    70  C   -0.292802
    71  C    0.047573
    72  C   -0.013893
    73  C    0.350115
    74  C    0.194925
    91  C    0.587031
    95  C    0.326091
    96  C    0.325896
    97  C    0.189058
    98  C    0.586962
 Electronic spatial extent (au):  <R**2>=          31574.4679
 Charge=             -0.0000 electrons
 Dipole moment (field-independent basis, Debye):
    X=              0.4001    Y=             -0.0662    Z=             -0.3077  Tot=              0.5091
 Quadrupole moment (field-independent basis, Debye-Ang):
   XX=           -328.1971   YY=           -310.6341   ZZ=           -338.0735
   XY=              1.3576   XZ=            -17.7076   YZ=              0.8661
 Traceless Quadrupole moment (field-independent basis, Debye-Ang):
   XX=             -2.5622   YY=             15.0008   ZZ=            -12.4386
   XY=              1.3576   XZ=            -17.7076   YZ=              0.8661
 Octapole moment (field-independent basis, Debye-Ang**2):
  XXX=           -128.0478  YYY=              3.7973  ZZZ=            151.5495  XYY=             -7.1748
  XXY=              4.0334  XXZ=            -56.3290  XZZ=              2.5946  YZZ=             14.0658
  YYZ=              6.5779  XYZ=              6.4305
 Hexadecapole moment (field-independent basis, Debye-Ang**3):
 XXXX=         -14517.7712 YYYY=          -9486.2476 ZZZZ=         -20840.5988 XXXY=           -618.3148
 XXXZ=          -6095.8932 YYYX=           -537.1420 YYYZ=           -251.3264 ZZZX=          -6349.2180
 ZZZY=           -279.6535 XXYY=          -3959.5807 XXZZ=          -6144.8914 YYZZ=          -4978.4836
 XXYZ=            -64.2929 YYXZ=          -1925.3397 ZZXY=           -134.9908
 N-N= 8.045611152253D+03 E-N=-2.118049573931D+04  KE= 2.177634539027D+03
 Leave Link  601 at Mon Mar 23 17:37:47 2026, MaxMem=   104857600 cpu:               0.4 elap:               0.2
 (Enter /sw/cluster/pub/apps//g16/l9999.exe)
 1\1\GINC-N07\SP\RB3LYP\6-31+G(d)\C57H44\UNKNOWN\23-Mar-2026\0\\#p b3ly
 p/6-31+g(d) nosymm density=current sp\\Generated by extraQ₂\\0,1\C,0
 ,-0.17419674,0.13258474,-1.6110867\C,0,3.83720037,-0.2053407,2.0694892
 2\C,0,1.4618349,-0.34504961,0.62243562\H,0,1.56858617,-1.14160163,-1.3
 6139985\H,0,1.89799753,0.56948848,-1.30020507\C,0,-1.01407422,-0.26076
 676,-4.23704474\H,0,3.4199938,0.43433292,0.08185938\H,0,0.81009753,0.6
 1015746,-3.46592035\H,0,3.35931359,-1.29835686,0.26457487\H,0,0.644315
 15,-1.1051657,-3.20232832\C,0,-1.40189479,-0.57494466,-1.03222174\C,0,
 3.33508555,-0.9339587,3.31896718\C,0,-1.77218199,-1.59151288,-4.217186
 55\C,0,0.87204966,-1.65596328,1.15507811\C,0,-3.1636724,-1.37735246,-4
 .21718655\C,0,-0.0314641,-1.41232485,2.2047734\C,0,3.18274986,-0.03165
 194,4.39251716\C,0,-2.34062552,0.36747805,-0.56148784\C,0,-1.81313609,
 1.71692734,-0.78855927\C,0,3.53688376,1.31565335,3.93076083\C,0,-0.096
 58666,0.03495169,2.43273422\C,0,-3.41107805,0.06924784,-4.21718655\C,0
 ,0.76548701,0.68009941,1.52082411\C,0,-2.17106454,0.74172235,-4.212737
 79\C,0,3.91047455,1.2384546,2.57555626\C,0,-0.55222032,1.60326332,-1.4
 0071033\C,0,0.1674233,2.74540831,-1.73897223\C,0,4.35119846,2.37620762
 ,1.90549789\C,0,-2.13493761,2.13089287,-4.30000571\C,0,0.89015433,2.06
 617388,1.55050451\C,0,-0.37603032,4.00659705,-1.46098281\C,0,4.3947309
 5,3.59986134,2.5869085\C,0,0.1522465,2.80313763,2.48329658\C,0,-3.3370
 5468,2.84696155,-4.35455858\C,0,-0.70515983,2.15930937,3.38402063\C,0,
 -4.56725939,2.17771078,-4.33406427\C,0,-1.63097274,4.11703076,-0.84877
 847\C,0,4.0059007,3.67796975,3.93036611\C,0,-2.35755882,2.97227856,-0.
 50880497\C,0,3.57865411,2.53489296,4.61244176\C,0,-4.61194138,0.782556
 54,-4.27061606\C,0,-0.83475095,0.76867599,3.36474277\H,0,-1.49798226,0
 .26815208,4.0663187\H,0,-5.56774218,0.26369467,-4.27263115\H,0,-3.3321
 1655,3.06342767,-0.03538361\H,0,3.28659113,2.59908338,5.65798816\H,0,-
 2.04279363,5.10078043,-0.63654752\H,0,4.04338183,4.63336469,4.44803109
 \H,0,-5.49270724,2.74701157,-4.37563071\H,0,-1.2720635,2.74559978,4.10
 338212\H,0,0.18027704,4.90419776,-1.72084621\H,0,4.73559366,4.49384385
 ,2.07028328\H,0,0.24799866,3.88534457,2.50634606\H,0,-3.31318887,3.932
 30307,-4.40894097\H,0,1.14440982,2.67463732,-2.21492323\H,0,4.66167136
 ,2.32873223,0.86320494\H,0,1.54910447,2.58361787,0.86158145\H,0,-1.189
 96533,2.66616034,-4.3123803\C,0,2.80315109,-0.4840774,5.65938434\C,0,-
 3.55065408,-0.04463766,0.0023108\C,0,-4.05018993,-2.4571554,-4.2502056
 7\C,0,-0.68259944,-2.47031601,2.8429304\C,0,2.5890262,-1.85126534,5.85
 283693\C,0,-3.82222824,-1.41183225,0.09204985\C,0,-3.53449106,-3.75588
 521,-4.29203274\C,0,-0.42125735,-3.77815645,2.42433713\C,0,2.76339193,
 -2.75236901,4.79485317\C,0,-2.89496011,-2.3502731,-0.37748808\C,0,-2.1
 5036024,-3.97043528,-4.30982618\C,0,0.48022778,-4.02370522,1.38083149\
 C,0,-1.26361457,-2.88596567,-4.27589696\C,0,1.13064719,-2.9595987,0.74
 220088\C,0,3.14278454,-2.29735651,3.52605832\C,0,-1.68358884,-1.935097
 09,-0.94134358\H,0,-0.1903561,-3.06689651,-4.29600102\H,0,1.82873641,-
 3.16534715,-0.06797057\H,0,-0.9787204,-2.67768277,-1.2995394\H,0,3.269
 19621,-3.00947904,2.71578808\H,0,2.5990108,-3.81451977,4.957051\H,0,-3
 .11515254,-3.41193721,-0.30498996\H,0,-1.76141899,-4.98488788,-4.35347
 15\H,0,0.67559469,-5.04539323,1.06353372\H,0,2.29285821,-2.21891782,6.
 83232795\H,0,-4.75958137,-1.74980121,0.527646\H,0,-4.21237128,-4.60557
 16,-4.31795366\H,0,-0.92135675,-4.61137079,2.91224852\H,0,2.68449394,0
 .21214749,6.48640825\H,0,-4.27200801,0.68445809,0.36380583\H,0,-5.1255
 8733,-2.29562477,-4.24584162\H,0,-1.38187934,-2.28514755,3.65466921\C,
 0,5.28388842,-0.68925907,1.76008065\H,0,5.93762439,-0.52759875,2.62321
 247\H,0,5.70275523,-0.14273134,0.90619951\H,0,5.29087505,-1.75868066,1
 .51898598\C,0,0.09661957,-0.15693695,-3.13819113\C,0,3.035585,-0.36006
 677,0.73330137\C,0,1.20989494,-0.19966508,-0.92894955\C,0,-0.278476,-0
 .13719323,-5.60322848\H,0,0.52019499,-0.88474221,-5.68416122\H,0,0.170
 58423,0.85693055,-5.71233066\H,0,-0.97634595,-0.29159727,-6.43246681\\
 Version=ES64L-G16RevA.03\HF=-2198.6675753\RMSD=4.413e-09\Dipole=0.1574
 08,-0.0260426,-0.1210644\Quadrupole=-1.9049284,11.1527265,-9.2477981,1
 .0093157,-13.1651646,0.6438881\PG=C01 [X(C57H44)]\\@


 ... THIS SEEMS PLAINLY ABSURD; BUT WHOEVER WISHES TO BECOME A 
 PHILOSOPHER MUST LEARN NOT TO BE FRIGHTENED BY ABSURDITIES.

                          -- BERTRAND RUSSELL
 Job cpu time:       0 days  2 hours  4 minutes 10.9 seconds.
 Elapsed time:       0 days  0 hours 31 minutes  6.1 seconds.
 File lengths (MBytes):  RWF=    708 Int=      0 D2E=      0 Chk=     79 Scr=      1
 Normal termination of Gaussian 16 at Mon Mar 23 17:37:48 2026.
