%nprocshared=4
%chk=f4-6-31+Gstar_SP.chk
#p b3lyp/6-31+g(d) nosymm density=current sp

Generated by extraQ₂

0 1
 C                 -0.17419674    0.13258474   -1.61108670
 C                  3.83720037   -0.20534070    2.06948922
 C                  1.46183490   -0.34504961    0.62243562
 H                  1.56858617   -1.14160163   -1.36139985
 H                  1.89799753    0.56948848   -1.30020507
 C                 -1.01407422   -0.26076676   -4.23704474
 H                  3.41999380    0.43433292    0.08185938
 H                  0.81009753    0.61015746   -3.46592035
 H                  3.35931359   -1.29835686    0.26457487
 H                  0.64431515   -1.10516570   -3.20232832
 C                 -1.40189479   -0.57494466   -1.03222174
 C                  3.33508555   -0.93395870    3.31896718
 C                 -1.77218199   -1.59151288   -4.21718655
 C                  0.87204966   -1.65596328    1.15507811
 C                 -3.16367240   -1.37735246   -4.21718655
 C                 -0.03146410   -1.41232485    2.20477340
 C                  3.18274986   -0.03165194    4.39251716
 C                 -2.34062552    0.36747805   -0.56148784
 C                 -1.81313609    1.71692734   -0.78855927
 C                  3.53688376    1.31565335    3.93076083
 C                 -0.09658666    0.03495169    2.43273422
 C                 -3.41107805    0.06924784   -4.21718655
 C                  0.76548701    0.68009941    1.52082411
 C                 -2.17106454    0.74172235   -4.21273779
 C                  3.91047455    1.23845460    2.57555626
 C                 -0.55222032    1.60326332   -1.40071033
 C                  0.16742330    2.74540831   -1.73897223
 C                  4.35119846    2.37620762    1.90549789
 C                 -2.13493761    2.13089287   -4.30000571
 C                  0.89015433    2.06617388    1.55050451
 C                 -0.37603032    4.00659705   -1.46098281
 C                  4.39473095    3.59986134    2.58690850
 C                  0.15224650    2.80313763    2.48329658
 C                 -3.33705468    2.84696155   -4.35455858
 C                 -0.70515983    2.15930937    3.38402063
 C                 -4.56725939    2.17771078   -4.33406427
 C                 -1.63097274    4.11703076   -0.84877847
 C                  4.00590070    3.67796975    3.93036611
 C                 -2.35755882    2.97227856   -0.50880497
 C                  3.57865411    2.53489296    4.61244176
 C                 -4.61194138    0.78255654   -4.27061606
 C                 -0.83475095    0.76867599    3.36474277
 H                 -1.49798226    0.26815208    4.06631870
 H                 -5.56774218    0.26369467   -4.27263115
 H                 -3.33211655    3.06342767   -0.03538361
 H                  3.28659113    2.59908338    5.65798816
 H                 -2.04279363    5.10078043   -0.63654752
 H                  4.04338183    4.63336469    4.44803109
 H                 -5.49270724    2.74701157   -4.37563071
 H                 -1.27206350    2.74559978    4.10338212
 H                  0.18027704    4.90419776   -1.72084621
 H                  4.73559366    4.49384385    2.07028328
 H                  0.24799866    3.88534457    2.50634606
 H                 -3.31318887    3.93230307   -4.40894097
 H                  1.14440982    2.67463732   -2.21492323
 H                  4.66167136    2.32873223    0.86320494
 H                  1.54910447    2.58361787    0.86158145
 H                 -1.18996533    2.66616034   -4.31238030
 C                  2.80315109   -0.48407740    5.65938434
 C                 -3.55065408   -0.04463766    0.00231080
 C                 -4.05018993   -2.45715540   -4.25020567
 C                 -0.68259944   -2.47031601    2.84293040
 C                  2.58902620   -1.85126534    5.85283693
 C                 -3.82222824   -1.41183225    0.09204985
 C                 -3.53449106   -3.75588521   -4.29203274
 C                 -0.42125735   -3.77815645    2.42433713
 C                  2.76339193   -2.75236901    4.79485317
 C                 -2.89496011   -2.35027310   -0.37748808
 C                 -2.15036024   -3.97043528   -4.30982618
 C                  0.48022778   -4.02370522    1.38083149
 C                 -1.26361457   -2.88596567   -4.27589696
 C                  1.13064719   -2.95959870    0.74220088
 C                  3.14278454   -2.29735651    3.52605832
 C                 -1.68358884   -1.93509709   -0.94134358
 H                 -0.19035610   -3.06689651   -4.29600102
 H                  1.82873641   -3.16534715   -0.06797057
 H                 -0.97872040   -2.67768277   -1.29953940
 H                  3.26919621   -3.00947904    2.71578808
 H                  2.59901080   -3.81451977    4.95705100
 H                 -3.11515254   -3.41193721   -0.30498996
 H                 -1.76141899   -4.98488788   -4.35347150
 H                  0.67559469   -5.04539323    1.06353372
 H                  2.29285821   -2.21891782    6.83232795
 H                 -4.75958137   -1.74980121    0.52764600
 H                 -4.21237128   -4.60557160   -4.31795366
 H                 -0.92135675   -4.61137079    2.91224852
 H                  2.68449394    0.21214749    6.48640825
 H                 -4.27200801    0.68445809    0.36380583
 H                 -5.12558733   -2.29562477   -4.24584162
 H                 -1.38187934   -2.28514755    3.65466921
 C                  5.28388842   -0.68925907    1.76008065
 H                  5.93762439   -0.52759875    2.62321247
 H                  5.70275523   -0.14273134    0.90619951
 H                  5.29087505   -1.75868066    1.51898598
 C                  0.09661957   -0.15693695   -3.13819113
 C                  3.03558500   -0.36006677    0.73330137
 C                  1.20989494   -0.19966508   -0.92894955
 C                 -0.27847600   -0.13719323   -5.60322848
 H                  0.52019499   -0.88474221   -5.68416122
 H                  0.17058423    0.85693055   -5.71233066
 H                 -0.97634595   -0.29159727   -6.43246681

