101
Generated from .fchk
C -0.174197 0.132585 -1.611086
C 3.837199 -0.205341 2.069488
C 1.461834 -0.345049 0.622435
H 1.568586 -1.141601 -1.361399
H 1.897997 0.569488 -1.300205
C -1.014074 -0.260767 -4.237043
H 3.419992 0.434333 0.081859
H 0.810097 0.610157 -3.465919
H 3.359312 -1.298356 0.264575
H 0.644315 -1.105165 -3.202327
C -1.401894 -0.574944 -1.032221
C 3.335084 -0.933958 3.318966
C -1.772181 -1.591512 -4.217185
C 0.872049 -1.655963 1.155078
C -3.163671 -1.377352 -4.217185
C -0.031464 -1.412324 2.204773
C 3.182749 -0.031652 4.392515
C -2.340625 0.367478 -0.561488
C -1.813135 1.716927 -0.788559
C 3.536882 1.315653 3.930759
C -0.096587 0.034952 2.432733
C -3.411077 0.069248 -4.217185
C 0.765487 0.680099 1.520824
C -2.171064 0.741722 -4.212736
C 3.910473 1.238454 2.575555
C -0.552220 1.603263 -1.400710
C 0.167423 2.745407 -1.738972
C 4.351197 2.376207 1.905497
C -2.134937 2.130892 -4.300004
C 0.890154 2.066173 1.550504
C -0.376030 4.006595 -1.460982
C 4.394729 3.599860 2.586907
C 0.152246 2.803137 2.483296
C -3.337053 2.846960 -4.354557
C -0.705160 2.159309 3.384019
C -4.567258 2.177710 -4.334063
C -1.630972 4.117029 -0.848778
C 4.005899 3.677968 3.930365
C -2.357558 2.972277 -0.508805
C 3.578653 2.534892 4.612440
C -4.611940 0.782556 -4.270614
C -0.834751 0.768676 3.364741
H -1.497982 0.268152 4.066317
H -5.567740 0.263695 -4.272629
H -3.332115 3.063426 -0.035384
H 3.286590 2.599082 5.657986
H -2.042793 5.100778 -0.636547
H 4.043380 4.633363 4.448029
H -5.492705 2.747010 -4.375629
H -1.272063 2.745599 4.103380
H 0.180277 4.904196 -1.720846
H 4.735592 4.493842 2.070282
H 0.247999 3.885343 2.506345
H -3.313188 3.932302 -4.408939
H 1.144409 2.674636 -2.214922
H 4.661670 2.328731 0.863205
H 1.549104 2.583617 0.861581
H -1.189965 2.666159 -4.312379
C 2.803150 -0.484077 5.659382
C -3.550653 -0.044638 0.002311
C -4.050188 -2.457154 -4.250204
C -0.682599 -2.470315 2.842929
C 2.589025 -1.851265 5.852835
C -3.822227 -1.411832 0.092050
C -3.534490 -3.755884 -4.292031
C -0.421257 -3.778155 2.424336
C 2.763391 -2.752368 4.794851
C -2.894959 -2.350272 -0.377488
C -2.150359 -3.970434 -4.309824
C 0.480228 -4.023704 1.380831
C -1.263614 -2.885965 -4.275895
C 1.130647 -2.959598 0.742201
C 3.142783 -2.297356 3.526057
C -1.683588 -1.935096 -0.941343
H -0.190356 -3.066895 -4.295999
H 1.828736 -3.165346 -0.067971
H -0.978720 -2.677682 -1.299539
H 3.269195 -3.009478 2.715787
H 2.599010 -3.814518 4.957049
H -3.115151 -3.411936 -0.304990
H -1.761418 -4.984886 -4.353470
H 0.675594 -5.045391 1.063533
H 2.292857 -2.218917 6.832325
H -4.759579 -1.749801 0.527646
H -4.212370 -4.605570 -4.317952
H -0.921356 -4.611369 2.912247
H 2.684493 0.212147 6.486406
H -4.272006 0.684458 0.363806
H -5.125585 -2.295624 -4.245840
H -1.381879 -2.285147 3.654668
C 5.283886 -0.689259 1.760080
H 5.937622 -0.527599 2.623211
H 5.702753 -0.142731 0.906199
H 5.290873 -1.758680 1.518985
C 0.096620 -0.156937 -3.138190
C 3.035584 -0.360067 0.733301
C 1.209894 -0.199665 -0.928949
C -0.278476 -0.137193 -5.603226
H 0.520195 -0.884742 -5.684159
H 0.170584 0.856930 -5.712328
H -0.976346 -0.291597 -6.432464