#p b3lyp/6-31g nosymm density=current sp

Verify additional points: Sm atoms correspond to centroids, Am to +1Å, and Lr to -1Å

0 1
C -0.637796 0.476429 -0.342905
C -0.649189 -0.379352 -2.982825
H -0.672271 1.611665 -2.155878
H -2.126761 0.699018 -1.898131
C -1.483606 1.972559 1.835915
H -1.907717 0.739620 -4.383864
H -2.614421 0.843704 0.388320
H -0.203762 1.213851 -4.415142
H -0.714420 -0.303067 -5.167952
H -1.846277 2.269159 -0.238479
C 0.828202 0.838212 -0.114428
C -0.523337 3.158349 1.899252
C 0.763322 -0.959028 -2.982825
C 0.448934 2.962466 2.889685
C 0.722470 -2.362319 -3.014084
C 1.519941 -0.232511 0.470232
C 0.587280 -1.342180 0.662800
C -0.676119 -2.792533 -3.011811
C 0.215552 1.661965 3.518464
C -1.491775 -1.653013 -2.982825
C -0.897742 1.059673 2.910437
C -0.676336 -0.951894 0.196211
C -1.750085 -1.822055 0.296138
C -1.371913 -0.153381 3.383914
C -2.870526 -1.782094 -3.025709
C -1.555980 -3.086349 0.848261
C -3.435302 -3.055832 -3.073917
C -0.713641 -0.777714 4.441209
C -2.623492 -4.188338 -3.086289
C 0.404034 -0.188552 5.028490
C -0.297196 -3.474487 1.302278
C 0.782674 -2.603635 1.214778
C 0.873150 1.038608 4.574416
C -1.238564 -4.064166 -3.059512
H -0.612305 -4.947697 -3.077389
H 1.732464 1.502151 5.043455
H 1.757405 -2.904596 1.578330
H -0.160827 -4.460886 1.728097
H 0.905184 -0.686950 5.849001
H -3.075247 -5.171798 -3.123994
H -2.388750 -3.774769 0.916828
H -4.512120 -3.166081 -3.106619
H -1.072722 -1.731654 4.805924
H -2.733859 -1.540508 -0.057208
H -3.514720 -0.910023 -3.021952
H -2.236063 -0.627819 2.937995
C 2.877790 -0.131598 0.753385
C 1.403018 3.941580 3.148000
C 1.895951 -3.106569 -3.085365
C 3.543910 1.048430 0.443556
C 1.373153 5.122466 2.413984
C 3.113958 -2.438745 -3.136784
C 2.861627 2.110624 -0.145960
C 0.397195 5.325245 1.440260
C 3.155903 -1.046131 -3.128062
C -0.558109 4.343190 1.182042
C 1.980797 -0.301138 -3.056667
C 1.501498 2.007603 -0.429525
H -1.314574 4.517297 0.425104
H 2.033255 0.779533 -3.047296
H 0.986769 2.845717 -0.881793
H 3.389569 3.026825 -0.378305
H 0.378133 6.254003 0.883657
H 4.110031 -0.536633 -3.172850
H 4.600948 1.143144 0.659427
H 2.109169 5.893609 2.604546
H 4.036325 -3.003551 -3.191798
H 3.413431 -0.959149 1.201822
H 2.159035 3.792683 3.909194
H 1.865364 -4.189072 -3.108698
C -1.672205 1.397455 0.398248
C -0.883615 0.364976 -4.323167
C -1.036608 0.626151 -1.854997
C -2.885452 2.450299 2.296463
H -3.308712 3.156569 1.578922
H -3.569175 1.604318 2.386394
H -2.823018 2.945392 3.265768
Sm  -2.055963 -2.922663 -3.040010
Am  -2.076471 -2.953271 -2.040689
Lr  -2.035455 -2.892054 -4.039332
Sm  -0.266258 -1.629249 -2.994874
Am  -0.261350 -1.643750 -1.994991
Lr  -0.271166 -1.614748 -3.994757
Sm   1.938734 -1.702322 -3.067298
Am   1.994199 -1.715562 -2.068925
Lr   1.883268 -1.689081 -4.065671
Sm  -0.484940 -2.213433  0.753411
Am  -0.701881 -1.849547  1.659238
Lr  -0.268000 -2.577320 -0.152416
Sm   0.324258 -0.242389  0.174382
Am   0.096461  0.106800  1.083324
Lr   0.552055 -0.591578 -0.734560
Sm   2.188828  0.940127  0.162877
Am   1.973812  1.302473  1.069780
Lr   2.403844  0.577780 -0.744027