 Entering Gaussian System, Link 0=g16
 Initial command:
 /sw/cluster/pub/apps//g16/l1.exe "/data/mmaximo/44354/Gau-1957814.inp" -scrdir="/data/mmaximo/44354/"
 Entering Link 1 = /sw/cluster/pub/apps//g16/l1.exe PID=   1957815.
  
 Copyright (c) 1988,1990,1992,1993,1995,1998,2003,2009,2016,
            Gaussian, Inc.  All Rights Reserved.
  
 This is part of the Gaussian(R) 16 program.  It is based on
 the Gaussian(R) 09 system (copyright 2009, Gaussian, Inc.),
 the Gaussian(R) 03 system (copyright 2003, Gaussian, Inc.),
 the Gaussian(R) 98 system (copyright 1998, Gaussian, Inc.),
 the Gaussian(R) 94 system (copyright 1995, Gaussian, Inc.),
 the Gaussian 92(TM) system (copyright 1992, Gaussian, Inc.),
 the Gaussian 90(TM) system (copyright 1990, Gaussian, Inc.),
 the Gaussian 88(TM) system (copyright 1988, Gaussian, Inc.),
 the Gaussian 86(TM) system (copyright 1986, Carnegie Mellon
 University), and the Gaussian 82(TM) system (copyright 1983,
 Carnegie Mellon University). Gaussian is a federally registered
 trademark of Gaussian, Inc.
  
 This software contains proprietary and confidential information,
 including trade secrets, belonging to Gaussian, Inc.
  
 This software is provided under written license and may be
 used, copied, transmitted, or stored only in accord with that
 written license.
  
 The following legend is applicable only to US Government
 contracts under FAR:
  
                    RESTRICTED RIGHTS LEGEND
  
 Use, reproduction and disclosure by the US Government is
 subject to restrictions as set forth in subparagraphs (a)
 and (c) of the Commercial Computer Software - Restricted
 Rights clause in FAR 52.227-19.
  
 Gaussian, Inc.
 340 Quinnipiac St., Bldg. 40, Wallingford CT 06492
  
  
 ---------------------------------------------------------------
 Warning -- This program may not be used in any manner that
 competes with the business of Gaussian, Inc. or will provide
 assistance to any competitor of Gaussian, Inc.  The licensee
 of this program is prohibited from giving any competitor of
 Gaussian, Inc. access to this program.  By using this program,
 the user acknowledges that Gaussian, Inc. is engaged in the
 business of creating and licensing software in the field of
 computational chemistry and represents and warrants to the
 licensee that it is not a competitor of Gaussian, Inc. and that
 it will not use this program in any manner prohibited above.
 ---------------------------------------------------------------
  

 Cite this work as:
 Gaussian 16, Revision A.03,
 M. J. Frisch, G. W. Trucks, H. B. Schlegel, G. E. Scuseria, 
 M. A. Robb, J. R. Cheeseman, G. Scalmani, V. Barone, 
 G. A. Petersson, H. Nakatsuji, X. Li, M. Caricato, A. V. Marenich, 
 J. Bloino, B. G. Janesko, R. Gomperts, B. Mennucci, H. P. Hratchian, 
 J. V. Ortiz, A. F. Izmaylov, J. L. Sonnenberg, D. Williams-Young, 
 F. Ding, F. Lipparini, F. Egidi, J. Goings, B. Peng, A. Petrone, 
 T. Henderson, D. Ranasinghe, V. G. Zakrzewski, J. Gao, N. Rega, 
 G. Zheng, W. Liang, M. Hada, M. Ehara, K. Toyota, R. Fukuda, 
 J. Hasegawa, M. Ishida, T. Nakajima, Y. Honda, O. Kitao, H. Nakai, 
 T. Vreven, K. Throssell, J. A. Montgomery, Jr., J. E. Peralta, 
 F. Ogliaro, M. J. Bearpark, J. J. Heyd, E. N. Brothers, K. N. Kudin, 
 V. N. Staroverov, T. A. Keith, R. Kobayashi, J. Normand, 
 K. Raghavachari, A. P. Rendell, J. C. Burant, S. S. Iyengar, 
 J. Tomasi, M. Cossi, J. M. Millam, M. Klene, C. Adamo, R. Cammi, 
 J. W. Ochterski, R. L. Martin, K. Morokuma, O. Farkas, 
 J. B. Foresman, and D. J. Fox, Gaussian, Inc., Wallingford CT, 2016.
 
 ******************************************
 Gaussian 16:  ES64L-G16RevA.03 25-Dec-2016
                18-Mar-2026 
 ******************************************
 %chk=bz-def2TZVP_SP.chk
 -------------------------------------------
 #p B3LYP/def2TZVP nosymm density=current sp
 -------------------------------------------
 1/30=1,38=1,172=1/1;
 2/12=2,15=1,17=6,18=5,40=1/2;
 3/5=44,7=101,11=2,25=1,30=1,74=-5/1,2,3;
 4//1;
 5/5=2,38=5/2;
 6/7=2,8=2,9=2,10=2,22=-1,28=1/1;
 99/5=1,9=1/99;
 Leave Link    1 at Wed Mar 18 10:57:18 2026, MaxMem=           0 cpu:               0.0 elap:               0.0
 (Enter /sw/cluster/pub/apps//g16/l101.exe)
 ----------------------
 Generated by extraQ₂
 ----------------------
 Symbolic Z-matrix:
 Charge =  0 Multiplicity = 1
 C                    -0.73973  -1.17809   0. 
 C                     0.65039  -1.22967   0. 
 C                     1.39013  -0.05158   0. 
 C                     0.73973   1.17809   0. 
 C                    -0.65039   1.22967   0. 
 C                    -1.39013   0.05158   0. 
 H                    -1.31563  -2.09525   0. 
 H                     1.15673  -2.187     0. 
 H                     2.47237  -0.09174   0. 
 H                     1.31563   2.09525   0. 
 H                    -1.15673   2.187     0. 
 H                    -2.47237   0.09174   0. 
 
 ITRead=  0  0  0  0  0  0  0  0  0  0  0  0
 MicOpt= -1 -1 -1 -1 -1 -1 -1 -1 -1 -1 -1 -1
 NAtoms=     12 NQM=       12 NQMF=       0 NMMI=      0 NMMIF=      0
                NMic=       0 NMicF=      0.
                    Isotopes and Nuclear Properties:
 (Nuclear quadrupole moments (NQMom) in fm**2, nuclear magnetic moments (NMagM)
  in nuclear magnetons)

  Atom         1           2           3           4           5           6           7           8           9          10
 IAtWgt=          12          12          12          12          12          12           1           1           1           1
 AtmWgt=  12.0000000  12.0000000  12.0000000  12.0000000  12.0000000  12.0000000   1.0078250   1.0078250   1.0078250   1.0078250
 NucSpn=           0           0           0           0           0           0           1           1           1           1
 AtZEff=  -0.0000000  -0.0000000  -0.0000000  -0.0000000  -0.0000000  -0.0000000  -0.0000000  -0.0000000  -0.0000000  -0.0000000
 NQMom=    0.0000000   0.0000000   0.0000000   0.0000000   0.0000000   0.0000000   0.0000000   0.0000000   0.0000000   0.0000000
 NMagM=    0.0000000   0.0000000   0.0000000   0.0000000   0.0000000   0.0000000   2.7928460   2.7928460   2.7928460   2.7928460
 AtZNuc=   6.0000000   6.0000000   6.0000000   6.0000000   6.0000000   6.0000000   1.0000000   1.0000000   1.0000000   1.0000000

  Atom        11          12
 IAtWgt=           1           1
 AtmWgt=   1.0078250   1.0078250
 NucSpn=           1           1
 AtZEff=  -0.0000000  -0.0000000
 NQMom=    0.0000000   0.0000000
 NMagM=    2.7928460   2.7928460
 AtZNuc=   1.0000000   1.0000000
 Leave Link  101 at Wed Mar 18 10:57:19 2026, MaxMem=   104857600 cpu:               0.0 elap:               0.0
 (Enter /sw/cluster/pub/apps//g16/l202.exe)
                          Input orientation:                          
 ---------------------------------------------------------------------
 Center     Atomic      Atomic             Coordinates (Angstroms)
 Number     Number       Type             X           Y           Z
 ---------------------------------------------------------------------
      1          6           0       -0.739734   -1.178089    0.000000
      2          6           0        0.650394   -1.229670    0.000000
      3          6           0        1.390134   -0.051579    0.000000
      4          6           0        0.739734    1.178089    0.000000
      5          6           0       -0.650394    1.229670    0.000000
      6          6           0       -1.390134    0.051579    0.000000
      7          1           0       -1.315628   -2.095255    0.000000
      8          1           0        1.156731   -2.186995    0.000000
      9          1           0        2.472369   -0.091742    0.000000
     10          1           0        1.315628    2.095255    0.000000
     11          1           0       -1.156731    2.186995    0.000000
     12          1           0       -2.472369    0.091742    0.000000
 ---------------------------------------------------------------------
                    Distance matrix (angstroms):
                    1          2          3          4          5
     1  C    0.000000
     2  C    1.391085   0.000000
     3  C    2.409432   1.391084   0.000000
     4  C    2.782157   2.409416   1.391080   0.000000
     5  C    2.409416   2.782158   2.409430   1.391085   0.000000
     6  C    1.391080   2.409430   2.782181   2.409432   1.391084
     7  H    1.082981   2.148134   3.390835   3.865138   3.390820
     8  H    2.148132   1.082981   2.148134   3.390822   3.865139
     9  H    3.390834   2.148132   1.082980   2.148138   3.390837
    10  H    3.865138   3.390820   2.148126   1.082981   2.148134
    11  H    3.390822   3.865139   3.390831   2.148132   1.082981
    12  H    2.148138   3.390837   3.865161   3.390834   2.148132
                    6          7          8          9         10
     6  C    0.000000
     7  H    2.148126   0.000000
     8  H    3.390831   2.474060   0.000000
     9  H    3.865161   4.285205   2.474063   0.000000
    10  H    3.390835   4.948119   4.285197   2.474067   0.000000
    11  H    2.148134   4.285197   4.948120   4.285208   2.474060
    12  H    1.082980   2.474067   4.285208   4.948141   4.285205
                   11         12
    11  H    0.000000
    12  H    2.474063   0.000000
 Symmetry turned off by external request.
 Stoichiometry    C6H6
 Framework group  C2H[SGH(C6H6)]
 Deg. of freedom    11
 Full point group                 C2H     NOp   4
 Rotational constants (GHZ):           5.7318689           5.7317854           2.8659136
 Leave Link  202 at Wed Mar 18 10:57:19 2026, MaxMem=   104857600 cpu:               0.0 elap:               0.0
 (Enter /sw/cluster/pub/apps//g16/l301.exe)
 Standard basis: def2TZVP (5D, 7F)
 Ernie: Thresh=  0.10000D-02 Tol=  0.10000D-05 Strict=F.
   222 basis functions,   354 primitive gaussians,   252 cartesian basis functions
    21 alpha electrons       21 beta electrons
       nuclear repulsion energy       203.9871033264 Hartrees.
 IExCor=  402 DFT=T Ex+Corr=B3LYP ExCW=0 ScaHFX=  0.200000
 ScaDFX=  0.800000  0.720000  1.000000  0.810000 ScalE2=  1.000000  1.000000
 IRadAn=      5 IRanWt=     -1 IRanGd=            0 ICorTp=0 IEmpDi=  4
 NAtoms=   12 NActive=   12 NUniq=   12 SFac= 1.00D+00 NAtFMM=   60 NAOKFM=F Big=F
 Integral buffers will be    131072 words long.
 Raffenetti 2 integral format.
 Two-electron integral symmetry is turned off.
 Leave Link  301 at Wed Mar 18 10:57:19 2026, MaxMem=   104857600 cpu:               0.0 elap:               0.0
 (Enter /sw/cluster/pub/apps//g16/l302.exe)
 NPDir=0 NMtPBC=     1 NCelOv=     1 NCel=       1 NClECP=     1 NCelD=      1
         NCelK=      1 NCelE2=     1 NClLst=     1 CellRange=     0.0.
 One-electron integrals computed using PRISM.
   1 Symmetry operations used in ECPInt.
 ECPInt:  NShTT=    4095 NPrTT=   12396 LenC2=    4075 LenP2D=   10419.
 LDataN:  DoStor=T MaxTD1= 6 Len=  172
 NBasis=   222 RedAO= T EigKep=  1.00D-05  NBF=   222
 NBsUse=   222 1.00D-06 EigRej= -1.00D+00 NBFU=   222
 Precomputing XC quadrature grid using
 IXCGrd= 4 IRadAn=           5 IRanWt=          -1 IRanGd=           0 AccXCQ= 0.00D+00.
 Generated NRdTot=       0 NPtTot=           0 NUsed=           0 NTot=          32
 NSgBfM=   251   251   251   251   251 MxSgAt=    12 MxSgA2=    12.
 Leave Link  302 at Wed Mar 18 10:57:19 2026, MaxMem=   104857600 cpu:               0.1 elap:               0.1
 (Enter /sw/cluster/pub/apps//g16/l303.exe)
 DipDrv:  MaxL=1.
 Leave Link  303 at Wed Mar 18 10:57:19 2026, MaxMem=   104857600 cpu:               0.0 elap:               0.0
 (Enter /sw/cluster/pub/apps//g16/l401.exe)
 ExpMin= 9.52D-02 ExpMax= 1.36D+04 ExpMxC= 4.63D+02 IAcc=3 IRadAn=         5 AccDes= 0.00D+00
 Harris functional with IExCor=  402 and IRadAn=       5 diagonalized for initial guess.
 HarFok:  IExCor=  402 AccDes= 0.00D+00 IRadAn=         5 IDoV= 1 UseB2=F ITyADJ=14
 ICtDFT=  3500011 ScaDFX=  1.000000  1.000000  1.000000  1.000000
 FoFCou: FMM=F IPFlag=           0 FMFlag=      100000 FMFlg1=           0
         NFxFlg=           0 DoJE=T BraDBF=F KetDBF=T FulRan=T
         wScrn=  0.000000 ICntrl=       500 IOpCl=  0 I1Cent=   200000004 NGrid=           0
         NMat0=    1 NMatS0=      1 NMatT0=    0 NMatD0=    1 NMtDS0=    0 NMtDT0=    0
 Symmetry not used in FoFCou.
 Harris En= -232.384951454751    
 JPrj=0 DoOrth=F DoCkMO=F.
 Leave Link  401 at Wed Mar 18 10:57:20 2026, MaxMem=   104857600 cpu:               1.4 elap:               1.4
 (Enter /sw/cluster/pub/apps//g16/l502.exe)
 Two-electron integral symmetry not used.
 Closed shell SCF:
 Using DIIS extrapolation, IDIIS=  1040.
 NGot=   104857600 LenX=   104727300 LenY=   104663355
 Requested convergence on RMS density matrix=1.00D-08 within 128 cycles.
 Requested convergence on MAX density matrix=1.00D-06.
 Requested convergence on             energy=1.00D-06.
 No special actions if energy rises.
 Fock matrices will be formed incrementally for  20 cycles.
 Integral accuracy reduced to 1.0D-05 until final iterations.

 Cycle   1  Pass 0  IDiag  1:
 FoFJK:  IHMeth= 1 ICntrl=       0 DoSepK=F KAlg= 0 I1Cent=           0 FoldK=F
 IRaf= 980000000 NMat=       1 IRICut=       1 DoRegI=T DoRafI=F ISym2E= 0 IDoP0=0 IntGTp=1.
 FoFCou: FMM=F IPFlag=           0 FMFlag=      100000 FMFlg1=           0
         NFxFlg=           0 DoJE=F BraDBF=F KetDBF=F FulRan=T
         wScrn=  0.000000 ICntrl=         0 IOpCl=  0 I1Cent=           0 NGrid=           0
         NMat0=    1 NMatS0=      1 NMatT0=    0 NMatD0=    1 NMtDS0=    0 NMtDT0=    0
 Symmetry not used in FoFCou.
 E= -232.156345754383    
 DIIS: error= 3.44D-02 at cycle   1 NSaved=   1.
 NSaved= 1 IEnMin= 1 EnMin= -232.156345754383     IErMin= 1 ErrMin= 3.44D-02
 ErrMax= 3.44D-02  0.00D+00 EMaxC= 1.00D-01 BMatC= 1.74D-01 BMatP= 1.74D-01
 IDIUse=3 WtCom= 6.56D-01 WtEn= 3.44D-01
 Coeff-Com:  0.100D+01
 Coeff-En:   0.100D+01
 Coeff:      0.100D+01
 Gap=     0.245 Goal=   None    Shift=    0.000
 GapD=    0.245 DampG=1.000 DampE=0.500 DampFc=0.5000 IDamp=-1.
 Damping current iteration by 5.00D-01
 RMSDP=3.52D-03 MaxDP=5.67D-02              OVMax= 1.81D-01

 Cycle   2  Pass 0  IDiag  1:
 RMSU=  1.68D-03    CP:  9.47D-01
 E= -232.232743865810     Delta-E=       -0.076398111427 Rises=F Damp=T
 DIIS: error= 1.05D-02 at cycle   2 NSaved=   2.
 NSaved= 2 IEnMin= 2 EnMin= -232.232743865810     IErMin= 2 ErrMin= 1.05D-02
 ErrMax= 1.05D-02  0.00D+00 EMaxC= 1.00D-01 BMatC= 1.00D-02 BMatP= 1.74D-01
 IDIUse=3 WtCom= 8.95D-01 WtEn= 1.05D-01
 Coeff-Com:  0.517D-01 0.948D+00
 Coeff-En:   0.138D+00 0.862D+00
 Coeff:      0.608D-01 0.939D+00
 Gap=     0.310 Goal=   None    Shift=    0.000
 RMSDP=9.11D-04 MaxDP=1.44D-02 DE=-7.64D-02 OVMax= 1.06D-01

 Cycle   3  Pass 0  IDiag  1:
 RMSU=  8.99D-04    CP:  9.37D-01  9.34D-01
 E= -232.334344237126     Delta-E=       -0.101600371315 Rises=F Damp=F
 DIIS: error= 7.85D-03 at cycle   3 NSaved=   3.
 NSaved= 3 IEnMin= 3 EnMin= -232.334344237126     IErMin= 3 ErrMin= 7.85D-03
 ErrMax= 7.85D-03  0.00D+00 EMaxC= 1.00D-01 BMatC= 3.09D-03 BMatP= 1.00D-02
 IDIUse=3 WtCom= 9.22D-01 WtEn= 7.85D-02
 Coeff-Com: -0.420D-01 0.326D+00 0.716D+00
 Coeff-En:   0.000D+00 0.000D+00 0.100D+01
 Coeff:     -0.387D-01 0.300D+00 0.739D+00
 Gap=     0.245 Goal=   None    Shift=    0.000
 RMSDP=1.85D-04 MaxDP=3.28D-03 DE=-1.02D-01 OVMax= 1.26D-02

 Cycle   4  Pass 0  IDiag  1:
 RMSU=  1.42D-04    CP:  9.35D-01  9.82D-01  9.06D-01
 E= -232.337290835662     Delta-E=       -0.002946598536 Rises=F Damp=F
 DIIS: error= 9.90D-04 at cycle   4 NSaved=   4.
 NSaved= 4 IEnMin= 4 EnMin= -232.337290835662     IErMin= 4 ErrMin= 9.90D-04
 ErrMax= 9.90D-04  0.00D+00 EMaxC= 1.00D-01 BMatC= 7.76D-05 BMatP= 3.09D-03
 IDIUse=3 WtCom= 9.90D-01 WtEn= 9.90D-03
 Coeff-Com: -0.121D-01 0.264D-01 0.177D+00 0.808D+00
 Coeff-En:   0.000D+00 0.000D+00 0.000D+00 0.100D+01
 Coeff:     -0.120D-01 0.262D-01 0.176D+00 0.810D+00
 Gap=     0.245 Goal=   None    Shift=    0.000
 RMSDP=4.74D-05 MaxDP=5.50D-04 DE=-2.95D-03 OVMax= 1.50D-03

 Cycle   5  Pass 0  IDiag  1:
 RMSU=  2.24D-05    CP:  9.34D-01  9.93D-01  9.41D-01  8.76D-01
 E= -232.337359623578     Delta-E=       -0.000068787917 Rises=F Damp=F
 DIIS: error= 3.82D-05 at cycle   5 NSaved=   5.
 NSaved= 5 IEnMin= 5 EnMin= -232.337359623578     IErMin= 5 ErrMin= 3.82D-05
 ErrMax= 3.82D-05  0.00D+00 EMaxC= 1.00D-01 BMatC= 1.35D-07 BMatP= 7.76D-05
 IDIUse=1 WtCom= 1.00D+00 WtEn= 0.00D+00
 Coeff-Com: -0.324D-03-0.121D-02 0.698D-02 0.650D-01 0.930D+00
 Coeff:     -0.324D-03-0.121D-02 0.698D-02 0.650D-01 0.930D+00
 Gap=     0.245 Goal=   None    Shift=    0.000
 RMSDP=5.94D-06 MaxDP=7.47D-05 DE=-6.88D-05 OVMax= 8.79D-05

 Initial convergence to 1.0D-05 achieved.  Increase integral accuracy.
 Cycle   6  Pass 1  IDiag  1:
 E= -232.337355215682     Delta-E=        0.000004407897 Rises=F Damp=F
 DIIS: error= 5.25D-05 at cycle   1 NSaved=   1.
 NSaved= 1 IEnMin= 1 EnMin= -232.337355215682     IErMin= 1 ErrMin= 5.25D-05
 ErrMax= 5.25D-05  0.00D+00 EMaxC= 1.00D-01 BMatC= 6.07D-08 BMatP= 6.07D-08
 IDIUse=1 WtCom= 1.00D+00 WtEn= 0.00D+00
 Coeff-Com:  0.100D+01
 Coeff:      0.100D+01
 Gap=     0.245 Goal=   None    Shift=    0.000
 RMSDP=5.94D-06 MaxDP=7.47D-05 DE= 4.41D-06 OVMax= 3.38D-05

 Cycle   7  Pass 1  IDiag  1:
 RMSU=  4.26D-05    CP:  1.00D+00
 E= -232.337355237194     Delta-E=       -0.000000021513 Rises=F Damp=F
 DIIS: error= 2.13D-06 at cycle   2 NSaved=   2.
 NSaved= 2 IEnMin= 2 EnMin= -232.337355237194     IErMin= 2 ErrMin= 2.13D-06
 ErrMax= 2.13D-06  0.00D+00 EMaxC= 1.00D-01 BMatC= 3.19D-10 BMatP= 6.07D-08
 IDIUse=1 WtCom= 1.00D+00 WtEn= 0.00D+00
 Coeff-Com:  0.333D-03 0.100D+01
 Coeff:      0.333D-03 0.100D+01
 Gap=     0.245 Goal=   None    Shift=    0.000
 RMSDP=9.52D-07 MaxDP=1.32D-05 DE=-2.15D-08 OVMax= 8.07D-06

 Cycle   8  Pass 1  IDiag  1:
 RMSU=  1.70D-07    CP:  1.00D+00  1.02D+00
 E= -232.337355237081     Delta-E=        0.000000000113 Rises=F Damp=F
 DIIS: error= 2.21D-06 at cycle   3 NSaved=   3.
 NSaved= 3 IEnMin= 2 EnMin= -232.337355237194     IErMin= 2 ErrMin= 2.13D-06
 ErrMax= 2.21D-06  0.00D+00 EMaxC= 1.00D-01 BMatC= 4.33D-10 BMatP= 3.19D-10
 IDIUse=1 WtCom= 1.00D+00 WtEn= 0.00D+00
 Coeff-Com: -0.455D-02 0.542D+00 0.462D+00
 Coeff:     -0.455D-02 0.542D+00 0.462D+00
 Gap=     0.245 Goal=   None    Shift=    0.000
 RMSDP=6.26D-08 MaxDP=1.59D-06 DE= 1.13D-10 OVMax= 5.25D-06

 Cycle   9  Pass 1  IDiag  1:
 RMSU=  5.21D-08    CP:  1.00D+00  1.02D+00  8.00D-01
 E= -232.337355237504     Delta-E=       -0.000000000423 Rises=F Damp=F
 DIIS: error= 1.92D-07 at cycle   4 NSaved=   4.
 NSaved= 4 IEnMin= 4 EnMin= -232.337355237504     IErMin= 4 ErrMin= 1.92D-07
 ErrMax= 1.92D-07  0.00D+00 EMaxC= 1.00D-01 BMatC= 4.40D-12 BMatP= 3.19D-10
 IDIUse=1 WtCom= 1.00D+00 WtEn= 0.00D+00
 Coeff-Com: -0.153D-02 0.155D+00 0.164D+00 0.683D+00
 Coeff:     -0.153D-02 0.155D+00 0.164D+00 0.683D+00
 Gap=     0.245 Goal=   None    Shift=    0.000
 RMSDP=1.20D-08 MaxDP=2.50D-07 DE=-4.23D-10 OVMax= 7.93D-07

 Cycle  10  Pass 1  IDiag  1:
 RMSU=  7.24D-09    CP:  1.00D+00  1.02D+00  8.15D-01  9.61D-01
 E= -232.337355237507     Delta-E=       -0.000000000003 Rises=F Damp=F
 DIIS: error= 7.85D-08 at cycle   5 NSaved=   5.
 NSaved= 5 IEnMin= 5 EnMin= -232.337355237507     IErMin= 5 ErrMin= 7.85D-08
 ErrMax= 7.85D-08  0.00D+00 EMaxC= 1.00D-01 BMatC= 6.42D-13 BMatP= 4.40D-12
 IDIUse=1 WtCom= 1.00D+00 WtEn= 0.00D+00
 Coeff-Com: -0.332D-03 0.255D-01 0.356D-01 0.310D+00 0.629D+00
 Coeff:     -0.332D-03 0.255D-01 0.356D-01 0.310D+00 0.629D+00
 Gap=     0.245 Goal=   None    Shift=    0.000
 RMSDP=4.12D-09 MaxDP=5.90D-08 DE=-3.30D-12 OVMax= 2.90D-07

 SCF Done:  E(RB3LYP) =  -232.337355238     A.U. after   10 cycles
            NFock= 10  Conv=0.41D-08     -V/T= 2.0053
 KE= 2.311054023002D+02 PE=-9.464464108307D+02 EE= 2.790165499665D+02
 Leave Link  502 at Wed Mar 18 10:57:58 2026, MaxMem=   104857600 cpu:              37.8 elap:              37.9
 (Enter /sw/cluster/pub/apps//g16/l601.exe)
 Copying SCF densities to generalized density rwf, IOpCl= 0 IROHF=0.

 **********************************************************************

            Population analysis using the SCF density.

 **********************************************************************

 Alpha  occ. eigenvalues --  -10.17697 -10.17673 -10.17673 -10.17615 -10.17615
 Alpha  occ. eigenvalues --  -10.17587  -0.85831  -0.74952  -0.74951  -0.60634
 Alpha  occ. eigenvalues --   -0.60634  -0.52859  -0.46433  -0.45160  -0.42598
 Alpha  occ. eigenvalues --   -0.42598  -0.37323  -0.34868  -0.34867  -0.25933
 Alpha  occ. eigenvalues --   -0.25933
 Alpha virt. eigenvalues --   -0.01439  -0.01439   0.04468   0.07651   0.07651
 Alpha virt. eigenvalues --    0.10353   0.10353   0.12628   0.14005   0.14883
 Alpha virt. eigenvalues --    0.20534   0.20869   0.21450   0.21450   0.23198
 Alpha virt. eigenvalues --    0.23199   0.24694   0.24694   0.26806   0.26806
 Alpha virt. eigenvalues --    0.32595   0.32620   0.32621   0.35583   0.35583
 Alpha virt. eigenvalues --    0.38124   0.40287   0.41163   0.41163   0.43555
 Alpha virt. eigenvalues --    0.43555   0.43737   0.46150   0.46210   0.48836
 Alpha virt. eigenvalues --    0.48837   0.49029   0.50566   0.50566   0.64265
 Alpha virt. eigenvalues --    0.64265   0.65088   0.67836   0.68498   0.74509
 Alpha virt. eigenvalues --    0.74509   0.75354   0.75355   0.79881   0.84325
 Alpha virt. eigenvalues --    0.84325   0.85013   0.88680   0.88953   0.99904
 Alpha virt. eigenvalues --    0.99904   1.00855   1.00856   1.04940   1.04940
 Alpha virt. eigenvalues --    1.16524   1.17316   1.17316   1.20186   1.20186
 Alpha virt. eigenvalues --    1.22030   1.22030   1.24805   1.24806   1.28174
 Alpha virt. eigenvalues --    1.37398   1.37429   1.38379   1.44888   1.44889
 Alpha virt. eigenvalues --    1.47704   1.47704   1.48047   1.48047   1.59471
 Alpha virt. eigenvalues --    1.60681   1.64828   1.66228   1.66228   1.67713
 Alpha virt. eigenvalues --    1.68817   1.68817   1.70075   1.70077   1.76148
 Alpha virt. eigenvalues --    1.83727   1.90233   1.90233   2.03240   2.03241
 Alpha virt. eigenvalues --    2.06140   2.07251   2.07251   2.08219   2.15466
 Alpha virt. eigenvalues --    2.15467   2.21678   2.23096   2.23096   2.31569
 Alpha virt. eigenvalues --    2.45982   2.48079   2.48079   2.54800   2.55536
 Alpha virt. eigenvalues --    2.55536   2.55996   2.58162   2.65276   2.65276
 Alpha virt. eigenvalues --    2.66483   2.66484   2.66699   2.67434   2.67434
 Alpha virt. eigenvalues --    2.73562   2.74329   2.74329   2.80019   2.80157
 Alpha virt. eigenvalues --    2.80157   2.83758   2.84267   2.84267   2.84542
 Alpha virt. eigenvalues --    2.84542   2.89456   3.00821   3.09169   3.09169
 Alpha virt. eigenvalues --    3.09204   3.09204   3.13288   3.13289   3.13835
 Alpha virt. eigenvalues --    3.13836   3.18597   3.21295   3.21295   3.24156
 Alpha virt. eigenvalues --    3.25422   3.25422   3.30250   3.34671   3.37123
 Alpha virt. eigenvalues --    3.37124   3.37647   3.43887   3.43889   3.47364
 Alpha virt. eigenvalues --    3.49717   3.52179   3.52179   3.60121   3.63336
 Alpha virt. eigenvalues --    3.63337   3.74927   3.75574   3.75575   3.79186
 Alpha virt. eigenvalues --    3.86249   3.99434   3.99434   4.06437   4.06791
 Alpha virt. eigenvalues --    4.06791   4.11115   4.19741   4.19807   4.19808
 Alpha virt. eigenvalues --    4.22080   4.22081   4.28479   4.28481   4.29248
 Alpha virt. eigenvalues --    4.29249   4.62473   4.63712   4.63713   4.65458
 Alpha virt. eigenvalues --    4.82665   4.82666   4.88463   4.88464   5.20361
 Alpha virt. eigenvalues --    5.20361   5.27310   5.28601   5.41658   5.61781
 Alpha virt. eigenvalues --   21.85395  22.52949  22.52950  22.62836  22.62837
 Alpha virt. eigenvalues --   23.05464
          Condensed to atoms (all electrons):
               1          2          3          4          5          6
     1  C    4.862715   0.508642  -0.034833  -0.042738  -0.034840   0.508635
     2  C    0.508642   4.862734   0.508639  -0.034840  -0.042740  -0.034832
     3  C   -0.034833   0.508639   4.862741   0.508635  -0.034832  -0.042741
     4  C   -0.042738  -0.034840   0.508635   4.862715   0.508642  -0.034833
     5  C   -0.034840  -0.042740  -0.034832   0.508642   4.862734   0.508639
     6  C    0.508635  -0.034832  -0.042741  -0.034833   0.508639   4.862741
     7  H    0.419047  -0.046458   0.008350  -0.001560   0.008351  -0.046458
     8  H   -0.046456   0.419042  -0.046456   0.008350  -0.001560   0.008350
     9  H    0.008350  -0.046456   0.419044  -0.046454   0.008350  -0.001560
    10  H   -0.001560   0.008351  -0.046458   0.419047  -0.046458   0.008350
    11  H    0.008350  -0.001560   0.008350  -0.046456   0.419042  -0.046456
    12  H   -0.046454   0.008350  -0.001560   0.008350  -0.046456   0.419044
               7          8          9         10         11         12
     1  C    0.419047  -0.046456   0.008350  -0.001560   0.008350  -0.046454
     2  C   -0.046458   0.419042  -0.046456   0.008351  -0.001560   0.008350
     3  C    0.008350  -0.046456   0.419044  -0.046458   0.008350  -0.001560
     4  C   -0.001560   0.008350  -0.046454   0.419047  -0.046456   0.008350
     5  C    0.008351  -0.001560   0.008350  -0.046458   0.419042  -0.046456
     6  C   -0.046458   0.008350  -0.001560   0.008350  -0.046456   0.419044
     7  H    0.564038  -0.006843  -0.000291   0.000088  -0.000291  -0.006843
     8  H   -0.006843   0.564039  -0.006843  -0.000291   0.000088  -0.000291
     9  H   -0.000291  -0.006843   0.564035  -0.006843  -0.000291   0.000088
    10  H    0.000088  -0.000291  -0.006843   0.564038  -0.006843  -0.000291
    11  H   -0.000291   0.000088  -0.000291  -0.006843   0.564039  -0.006843
    12  H   -0.006843  -0.000291   0.000088  -0.000291  -0.006843   0.564035
 Mulliken charges:
               1
     1  C   -0.108858
     2  C   -0.108871
     3  C   -0.108878
     4  C   -0.108858
     5  C   -0.108871
     6  C   -0.108878
     7  H    0.108869
     8  H    0.108869
     9  H    0.108870
    10  H    0.108869
    11  H    0.108869
    12  H    0.108870
 Sum of Mulliken charges =  -0.00000
 Mulliken charges with hydrogens summed into heavy atoms:
               1
     1  C    0.000011
     2  C   -0.000002
     3  C   -0.000009
     4  C    0.000011
     5  C   -0.000002
     6  C   -0.000009
 Electronic spatial extent (au):  <R**2>=            457.3347
 Charge=             -0.0000 electrons
 Dipole moment (field-independent basis, Debye):
    X=             -0.0000    Y=              0.0000    Z=             -0.0000  Tot=              0.0000
 Quadrupole moment (field-independent basis, Debye-Ang):
   XX=            -32.1312   YY=            -32.1314   ZZ=            -39.8555
   XY=             -0.0000   XZ=             -0.0000   YZ=             -0.0000
 Traceless Quadrupole moment (field-independent basis, Debye-Ang):
   XX=              2.5748   YY=              2.5746   ZZ=             -5.1495
   XY=             -0.0000   XZ=             -0.0000   YZ=             -0.0000
 Octapole moment (field-independent basis, Debye-Ang**2):
  XXX=             -0.0000  YYY=              0.0000  ZZZ=             -0.0000  XYY=             -0.0000
  XXY=              0.0000  XXZ=              0.0000  XZZ=              0.0000  YZZ=             -0.0000
  YYZ=             -0.0000  XYZ=              0.0000
 Hexadecapole moment (field-independent basis, Debye-Ang**3):
 XXXX=           -274.7954 YYYY=           -274.7937 ZZZZ=            -48.0966 XXXY=             -0.0001
 XXXZ=             -0.0000 YYYX=             -0.0001 YYYZ=             -0.0000 ZZZX=             -0.0000
 ZZZY=             -0.0000 XXYY=            -91.5984 XXZZ=            -63.9092 YYZZ=            -63.9086
 XXYZ=             -0.0000 YYXZ=              0.0000 ZZXY=              0.0000
 N-N= 2.039871033264D+02 E-N=-9.464464194731D+02  KE= 2.311054023002D+02
 No NMR shielding tensors so no spin-rotation constants.
 Leave Link  601 at Wed Mar 18 10:57:58 2026, MaxMem=   104857600 cpu:               0.1 elap:               0.1
 (Enter /sw/cluster/pub/apps//g16/l9999.exe)
 1\1\GINC-N07\SP\RB3LYP\def2TZVP\C6H6\UNKNOWN\18-Mar-2026\0\\#p B3LYP/d
 ef2TZVP nosymm density=current sp\\Generated by extraQ₂\\0,1\C,0,-0.
 739734,-1.178089,0.\C,0,0.650394,-1.22967,0.\C,0,1.390134,-0.051579,0.
 \C,0,0.739734,1.178089,0.\C,0,-0.650394,1.22967,0.\C,0,-1.390134,0.051
 579,0.\H,0,-1.315628,-2.095255,0.\H,0,1.156731,-2.186995,0.\H,0,2.4723
 69,-0.091742,0.\H,0,1.315628,2.095255,0.\H,0,-1.156731,2.186995,0.\H,0
 ,-2.472369,0.091742,0.\\Version=ES64L-G16RevA.03\HF=-232.3373552\RMSD=
 4.119e-09\Dipole=0.,0.,0.\Quadrupole=1.9143172,1.9141781,-3.8284953,-0
 .0000193,0.,0.\PG=C02H [SGH(C6H6)]\\@


 THE CAUTIOUS SELDOM ERR...CONFUCIUS                   
 Job cpu time:       0 days  0 hours  0 minutes 39.5 seconds.
 Elapsed time:       0 days  0 hours  0 minutes 39.6 seconds.
 File lengths (MBytes):  RWF=     33 Int=      0 D2E=      0 Chk=      4 Scr=      1
 Normal termination of Gaussian 16 at Wed Mar 18 10:57:58 2026.
