%chk=f1-6-311Gdp_SP.chk
#p B3LYP/6-311G(d,p) nosymm density=current sp

Generated by extraQ₂

0 1
C         0.00014700       1.41479500       0.00002883
C        -1.18025900       0.44512900       0.00005009
C        -0.73399700      -0.88864000       0.00001883
C         0.73381600      -0.88875800       0.00002283
C         1.18024900       0.44494600       0.00002209
C         2.53929000       0.72730500       0.00003905
C         3.45478000      -0.32821400       0.00003172
C         3.01090100      -1.65144600      -0.00001547
C         1.64761100      -1.94172100      -0.00000049
H         1.30904300      -2.97207100      -0.00002365
H         3.73323900      -2.46003100      -0.00000909
H         4.51843200      -0.11809500       0.00006418
H         2.89584800       1.75218200       0.00006917
C        -1.64775700      -1.94163400      -0.00002749
C        -3.01104000      -1.65134200      -0.00001147
C        -3.45479700      -0.32807800       0.00003572
C        -2.53930800       0.72744500       0.00007005
H        -2.89599700       1.75227800       0.00014617
H        -4.51844200      -0.11790200       0.00006918
H        -3.73347900      -2.45983600      -0.00003509
H        -1.30901400      -2.97191900      -0.00006064
C         0.00017000       2.30034921       1.26489198
H         0.00050200       1.69035992       2.17078174
H         0.88420300       2.94391907       1.28544345
H        -0.88420200       2.94342907       1.28569445
C         0.00012500       2.30005079      -1.26507002
H        -0.88430800       2.94304393      -1.28604656
H         0.88410500       2.94368593      -1.28580255
H         0.00048600       1.68983008      -2.17080826



