 Entering Gaussian System, Link 0=g16
 Initial command:
 /sw/cluster/pub/apps//g16/l1.exe "/data/mmaximo/44343/Gau-1910383.inp" -scrdir="/data/mmaximo/44343/"
 Entering Link 1 = /sw/cluster/pub/apps//g16/l1.exe PID=   1910384.
  
 Copyright (c) 1988,1990,1992,1993,1995,1998,2003,2009,2016,
            Gaussian, Inc.  All Rights Reserved.
  
 This is part of the Gaussian(R) 16 program.  It is based on
 the Gaussian(R) 09 system (copyright 2009, Gaussian, Inc.),
 the Gaussian(R) 03 system (copyright 2003, Gaussian, Inc.),
 the Gaussian(R) 98 system (copyright 1998, Gaussian, Inc.),
 the Gaussian(R) 94 system (copyright 1995, Gaussian, Inc.),
 the Gaussian 92(TM) system (copyright 1992, Gaussian, Inc.),
 the Gaussian 90(TM) system (copyright 1990, Gaussian, Inc.),
 the Gaussian 88(TM) system (copyright 1988, Gaussian, Inc.),
 the Gaussian 86(TM) system (copyright 1986, Carnegie Mellon
 University), and the Gaussian 82(TM) system (copyright 1983,
 Carnegie Mellon University). Gaussian is a federally registered
 trademark of Gaussian, Inc.
  
 This software contains proprietary and confidential information,
 including trade secrets, belonging to Gaussian, Inc.
  
 This software is provided under written license and may be
 used, copied, transmitted, or stored only in accord with that
 written license.
  
 The following legend is applicable only to US Government
 contracts under FAR:
  
                    RESTRICTED RIGHTS LEGEND
  
 Use, reproduction and disclosure by the US Government is
 subject to restrictions as set forth in subparagraphs (a)
 and (c) of the Commercial Computer Software - Restricted
 Rights clause in FAR 52.227-19.
  
 Gaussian, Inc.
 340 Quinnipiac St., Bldg. 40, Wallingford CT 06492
  
  
 ---------------------------------------------------------------
 Warning -- This program may not be used in any manner that
 competes with the business of Gaussian, Inc. or will provide
 assistance to any competitor of Gaussian, Inc.  The licensee
 of this program is prohibited from giving any competitor of
 Gaussian, Inc. access to this program.  By using this program,
 the user acknowledges that Gaussian, Inc. is engaged in the
 business of creating and licensing software in the field of
 computational chemistry and represents and warrants to the
 licensee that it is not a competitor of Gaussian, Inc. and that
 it will not use this program in any manner prohibited above.
 ---------------------------------------------------------------
  

 Cite this work as:
 Gaussian 16, Revision A.03,
 M. J. Frisch, G. W. Trucks, H. B. Schlegel, G. E. Scuseria, 
 M. A. Robb, J. R. Cheeseman, G. Scalmani, V. Barone, 
 G. A. Petersson, H. Nakatsuji, X. Li, M. Caricato, A. V. Marenich, 
 J. Bloino, B. G. Janesko, R. Gomperts, B. Mennucci, H. P. Hratchian, 
 J. V. Ortiz, A. F. Izmaylov, J. L. Sonnenberg, D. Williams-Young, 
 F. Ding, F. Lipparini, F. Egidi, J. Goings, B. Peng, A. Petrone, 
 T. Henderson, D. Ranasinghe, V. G. Zakrzewski, J. Gao, N. Rega, 
 G. Zheng, W. Liang, M. Hada, M. Ehara, K. Toyota, R. Fukuda, 
 J. Hasegawa, M. Ishida, T. Nakajima, Y. Honda, O. Kitao, H. Nakai, 
 T. Vreven, K. Throssell, J. A. Montgomery, Jr., J. E. Peralta, 
 F. Ogliaro, M. J. Bearpark, J. J. Heyd, E. N. Brothers, K. N. Kudin, 
 V. N. Staroverov, T. A. Keith, R. Kobayashi, J. Normand, 
 K. Raghavachari, A. P. Rendell, J. C. Burant, S. S. Iyengar, 
 J. Tomasi, M. Cossi, J. M. Millam, M. Klene, C. Adamo, R. Cammi, 
 J. W. Ochterski, R. L. Martin, K. Morokuma, O. Farkas, 
 J. B. Foresman, and D. J. Fox, Gaussian, Inc., Wallingford CT, 2016.
 
 ******************************************
 Gaussian 16:  ES64L-G16RevA.03 25-Dec-2016
                17-Mar-2026 
 ******************************************
 %chk=f1-6-311Gdp_SP.chk
 ----------------------------------------------
 #p B3LYP/6-311G(d,p) nosymm density=current sp
 ----------------------------------------------
 1/30=1,38=1,172=1/1;
 2/12=2,15=1,17=6,18=5,40=1/2;
 3/5=4,6=6,7=101,11=2,25=1,30=1,74=-5/1,2,3;
 4//1;
 5/5=2,38=5/2;
 6/7=2,8=2,9=2,10=2,22=-1,28=1/1;
 99/5=1,9=1/99;
 Leave Link    1 at Tue Mar 17 10:47:22 2026, MaxMem=           0 cpu:               0.0 elap:               0.0
 (Enter /sw/cluster/pub/apps//g16/l101.exe)
 ----------------------
 Generated by extraQ₂
 ----------------------
 Symbolic Z-matrix:
 Charge =  0 Multiplicity = 1
 C                     0.00015   1.4148    0.00003 
 C                    -1.18026   0.44513   0.00005 
 C                    -0.734    -0.88864   0.00002 
 C                     0.73382  -0.88876   0.00002 
 C                     1.18025   0.44495   0.00002 
 C                     2.53929   0.72731   0.00004 
 C                     3.45478  -0.32821   0.00003 
 C                     3.0109   -1.65145  -0.00002 
 C                     1.64761  -1.94172  0. 
 H                     1.30904  -2.97207  -0.00002 
 H                     3.73324  -2.46003  -0.00001 
 H                     4.51843  -0.1181    0.00006 
 H                     2.89585   1.75218   0.00007 
 C                    -1.64776  -1.94163  -0.00003 
 C                    -3.01104  -1.65134  -0.00001 
 C                    -3.4548   -0.32808   0.00004 
 C                    -2.53931   0.72745   0.00007 
 H                    -2.896     1.75228   0.00015 
 H                    -4.51844  -0.1179    0.00007 
 H                    -3.73348  -2.45984  -0.00004 
 H                    -1.30901  -2.97192  -0.00006 
 C                     0.00017   2.30035   1.26489 
 H                     0.0005    1.69036   2.17078 
 H                     0.8842    2.94392   1.28544 
 H                    -0.8842    2.94343   1.28569 
 C                     0.00013   2.30005  -1.26507 
 H                    -0.88431   2.94304  -1.28605 
 H                     0.88411   2.94369  -1.2858 
 H                     0.00049   1.68983  -2.17081 
 
 ITRead=  0  0  0  0  0  0  0  0  0  0  0  0  0  0  0  0  0  0  0  0
 ITRead=  0  0  0  0  0  0  0  0  0
 MicOpt= -1 -1 -1 -1 -1 -1 -1 -1 -1 -1 -1 -1 -1 -1 -1 -1 -1 -1 -1 -1
 MicOpt= -1 -1 -1 -1 -1 -1 -1 -1 -1
 NAtoms=     29 NQM=       29 NQMF=       0 NMMI=      0 NMMIF=      0
                NMic=       0 NMicF=      0.
                    Isotopes and Nuclear Properties:
 (Nuclear quadrupole moments (NQMom) in fm**2, nuclear magnetic moments (NMagM)
  in nuclear magnetons)

  Atom         1           2           3           4           5           6           7           8           9          10
 IAtWgt=          12          12          12          12          12          12          12          12          12           1
 AtmWgt=  12.0000000  12.0000000  12.0000000  12.0000000  12.0000000  12.0000000  12.0000000  12.0000000  12.0000000   1.0078250
 NucSpn=           0           0           0           0           0           0           0           0           0           1
 AtZEff=  -0.0000000  -0.0000000  -0.0000000  -0.0000000  -0.0000000  -0.0000000  -0.0000000  -0.0000000  -0.0000000  -0.0000000
 NQMom=    0.0000000   0.0000000   0.0000000   0.0000000   0.0000000   0.0000000   0.0000000   0.0000000   0.0000000   0.0000000
 NMagM=    0.0000000   0.0000000   0.0000000   0.0000000   0.0000000   0.0000000   0.0000000   0.0000000   0.0000000   2.7928460
 AtZNuc=   6.0000000   6.0000000   6.0000000   6.0000000   6.0000000   6.0000000   6.0000000   6.0000000   6.0000000   1.0000000

  Atom        11          12          13          14          15          16          17          18          19          20
 IAtWgt=           1           1           1          12          12          12          12           1           1           1
 AtmWgt=   1.0078250   1.0078250   1.0078250  12.0000000  12.0000000  12.0000000  12.0000000   1.0078250   1.0078250   1.0078250
 NucSpn=           1           1           1           0           0           0           0           1           1           1
 AtZEff=  -0.0000000  -0.0000000  -0.0000000  -0.0000000  -0.0000000  -0.0000000  -0.0000000  -0.0000000  -0.0000000  -0.0000000
 NQMom=    0.0000000   0.0000000   0.0000000   0.0000000   0.0000000   0.0000000   0.0000000   0.0000000   0.0000000   0.0000000
 NMagM=    2.7928460   2.7928460   2.7928460   0.0000000   0.0000000   0.0000000   0.0000000   2.7928460   2.7928460   2.7928460
 AtZNuc=   1.0000000   1.0000000   1.0000000   6.0000000   6.0000000   6.0000000   6.0000000   1.0000000   1.0000000   1.0000000

  Atom        21          22          23          24          25          26          27          28          29
 IAtWgt=           1          12           1           1           1          12           1           1           1
 AtmWgt=   1.0078250  12.0000000   1.0078250   1.0078250   1.0078250  12.0000000   1.0078250   1.0078250   1.0078250
 NucSpn=           1           0           1           1           1           0           1           1           1
 AtZEff=  -0.0000000  -0.0000000  -0.0000000  -0.0000000  -0.0000000  -0.0000000  -0.0000000  -0.0000000  -0.0000000
 NQMom=    0.0000000   0.0000000   0.0000000   0.0000000   0.0000000   0.0000000   0.0000000   0.0000000   0.0000000
 NMagM=    2.7928460   0.0000000   2.7928460   2.7928460   2.7928460   0.0000000   2.7928460   2.7928460   2.7928460
 AtZNuc=   1.0000000   6.0000000   1.0000000   1.0000000   1.0000000   6.0000000   1.0000000   1.0000000   1.0000000
 Leave Link  101 at Tue Mar 17 10:47:22 2026, MaxMem=   104857600 cpu:               0.0 elap:               0.0
 (Enter /sw/cluster/pub/apps//g16/l202.exe)
                          Input orientation:                          
 ---------------------------------------------------------------------
 Center     Atomic      Atomic             Coordinates (Angstroms)
 Number     Number       Type             X           Y           Z
 ---------------------------------------------------------------------
      1          6           0        0.000147    1.414795    0.000029
      2          6           0       -1.180259    0.445129    0.000050
      3          6           0       -0.733997   -0.888640    0.000019
      4          6           0        0.733816   -0.888758    0.000023
      5          6           0        1.180249    0.444946    0.000022
      6          6           0        2.539290    0.727305    0.000039
      7          6           0        3.454780   -0.328214    0.000032
      8          6           0        3.010901   -1.651446   -0.000015
      9          6           0        1.647611   -1.941721   -0.000000
     10          1           0        1.309043   -2.972071   -0.000024
     11          1           0        3.733239   -2.460031   -0.000009
     12          1           0        4.518432   -0.118095    0.000064
     13          1           0        2.895848    1.752182    0.000069
     14          6           0       -1.647757   -1.941634   -0.000027
     15          6           0       -3.011040   -1.651342   -0.000011
     16          6           0       -3.454797   -0.328078    0.000036
     17          6           0       -2.539308    0.727445    0.000070
     18          1           0       -2.895997    1.752278    0.000146
     19          1           0       -4.518442   -0.117902    0.000069
     20          1           0       -3.733479   -2.459836   -0.000035
     21          1           0       -1.309014   -2.971919   -0.000061
     22          6           0        0.000170    2.300349    1.264892
     23          1           0        0.000502    1.690360    2.170782
     24          1           0        0.884203    2.943919    1.285443
     25          1           0       -0.884202    2.943429    1.285694
     26          6           0        0.000125    2.300051   -1.265070
     27          1           0       -0.884308    2.943044   -1.286047
     28          1           0        0.884105    2.943686   -1.285803
     29          1           0        0.000486    1.689830   -2.170808
 ---------------------------------------------------------------------
                    Distance matrix (angstroms):
                    1          2          3          4          5
     1  C    0.000000
     2  C    1.527616   0.000000
     3  C    2.417598   1.406446   0.000000
     4  C    2.417566   2.333010   1.467813   0.000000
     5  C    1.527497   2.360508   2.332979   1.406438   0.000000
     6  C    2.630568   3.730237   3.650436   2.423096   1.388063
     7  C    3.869440   4.699111   4.226101   2.778103   2.402346
     8  C    4.297263   4.686304   3.821797   2.401418   2.783190
     9  C    3.739029   3.700527   2.604042   1.394185   2.431996
    10  H    4.577969   4.227751   2.917995   2.161268   3.419443
    11  H    5.380544   5.708101   4.735554   3.386065   3.867383
    12  H    4.771232   5.726456   5.308649   3.862284   3.385333
    13  H    2.915290   4.280542   4.488843   3.413055   2.156883
    14  C    3.739145   2.432117   1.394186   2.603927   3.700457
    15  C    4.297493   2.783334   2.401383   3.821712   4.686291
    16  C    3.869657   2.402368   2.777946   4.225972   4.699066
    17  C    2.630833   1.388062   2.422990   3.650404   3.730269
    18  H    2.915741   2.156941   3.413018   4.488943   4.280759
    19  H    4.771457   3.385332   3.862132   5.308525   5.726419
    20  H    5.380774   3.867526   3.386082   4.735505   5.708107
    21  H    4.577899   3.419473   2.161179   2.917656   4.227457
    22  C    1.544048   2.536746   3.508355   3.508352   2.536731
    23  H    2.188174   2.767105   3.450064   3.449898   2.766777
    24  H    2.184506   3.486860   4.354239   4.045286   2.825742
    25  H    2.184429   2.825249   4.044784   4.353917   3.486736
    26  C    1.544070   2.536645   3.508152   3.508171   2.536644
    27  H    2.184444   2.825104   4.044547   4.353735   3.486669
    28  H    2.184548   3.486804   4.354114   4.045190   2.825730
    29  H    2.188191   2.766960   3.449705   3.449550   2.766601
                    6          7          8          9         10
     6  C    0.000000
     7  C    1.397227   0.000000
     8  C    2.425051   1.395697   0.000000
     9  C    2.814035   2.422657   1.393850   0.000000
    10  H    3.898575   3.405021   2.154152   1.084550   0.000000
    11  H    3.403619   2.149926   1.084243   2.149067   2.477683
    12  H    2.152139   1.084207   2.150306   3.401062   4.294806
    13  H    1.085130   2.154171   3.405572   3.899104   4.983625
    14  C    4.965340   5.351543   4.667687   3.295368   3.131208
    15  C    6.038553   6.599810   6.021941   4.667692   4.517460
    16  C    6.086289   6.909577   6.599739   5.351487   5.448382
    17  C    5.078598   6.086338   6.038538   4.965354   5.338185
    18  H    5.531086   6.682875   6.817388   5.855767   6.324700
    19  H    7.108161   7.975995   7.683929   6.430126   6.488903
    20  H    7.036014   7.497658   6.792655   5.405976   5.068472
    21  H    5.337949   5.448202   4.517224   3.130965   2.618057
    22  C    3.243679   4.521454   5.126517   4.723259   5.577775
    23  H    3.476355   4.551794   4.994250   4.540625   5.306876
    24  H    3.050402   4.355112   5.224235   5.109270   6.068925
    25  H    4.276028   5.584205   6.159363   5.650467   6.438675
    26  C    3.243669   4.521382   5.126350   4.723054   5.577533
    27  H    4.276042   5.584157   6.159210   5.650262   6.438418
    28  H    3.050471   4.355120   5.224150   5.109152   6.068771
    29  H    3.476285   4.551615   4.993903   4.540219   5.306406
                   11         12         13         14         15
    11  H    0.000000
    12  H    2.470059   0.000000
    13  H    4.294643   2.476028   0.000000
    14  C    5.405909   6.430177   5.855649   0.000000
    15  C    6.792590   7.683996   6.817280   1.393847   0.000000
    16  C    7.497539   7.975994   6.682677   2.422593   1.395689
    17  C    7.035968   7.108209   5.530914   2.814044   2.425110
    18  H    7.854318   7.646702   5.791845   3.899114   3.405564
    19  H    8.577634   9.036874   7.646497   3.401004   2.150279
    20  H    7.466718   8.577749   7.854239   2.149132   1.084242
    21  H    5.068170   6.488716   6.324397   1.084543   2.154255
    22  C    6.180372   5.278575   3.207057   4.723358   5.126717
    23  H    5.989274   5.328622   3.619232   4.540986   4.994867
    24  H    6.242761   4.922982   2.668172   5.650831   6.159686
    25  H    7.222962   6.341469   4.166615   5.108810   5.223830
    26  C    6.180202   5.278550   3.207172   4.723107   5.126499
    27  H    7.222801   6.341471   4.166752   5.108501   5.223529
    28  H    6.242675   4.923037   2.668381   5.650654   6.159521
    29  H    5.988920   5.328519   3.619353   4.540542   4.994505
                   16         17         18         19         20
    16  C    0.000000
    17  C    1.397229   0.000000
    18  H    2.154098   1.085131   0.000000
    19  H    1.084212   2.152111   2.475864   0.000000
    20  H    2.149897   3.403646   4.294564   2.469984   0.000000
    21  H    3.405037   3.898579   4.983628   4.294862   2.477955
    22  C    4.521647   3.243879   3.207452   5.278785   6.180578
    23  H    4.552507   3.477043   3.620110   5.329415   5.989924
    24  H    5.584367   4.276140   4.166762   6.341570   7.223296
    25  H    4.354726   3.050048   2.668107   4.922629   6.242336
    26  C    4.521509   3.243823   3.207546   5.278686   6.180343
    27  H    4.354499   3.049918   2.668166   4.922440   6.242012
    28  H    5.584254   4.276090   4.166808   6.341475   7.223111
    29  H    4.552307   3.476989   3.620298   5.329288   5.989531
                   21         22         23         24         25
    21  H    0.000000
    22  C    5.577713   0.000000
    23  H    5.306999   1.092119   0.000000
    24  H    6.438933   1.093672   1.770921   0.000000
    25  H    6.068358   1.093663   1.770950   1.768405   0.000000
    26  C    5.577433   2.529962   3.489527   2.775118   2.775314
    27  H    6.068025   2.775364   3.781768   3.120928   2.571741
    28  H    6.438733   2.775115   3.781475   2.571246   3.120818
    29  H    5.306490   3.489523   4.341590   3.781451   3.781745
                   26         27         28         29
    26  C    0.000000
    27  H    1.093664   0.000000
    28  H    1.093671   1.768413   0.000000
    29  H    1.092122   1.770934   1.770924   0.000000
 Symmetry turned off by external request.
 Stoichiometry    C15H14
 Framework group  C1[X(C15H14)]
 Deg. of freedom    81
 Full point group                 C1      NOp   1
 Rotational constants (GHZ):           1.0592588           0.5507453           0.3931076
 Leave Link  202 at Tue Mar 17 10:47:22 2026, MaxMem=   104857600 cpu:               0.0 elap:               0.0
 (Enter /sw/cluster/pub/apps//g16/l301.exe)
 Standard basis: 6-311G(d,p) (5D, 7F)
 Ernie: Thresh=  0.10000D-02 Tol=  0.10000D-05 Strict=F.
   354 basis functions,   592 primitive gaussians,   369 cartesian basis functions
    52 alpha electrons       52 beta electrons
       nuclear repulsion energy       927.4790251233 Hartrees.
 IExCor=  402 DFT=T Ex+Corr=B3LYP ExCW=0 ScaHFX=  0.200000
 ScaDFX=  0.800000  0.720000  1.000000  0.810000 ScalE2=  1.000000  1.000000
 IRadAn=      5 IRanWt=     -1 IRanGd=            0 ICorTp=0 IEmpDi=  4
 NAtoms=   29 NActive=   29 NUniq=   29 SFac= 1.00D+00 NAtFMM=   60 NAOKFM=F Big=F
 Integral buffers will be    131072 words long.
 Raffenetti 2 integral format.
 Two-electron integral symmetry is turned off.
 Leave Link  301 at Tue Mar 17 10:47:22 2026, MaxMem=   104857600 cpu:               0.0 elap:               0.0
 (Enter /sw/cluster/pub/apps//g16/l302.exe)
 NPDir=0 NMtPBC=     1 NCelOv=     1 NCel=       1 NClECP=     1 NCelD=      1
         NCelK=      1 NCelE2=     1 NClLst=     1 CellRange=     0.0.
 One-electron integrals computed using PRISM.
 NBasis=   354 RedAO= T EigKep=  1.16D-04  NBF=   354
 NBsUse=   354 1.00D-06 EigRej= -1.00D+00 NBFU=   354
 Precomputing XC quadrature grid using
 IXCGrd= 4 IRadAn=           5 IRanWt=          -1 IRanGd=           0 AccXCQ= 0.00D+00.
 Generated NRdTot=       0 NPtTot=           0 NUsed=           0 NTot=          32
 NSgBfM=   369   369   369   369   369 MxSgAt=    29 MxSgA2=    29.
 Leave Link  302 at Tue Mar 17 10:47:22 2026, MaxMem=   104857600 cpu:               0.4 elap:               0.4
 (Enter /sw/cluster/pub/apps//g16/l303.exe)
 DipDrv:  MaxL=1.
 Leave Link  303 at Tue Mar 17 10:47:22 2026, MaxMem=   104857600 cpu:               0.0 elap:               0.0
 (Enter /sw/cluster/pub/apps//g16/l401.exe)
 ExpMin= 1.03D-01 ExpMax= 4.56D+03 ExpMxC= 6.82D+02 IAcc=3 IRadAn=         5 AccDes= 0.00D+00
 Harris functional with IExCor=  402 and IRadAn=       5 diagonalized for initial guess.
 HarFok:  IExCor=  402 AccDes= 0.00D+00 IRadAn=         5 IDoV= 1 UseB2=F ITyADJ=14
 ICtDFT=  3500011 ScaDFX=  1.000000  1.000000  1.000000  1.000000
 FoFCou: FMM=F IPFlag=           0 FMFlag=      100000 FMFlg1=           0
         NFxFlg=           0 DoJE=T BraDBF=F KetDBF=T FulRan=T
         wScrn=  0.000000 ICntrl=       500 IOpCl=  0 I1Cent=   200000004 NGrid=           0
         NMat0=    1 NMatS0=      1 NMatT0=    0 NMatD0=    1 NMtDS0=    0 NMtDT0=    0
 Symmetry not used in FoFCou.
 Harris En= -580.255086212924    
 JPrj=0 DoOrth=F DoCkMO=F.
 Leave Link  401 at Tue Mar 17 10:47:27 2026, MaxMem=   104857600 cpu:               4.5 elap:               4.5
 (Enter /sw/cluster/pub/apps//g16/l502.exe)
 Two-electron integral symmetry not used.
 Closed shell SCF:
 Using DIIS extrapolation, IDIIS=  1040.
 NGot=   104857600 LenX=   104580148 LenY=   104443546
 Requested convergence on RMS density matrix=1.00D-08 within 128 cycles.
 Requested convergence on MAX density matrix=1.00D-06.
 Requested convergence on             energy=1.00D-06.
 No special actions if energy rises.
 Fock matrices will be formed incrementally for  20 cycles.
 Integral accuracy reduced to 1.0D-05 until final iterations.

 Cycle   1  Pass 0  IDiag  1:
 FoFJK:  IHMeth= 1 ICntrl=       0 DoSepK=F KAlg= 0 I1Cent=           0 FoldK=F
 IRaf= 870000000 NMat=       1 IRICut=       1 DoRegI=T DoRafI=F ISym2E= 0 IDoP0=0 IntGTp=1.
 FoFCou: FMM=F IPFlag=           0 FMFlag=      100000 FMFlg1=           0
         NFxFlg=           0 DoJE=F BraDBF=F KetDBF=F FulRan=T
         wScrn=  0.000000 ICntrl=         0 IOpCl=  0 I1Cent=           0 NGrid=           0
         NMat0=    1 NMatS0=      1 NMatT0=    0 NMatD0=    1 NMtDS0=    0 NMtDT0=    0
 Symmetry not used in FoFCou.
 E= -579.792219126134    
 DIIS: error= 4.45D-02 at cycle   1 NSaved=   1.
 NSaved= 1 IEnMin= 1 EnMin= -579.792219126134     IErMin= 1 ErrMin= 4.45D-02
 ErrMax= 4.45D-02  0.00D+00 EMaxC= 1.00D-01 BMatC= 3.99D-01 BMatP= 3.99D-01
 IDIUse=3 WtCom= 5.55D-01 WtEn= 4.45D-01
 Coeff-Com:  0.100D+01
 Coeff-En:   0.100D+01
 Coeff:      0.100D+01
 Gap=     0.182 Goal=   None    Shift=    0.000
 GapD=    0.182 DampG=1.000 DampE=0.500 DampFc=0.5000 IDamp=-1.
 Damping current iteration by 5.00D-01
 RMSDP=3.07D-03 MaxDP=1.25D-01              OVMax= 1.72D-01

 Cycle   2  Pass 0  IDiag  1:
 RMSU=  1.48D-03    CP:  9.58D-01
 E= -579.978724148079     Delta-E=       -0.186505021945 Rises=F Damp=T
 DIIS: error= 6.42D-03 at cycle   2 NSaved=   2.
 NSaved= 2 IEnMin= 2 EnMin= -579.978724148079     IErMin= 2 ErrMin= 6.42D-03
 ErrMax= 6.42D-03  0.00D+00 EMaxC= 1.00D-01 BMatC= 1.92D-02 BMatP= 3.99D-01
 IDIUse=3 WtCom= 9.36D-01 WtEn= 6.42D-02
 Coeff-Com: -0.126D-01 0.101D+01
 Coeff-En:   0.237D-01 0.976D+00
 Coeff:     -0.103D-01 0.101D+01
 Gap=     0.187 Goal=   None    Shift=    0.000
 RMSDP=7.74D-04 MaxDP=2.45D-02 DE=-1.87D-01 OVMax= 1.02D-01

 Cycle   3  Pass 0  IDiag  1:
 RMSU=  7.53D-04    CP:  9.60D-01  8.80D-01
 E= -580.182850616916     Delta-E=       -0.204126468837 Rises=F Damp=F
 DIIS: error= 4.59D-03 at cycle   3 NSaved=   3.
 NSaved= 3 IEnMin= 3 EnMin= -580.182850616916     IErMin= 3 ErrMin= 4.59D-03
 ErrMax= 4.59D-03  0.00D+00 EMaxC= 1.00D-01 BMatC= 5.59D-03 BMatP= 1.92D-02
 IDIUse=3 WtCom= 9.54D-01 WtEn= 4.59D-02
 Coeff-Com: -0.579D-01 0.324D+00 0.734D+00
 Coeff-En:   0.000D+00 0.000D+00 0.100D+01
 Coeff:     -0.552D-01 0.309D+00 0.746D+00
 Gap=     0.181 Goal=   None    Shift=    0.000
 RMSDP=3.56D-04 MaxDP=1.97D-02 DE=-2.04D-01 OVMax= 2.96D-02

 Cycle   4  Pass 0  IDiag  1:
 RMSU=  2.47D-04    CP:  9.55D-01  9.70D-01  7.15D-01
 E= -580.186319181195     Delta-E=       -0.003468564279 Rises=F Damp=F
 DIIS: error= 4.95D-03 at cycle   4 NSaved=   4.
 NSaved= 4 IEnMin= 4 EnMin= -580.186319181195     IErMin= 3 ErrMin= 4.59D-03
 ErrMax= 4.95D-03  0.00D+00 EMaxC= 1.00D-01 BMatC= 2.02D-03 BMatP= 5.59D-03
 IDIUse=3 WtCom= 9.50D-01 WtEn= 4.95D-02
 Coeff-Com: -0.342D-01 0.140D+00 0.448D+00 0.446D+00
 Coeff-En:   0.000D+00 0.000D+00 0.258D+00 0.742D+00
 Coeff:     -0.325D-01 0.133D+00 0.438D+00 0.461D+00
 Gap=     0.182 Goal=   None    Shift=    0.000
 RMSDP=1.67D-04 MaxDP=4.06D-03 DE=-3.47D-03 OVMax= 2.19D-02

 Cycle   5  Pass 0  IDiag  1:
 RMSU=  1.02D-04    CP:  9.55D-01  9.64D-01  7.72D-01  4.95D-01
 E= -580.188274655913     Delta-E=       -0.001955474718 Rises=F Damp=F
 DIIS: error= 1.89D-03 at cycle   5 NSaved=   5.
 NSaved= 5 IEnMin= 5 EnMin= -580.188274655913     IErMin= 5 ErrMin= 1.89D-03
 ErrMax= 1.89D-03  0.00D+00 EMaxC= 1.00D-01 BMatC= 2.61D-04 BMatP= 2.02D-03
 IDIUse=3 WtCom= 9.81D-01 WtEn= 1.89D-02
 Coeff-Com: -0.949D-02 0.222D-01 0.127D+00 0.288D+00 0.572D+00
 Coeff-En:   0.000D+00 0.000D+00 0.000D+00 0.134D+00 0.866D+00
 Coeff:     -0.932D-02 0.218D-01 0.125D+00 0.285D+00 0.578D+00
 Gap=     0.181 Goal=   None    Shift=    0.000
 RMSDP=4.77D-05 MaxDP=1.08D-03 DE=-1.96D-03 OVMax= 6.71D-03

 Cycle   6  Pass 0  IDiag  1:
 RMSU=  1.80D-05    CP:  9.55D-01  9.66D-01  7.71D-01  6.05D-01  6.60D-01
 E= -580.188553353701     Delta-E=       -0.000278697788 Rises=F Damp=F
 DIIS: error= 3.02D-04 at cycle   6 NSaved=   6.
 NSaved= 6 IEnMin= 6 EnMin= -580.188553353701     IErMin= 6 ErrMin= 3.02D-04
 ErrMax= 3.02D-04  0.00D+00 EMaxC= 1.00D-01 BMatC= 1.24D-05 BMatP= 2.61D-04
 IDIUse=3 WtCom= 9.97D-01 WtEn= 3.02D-03
 Coeff-Com: -0.407D-02 0.752D-02 0.554D-01 0.146D+00 0.330D+00 0.466D+00
 Coeff-En:   0.000D+00 0.000D+00 0.000D+00 0.000D+00 0.000D+00 0.100D+01
 Coeff:     -0.406D-02 0.749D-02 0.553D-01 0.145D+00 0.329D+00 0.467D+00
 Gap=     0.181 Goal=   None    Shift=    0.000
 RMSDP=9.91D-06 MaxDP=3.92D-04 DE=-2.79D-04 OVMax= 1.09D-03

 Initial convergence to 1.0D-05 achieved.  Increase integral accuracy.
 Cycle   7  Pass 1  IDiag  1:
 E= -580.188567318824     Delta-E=       -0.000013965123 Rises=F Damp=F
 DIIS: error= 6.56D-05 at cycle   1 NSaved=   1.
 NSaved= 1 IEnMin= 1 EnMin= -580.188567318824     IErMin= 1 ErrMin= 6.56D-05
 ErrMax= 6.56D-05  0.00D+00 EMaxC= 1.00D-01 BMatC= 7.25D-07 BMatP= 7.25D-07
 IDIUse=1 WtCom= 1.00D+00 WtEn= 0.00D+00
 Coeff-Com:  0.100D+01
 Coeff:      0.100D+01
 Gap=     0.181 Goal=   None    Shift=    0.000
 RMSDP=9.91D-06 MaxDP=3.92D-04 DE=-1.40D-05 OVMax= 4.41D-04

 Cycle   8  Pass 1  IDiag  1:
 RMSU=  3.95D-05    CP:  1.00D+00
 E= -580.188566739474     Delta-E=        0.000000579350 Rises=F Damp=F
 DIIS: error= 1.05D-04 at cycle   2 NSaved=   2.
 NSaved= 2 IEnMin= 1 EnMin= -580.188567318824     IErMin= 1 ErrMin= 6.56D-05
 ErrMax= 1.05D-04  0.00D+00 EMaxC= 1.00D-01 BMatC= 1.17D-06 BMatP= 7.25D-07
 IDIUse=3 WtCom= 4.94D-01 WtEn= 5.06D-01
 Coeff-Com:  0.568D+00 0.432D+00
 Coeff-En:   0.648D+00 0.352D+00
 Coeff:      0.609D+00 0.391D+00
 Gap=     0.181 Goal=   None    Shift=    0.000
 RMSDP=2.75D-06 MaxDP=8.37D-05 DE= 5.79D-07 OVMax= 3.47D-04

 Cycle   9  Pass 1  IDiag  1:
 RMSU=  2.75D-06    CP:  1.00D+00  9.97D-01
 E= -580.188567946027     Delta-E=       -0.000001206553 Rises=F Damp=F
 DIIS: error= 1.96D-05 at cycle   3 NSaved=   3.
 NSaved= 3 IEnMin= 3 EnMin= -580.188567946027     IErMin= 3 ErrMin= 1.96D-05
 ErrMax= 1.96D-05  0.00D+00 EMaxC= 1.00D-01 BMatC= 3.01D-08 BMatP= 7.25D-07
 IDIUse=1 WtCom= 1.00D+00 WtEn= 0.00D+00
 Coeff-Com:  0.108D+00 0.140D+00 0.752D+00
 Coeff:      0.108D+00 0.140D+00 0.752D+00
 Gap=     0.181 Goal=   None    Shift=    0.000
 RMSDP=9.55D-07 MaxDP=2.67D-05 DE=-1.21D-06 OVMax= 1.15D-04

 Cycle  10  Pass 1  IDiag  1:
 RMSU=  8.59D-07    CP:  1.00D+00  1.00D+00  8.66D-01
 E= -580.188567946146     Delta-E=       -0.000000000119 Rises=F Damp=F
 DIIS: error= 1.72D-05 at cycle   4 NSaved=   4.
 NSaved= 4 IEnMin= 4 EnMin= -580.188567946146     IErMin= 4 ErrMin= 1.72D-05
 ErrMax= 1.72D-05  0.00D+00 EMaxC= 1.00D-01 BMatC= 3.17D-08 BMatP= 3.01D-08
 IDIUse=1 WtCom= 1.00D+00 WtEn= 0.00D+00
 Coeff-Com:  0.140D-01 0.520D-01 0.524D+00 0.410D+00
 Coeff:      0.140D-01 0.520D-01 0.524D+00 0.410D+00
 Gap=     0.181 Goal=   None    Shift=    0.000
 RMSDP=5.28D-07 MaxDP=1.81D-05 DE=-1.19D-10 OVMax= 6.00D-05

 Cycle  11  Pass 1  IDiag  1:
 RMSU=  1.56D-07    CP:  1.00D+00  1.00D+00  9.10D-01  4.50D-01
 E= -580.188567978881     Delta-E=       -0.000000032735 Rises=F Damp=F
 DIIS: error= 1.60D-06 at cycle   5 NSaved=   5.
 NSaved= 5 IEnMin= 5 EnMin= -580.188567978881     IErMin= 5 ErrMin= 1.60D-06
 ErrMax= 1.60D-06  0.00D+00 EMaxC= 1.00D-01 BMatC= 4.24D-10 BMatP= 3.01D-08
 IDIUse=1 WtCom= 1.00D+00 WtEn= 0.00D+00
 Coeff-Com: -0.718D-03 0.144D-01 0.188D+00 0.184D+00 0.615D+00
 Coeff:     -0.718D-03 0.144D-01 0.188D+00 0.184D+00 0.615D+00
 Gap=     0.181 Goal=   None    Shift=    0.000
 RMSDP=6.07D-08 MaxDP=1.92D-06 DE=-3.27D-08 OVMax= 7.14D-06

 Cycle  12  Pass 1  IDiag  1:
 RMSU=  4.11D-08    CP:  1.00D+00  1.00D+00  9.08D-01  4.65D-01  7.31D-01
 E= -580.188567979231     Delta-E=       -0.000000000351 Rises=F Damp=F
 DIIS: error= 9.07D-07 at cycle   6 NSaved=   6.
 NSaved= 6 IEnMin= 6 EnMin= -580.188567979231     IErMin= 6 ErrMin= 9.07D-07
 ErrMax= 9.07D-07  0.00D+00 EMaxC= 1.00D-01 BMatC= 6.30D-11 BMatP= 4.24D-10
 IDIUse=1 WtCom= 1.00D+00 WtEn= 0.00D+00
 Coeff-Com: -0.831D-03 0.815D-02 0.112D+00 0.111D+00 0.409D+00 0.361D+00
 Coeff:     -0.831D-03 0.815D-02 0.112D+00 0.111D+00 0.409D+00 0.361D+00
 Gap=     0.181 Goal=   None    Shift=    0.000
 RMSDP=2.37D-08 MaxDP=5.36D-07 DE=-3.51D-10 OVMax= 2.87D-06

 Cycle  13  Pass 1  IDiag  1:
 RMSU=  1.51D-08    CP:  1.00D+00  1.00D+00  9.07D-01  4.64D-01  7.24D-01
                    CP:  5.57D-01
 E= -580.188567979300     Delta-E=       -0.000000000068 Rises=F Damp=F
 DIIS: error= 9.99D-08 at cycle   7 NSaved=   7.
 NSaved= 7 IEnMin= 7 EnMin= -580.188567979300     IErMin= 7 ErrMin= 9.99D-08
 ErrMax= 9.99D-08  0.00D+00 EMaxC= 1.00D-01 BMatC= 1.23D-12 BMatP= 6.30D-11
 IDIUse=1 WtCom= 1.00D+00 WtEn= 0.00D+00
 Coeff-Com: -0.317D-03 0.219D-02 0.318D-01 0.310D-01 0.123D+00 0.160D+00
 Coeff-Com:  0.653D+00
 Coeff:     -0.317D-03 0.219D-02 0.318D-01 0.310D-01 0.123D+00 0.160D+00
 Coeff:      0.653D+00
 Gap=     0.181 Goal=   None    Shift=    0.000
 RMSDP=4.09D-09 MaxDP=1.42D-07 DE=-6.84D-11 OVMax= 4.11D-07

 SCF Done:  E(RB3LYP) =  -580.188567979     A.U. after   13 cycles
            NFock= 13  Conv=0.41D-08     -V/T= 2.0045
 KE= 5.775747906225D+02 PE=-3.200394590653D+03 EE= 1.115152206928D+03
 Leave Link  502 at Tue Mar 17 10:49:23 2026, MaxMem=   104857600 cpu:             116.1 elap:             116.3
 (Enter /sw/cluster/pub/apps//g16/l601.exe)
 Copying SCF densities to generalized density rwf, IOpCl= 0 IROHF=0.

 **********************************************************************

            Population analysis using the SCF density.

 **********************************************************************

 Alpha  occ. eigenvalues --  -10.19607 -10.17812 -10.17781 -10.17550 -10.17549
 Alpha  occ. eigenvalues --  -10.17423 -10.17423 -10.17403 -10.17402 -10.17338
 Alpha  occ. eigenvalues --  -10.17338 -10.17285 -10.17284 -10.16493 -10.16493
 Alpha  occ. eigenvalues --   -0.89318  -0.84777  -0.81598  -0.77759  -0.74583
 Alpha  occ. eigenvalues --   -0.73542  -0.71700  -0.69132  -0.64749  -0.62474
 Alpha  occ. eigenvalues --   -0.58733  -0.57890  -0.56097  -0.51345  -0.49919
 Alpha  occ. eigenvalues --   -0.47771  -0.45512  -0.45100  -0.43986  -0.43571
 Alpha  occ. eigenvalues --   -0.43250  -0.42235  -0.42151  -0.39599  -0.38607
 Alpha  occ. eigenvalues --   -0.38577  -0.37846  -0.35607  -0.35120  -0.34814
 Alpha  occ. eigenvalues --   -0.34508  -0.32397  -0.32327  -0.28665  -0.25364
 Alpha  occ. eigenvalues --   -0.24991  -0.22011
 Alpha virt. eigenvalues --   -0.03868  -0.01791   0.00084   0.03262   0.03874
 Alpha virt. eigenvalues --    0.05437   0.05463   0.07705   0.07710   0.09685
 Alpha virt. eigenvalues --    0.09773   0.10259   0.10726   0.12559   0.13787
 Alpha virt. eigenvalues --    0.14128   0.14236   0.14797   0.16795   0.17594
 Alpha virt. eigenvalues --    0.19856   0.20045   0.20533   0.23864   0.24438
 Alpha virt. eigenvalues --    0.25071   0.26173   0.27077   0.27587   0.27952
 Alpha virt. eigenvalues --    0.28975   0.30854   0.31447   0.32477   0.35222
 Alpha virt. eigenvalues --    0.36486   0.36674   0.37342   0.39410   0.39618
 Alpha virt. eigenvalues --    0.40338   0.40764   0.40814   0.41865   0.42170
 Alpha virt. eigenvalues --    0.42927   0.43302   0.43816   0.45552   0.45627
 Alpha virt. eigenvalues --    0.46655   0.47488   0.47670   0.47710   0.49745
 Alpha virt. eigenvalues --    0.49848   0.51421   0.52487   0.53107   0.54409
 Alpha virt. eigenvalues --    0.55215   0.55415   0.55667   0.57832   0.58150
 Alpha virt. eigenvalues --    0.58583   0.58943   0.59703   0.60667   0.61208
 Alpha virt. eigenvalues --    0.61853   0.62553   0.62861   0.62929   0.63815
 Alpha virt. eigenvalues --    0.64345   0.64735   0.65727   0.66388   0.67336
 Alpha virt. eigenvalues --    0.69257   0.70043   0.72776   0.72894   0.75143
 Alpha virt. eigenvalues --    0.75719   0.76269   0.76540   0.79184   0.80742
 Alpha virt. eigenvalues --    0.82283   0.83207   0.84763   0.85274   0.86861
 Alpha virt. eigenvalues --    0.88765   0.89051   0.89330   0.94166   0.95936
 Alpha virt. eigenvalues --    0.96297   0.97594   1.01563   1.02104   1.02434
 Alpha virt. eigenvalues --    1.03139   1.04242   1.05132   1.06867   1.07134
 Alpha virt. eigenvalues --    1.07326   1.09495   1.10484   1.10993   1.15301
 Alpha virt. eigenvalues --    1.15983   1.16654   1.18632   1.21120   1.22528
 Alpha virt. eigenvalues --    1.24591   1.28232   1.28481   1.32337   1.38385
 Alpha virt. eigenvalues --    1.40367   1.43119   1.43243   1.44260   1.44908
 Alpha virt. eigenvalues --    1.45878   1.46629   1.47252   1.48270   1.48310
 Alpha virt. eigenvalues --    1.48388   1.49465   1.49932   1.54515   1.55485
 Alpha virt. eigenvalues --    1.55744   1.56202   1.57234   1.57565   1.58017
 Alpha virt. eigenvalues --    1.58594   1.60032   1.61184   1.62332   1.63499
 Alpha virt. eigenvalues --    1.64709   1.65956   1.66486   1.66900   1.68526
 Alpha virt. eigenvalues --    1.70221   1.71533   1.72413   1.73328   1.74041
 Alpha virt. eigenvalues --    1.74784   1.75209   1.76349   1.78114   1.80673
 Alpha virt. eigenvalues --    1.82458   1.82574   1.84227   1.84968   1.86625
 Alpha virt. eigenvalues --    1.88111   1.89497   1.89571   1.90416   1.90615
 Alpha virt. eigenvalues --    1.91722   1.92539   1.93711   1.94256   1.94668
 Alpha virt. eigenvalues --    1.97795   1.99595   2.00668   2.03647   2.06702
 Alpha virt. eigenvalues --    2.06878   2.09104   2.09995   2.10309   2.11395
 Alpha virt. eigenvalues --    2.11670   2.12488   2.18564   2.22480   2.23118
 Alpha virt. eigenvalues --    2.26373   2.26709   2.26915   2.31115   2.33072
 Alpha virt. eigenvalues --    2.33616   2.35238   2.35625   2.38898   2.41064
 Alpha virt. eigenvalues --    2.42491   2.42746   2.44157   2.47064   2.48907
 Alpha virt. eigenvalues --    2.50097   2.51488   2.51971   2.52467   2.53117
 Alpha virt. eigenvalues --    2.56266   2.56755   2.57799   2.59518   2.60624
 Alpha virt. eigenvalues --    2.61772   2.62010   2.62167   2.63968   2.64077
 Alpha virt. eigenvalues --    2.64936   2.66020   2.66136   2.68502   2.69823
 Alpha virt. eigenvalues --    2.71679   2.72259   2.72464   2.73119   2.73409
 Alpha virt. eigenvalues --    2.76800   2.80580   2.80604   2.81960   2.82577
 Alpha virt. eigenvalues --    2.84009   2.87144   2.89055   2.89100   2.91605
 Alpha virt. eigenvalues --    2.91907   2.92164   2.93610   2.99163   3.01876
 Alpha virt. eigenvalues --    3.06873   3.12273   3.13882   3.14898   3.20792
 Alpha virt. eigenvalues --    3.21204   3.24841   3.25564   3.33311   3.37693
 Alpha virt. eigenvalues --    3.39782   3.40570   3.45827   3.47421   3.48824
 Alpha virt. eigenvalues --    3.55158   3.57568   3.63030   3.69067   3.71773
 Alpha virt. eigenvalues --    3.76913   3.78244   3.81886   3.83090   3.85512
 Alpha virt. eigenvalues --    4.02371   4.02931   4.03225   4.06123   4.13158
 Alpha virt. eigenvalues --    4.20828   4.25223   4.33063   4.41476   4.61442
 Alpha virt. eigenvalues --    4.82669   4.86824  23.43627  23.62965  23.81109
 Alpha virt. eigenvalues --   23.91976  23.92284  23.92984  23.93972  23.94518
 Alpha virt. eigenvalues --   23.99194  24.07575  24.08423  24.10329  24.11212
 Alpha virt. eigenvalues --   24.19017  24.19436
          Condensed to atoms (all electrons):
               1          2          3          4          5          6
     1  C    5.257493   0.363400  -0.083572  -0.083549   0.363419  -0.057462
     2  C    0.363400   5.119825   0.540366  -0.050367  -0.127763   0.006896
     3  C   -0.083572   0.540366   4.908975   0.399865  -0.050381   0.014099
     4  C   -0.083549  -0.050367   0.399865   4.908900   0.540374  -0.038846
     5  C    0.363419  -0.127763  -0.050381   0.540374   5.119818   0.509335
     6  C   -0.057462   0.006896   0.014099  -0.038846   0.509335   4.826407
     7  C    0.005939  -0.000925   0.000996  -0.043560  -0.048879   0.515502
     8  C    0.000003  -0.000488   0.010985  -0.040801  -0.050507  -0.050303
     9  C    0.010293   0.007324  -0.070658   0.514593  -0.063606  -0.044422
    10  H   -0.000548  -0.000144  -0.014439  -0.037863   0.009899  -0.000872
    11  H    0.000044   0.000015  -0.000443   0.007463   0.000229   0.007425
    12  H   -0.000390   0.000036  -0.000018  -0.000098   0.008596  -0.040513
    13  H   -0.006842   0.000784  -0.000874   0.008656  -0.044546   0.416129
    14  C    0.010288  -0.063602   0.514595  -0.070654   0.007326  -0.000232
    15  C    0.000003  -0.050503  -0.040799   0.010987  -0.000488  -0.000001
    16  C    0.005935  -0.048897  -0.043551   0.000998  -0.000925  -0.000001
    17  C   -0.057432   0.509330  -0.038855   0.014102   0.006892  -0.000174
    18  H   -0.006836  -0.044547   0.008655  -0.000874   0.000783   0.000016
    19  H   -0.000390   0.008598  -0.000099  -0.000018   0.000036   0.000000
    20  H    0.000044   0.000230   0.007461  -0.000443   0.000015  -0.000000
    21  H   -0.000548   0.009898  -0.037857  -0.014446  -0.000143   0.000036
    22  C    0.360536  -0.073106   0.000983   0.000977  -0.073095  -0.003688
    23  H   -0.031084  -0.005211   0.002062   0.002062  -0.005218   0.000091
    24  H   -0.029932   0.009783  -0.000082  -0.000800  -0.011537   0.003959
    25  H   -0.029937  -0.011556  -0.000800  -0.000080   0.009781  -0.000163
    26  C    0.360527  -0.073119   0.000977   0.000975  -0.073112  -0.003689
    27  H   -0.029937  -0.011558  -0.000801  -0.000080   0.009782  -0.000163
    28  H   -0.029932   0.009783  -0.000081  -0.000801  -0.011534   0.003960
    29  H   -0.031080  -0.005212   0.002064   0.002062  -0.005220   0.000091
               7          8          9         10         11         12
     1  C    0.005939   0.000003   0.010293  -0.000548   0.000044  -0.000390
     2  C   -0.000925  -0.000488   0.007324  -0.000144   0.000015   0.000036
     3  C    0.000996   0.010985  -0.070658  -0.014439  -0.000443  -0.000018
     4  C   -0.043560  -0.040801   0.514593  -0.037863   0.007463  -0.000098
     5  C   -0.048879  -0.050507  -0.063606   0.009899   0.000229   0.008596
     6  C    0.515502  -0.050303  -0.044422  -0.000872   0.007425  -0.040513
     7  C    4.865516   0.517262  -0.060990   0.007667  -0.042933   0.412787
     8  C    0.517262   4.866756   0.510813  -0.046062   0.412178  -0.044395
     9  C   -0.060990   0.510813   4.851997   0.415003  -0.039243   0.007872
    10  H    0.007667  -0.046062   0.415003   0.589974  -0.007708  -0.000335
    11  H   -0.042933   0.412178  -0.039243  -0.007708   0.580406  -0.008103
    12  H    0.412787  -0.044395   0.007872  -0.000335  -0.008103   0.581652
    13  H   -0.042728   0.007492  -0.000257   0.000089  -0.000368  -0.007757
    14  C    0.000100  -0.000074  -0.002303   0.002823   0.000005  -0.000002
    15  C    0.000000  -0.000002  -0.000074   0.000108  -0.000000   0.000000
    16  C    0.000000   0.000000   0.000100  -0.000009  -0.000000   0.000000
    17  C   -0.000001  -0.000001  -0.000232   0.000036  -0.000000   0.000000
    18  H   -0.000001   0.000000  -0.000002   0.000001   0.000000  -0.000000
    19  H    0.000000   0.000000  -0.000002  -0.000001  -0.000000  -0.000000
    20  H   -0.000000  -0.000000   0.000005   0.000009   0.000000  -0.000000
    21  H   -0.000009   0.000109   0.002823   0.000937   0.000009  -0.000001
    22  C   -0.000113   0.000036  -0.000271   0.000017   0.000000   0.000004
    23  H   -0.000087  -0.000027  -0.000120   0.000003  -0.000001   0.000004
    24  H    0.000060   0.000001  -0.000030   0.000001  -0.000000   0.000011
    25  H    0.000020  -0.000002   0.000025  -0.000002   0.000000  -0.000001
    26  C   -0.000113   0.000036  -0.000271   0.000017   0.000000   0.000004
    27  H    0.000020  -0.000002   0.000025  -0.000002   0.000000  -0.000001
    28  H    0.000060   0.000001  -0.000030   0.000001  -0.000000   0.000011
    29  H   -0.000087  -0.000027  -0.000120   0.000003  -0.000001   0.000004
              13         14         15         16         17         18
     1  C   -0.006842   0.010288   0.000003   0.005935  -0.057432  -0.006836
     2  C    0.000784  -0.063602  -0.050503  -0.048897   0.509330  -0.044547
     3  C   -0.000874   0.514595  -0.040799  -0.043551  -0.038855   0.008655
     4  C    0.008656  -0.070654   0.010987   0.000998   0.014102  -0.000874
     5  C   -0.044546   0.007326  -0.000488  -0.000925   0.006892   0.000783
     6  C    0.416129  -0.000232  -0.000001  -0.000001  -0.000174   0.000016
     7  C   -0.042728   0.000100   0.000000   0.000000  -0.000001  -0.000001
     8  C    0.007492  -0.000074  -0.000002   0.000000  -0.000001   0.000000
     9  C   -0.000257  -0.002303  -0.000074   0.000100  -0.000232  -0.000002
    10  H    0.000089   0.002823   0.000108  -0.000009   0.000036   0.000001
    11  H   -0.000368   0.000005  -0.000000  -0.000000  -0.000000   0.000000
    12  H   -0.007757  -0.000002   0.000000   0.000000   0.000000  -0.000000
    13  H    0.588032  -0.000002   0.000000  -0.000001   0.000016   0.000004
    14  C   -0.000002   4.851958   0.510792  -0.061017  -0.044420  -0.000257
    15  C    0.000000   0.510792   4.866759   0.517274  -0.050285   0.007492
    16  C   -0.000001  -0.061017   0.517274   4.865496   0.515522  -0.042723
    17  C    0.000016  -0.044420  -0.050285   0.515522   4.826418   0.416119
    18  H    0.000004  -0.000257   0.007492  -0.042723   0.416119   0.588027
    19  H   -0.000000   0.007874  -0.044400   0.412787  -0.040514  -0.007760
    20  H    0.000000  -0.039241   0.412178  -0.042930   0.007425  -0.000368
    21  H    0.000001   0.415007  -0.046060   0.007665  -0.000873   0.000089
    22  C    0.000313  -0.000270   0.000036  -0.000113  -0.003685   0.000313
    23  H    0.000116  -0.000119  -0.000027  -0.000087   0.000090   0.000116
    24  H    0.001222   0.000025  -0.000002   0.000020  -0.000162  -0.000195
    25  H   -0.000195  -0.000031   0.000001   0.000060   0.003962   0.001224
    26  C    0.000313  -0.000271   0.000036  -0.000113  -0.003685   0.000312
    27  H   -0.000195  -0.000031   0.000001   0.000060   0.003964   0.001223
    28  H    0.001222   0.000025  -0.000002   0.000020  -0.000162  -0.000195
    29  H    0.000116  -0.000119  -0.000027  -0.000087   0.000090   0.000115
              19         20         21         22         23         24
     1  C   -0.000390   0.000044  -0.000548   0.360536  -0.031084  -0.029932
     2  C    0.008598   0.000230   0.009898  -0.073106  -0.005211   0.009783
     3  C   -0.000099   0.007461  -0.037857   0.000983   0.002062  -0.000082
     4  C   -0.000018  -0.000443  -0.014446   0.000977   0.002062  -0.000800
     5  C    0.000036   0.000015  -0.000143  -0.073095  -0.005218  -0.011537
     6  C    0.000000  -0.000000   0.000036  -0.003688   0.000091   0.003959
     7  C    0.000000  -0.000000  -0.000009  -0.000113  -0.000087   0.000060
     8  C    0.000000  -0.000000   0.000109   0.000036  -0.000027   0.000001
     9  C   -0.000002   0.000005   0.002823  -0.000271  -0.000120  -0.000030
    10  H   -0.000001   0.000009   0.000937   0.000017   0.000003   0.000001
    11  H   -0.000000   0.000000   0.000009   0.000000  -0.000001  -0.000000
    12  H   -0.000000  -0.000000  -0.000001   0.000004   0.000004   0.000011
    13  H   -0.000000   0.000000   0.000001   0.000313   0.000116   0.001222
    14  C    0.007874  -0.039241   0.415007  -0.000270  -0.000119   0.000025
    15  C   -0.044400   0.412178  -0.046060   0.000036  -0.000027  -0.000002
    16  C    0.412787  -0.042930   0.007665  -0.000113  -0.000087   0.000020
    17  C   -0.040514   0.007425  -0.000873  -0.003685   0.000090  -0.000162
    18  H   -0.007760  -0.000368   0.000089   0.000313   0.000116  -0.000195
    19  H    0.581662  -0.008104  -0.000334   0.000004   0.000004  -0.000001
    20  H   -0.008104   0.580396  -0.007703   0.000000  -0.000001   0.000000
    21  H   -0.000334  -0.007703   0.589963   0.000017   0.000003  -0.000002
    22  C    0.000004   0.000000   0.000017   4.878578   0.402072   0.397718
    23  H    0.000004  -0.000001   0.000003   0.402072   0.564069  -0.027079
    24  H   -0.000001   0.000000  -0.000002   0.397718  -0.027079   0.585755
    25  H    0.000011  -0.000000   0.000001   0.397726  -0.027069  -0.029190
    26  C    0.000004   0.000000   0.000017  -0.073992   0.008800  -0.005109
    27  H    0.000011  -0.000000   0.000001  -0.005096  -0.000161  -0.000577
    28  H   -0.000001   0.000000  -0.000002  -0.005109  -0.000160   0.002676
    29  H    0.000004  -0.000001   0.000003   0.008800  -0.000468  -0.000160
              25         26         27         28         29
     1  C   -0.029937   0.360527  -0.029937  -0.029932  -0.031080
     2  C   -0.011556  -0.073119  -0.011558   0.009783  -0.005212
     3  C   -0.000800   0.000977  -0.000801  -0.000081   0.002064
     4  C   -0.000080   0.000975  -0.000080  -0.000801   0.002062
     5  C    0.009781  -0.073112   0.009782  -0.011534  -0.005220
     6  C   -0.000163  -0.003689  -0.000163   0.003960   0.000091
     7  C    0.000020  -0.000113   0.000020   0.000060  -0.000087
     8  C   -0.000002   0.000036  -0.000002   0.000001  -0.000027
     9  C    0.000025  -0.000271   0.000025  -0.000030  -0.000120
    10  H   -0.000002   0.000017  -0.000002   0.000001   0.000003
    11  H    0.000000   0.000000   0.000000  -0.000000  -0.000001
    12  H   -0.000001   0.000004  -0.000001   0.000011   0.000004
    13  H   -0.000195   0.000313  -0.000195   0.001222   0.000116
    14  C   -0.000031  -0.000271  -0.000031   0.000025  -0.000119
    15  C    0.000001   0.000036   0.000001  -0.000002  -0.000027
    16  C    0.000060  -0.000113   0.000060   0.000020  -0.000087
    17  C    0.003962  -0.003685   0.003964  -0.000162   0.000090
    18  H    0.001224   0.000312   0.001223  -0.000195   0.000115
    19  H    0.000011   0.000004   0.000011  -0.000001   0.000004
    20  H   -0.000000   0.000000  -0.000000   0.000000  -0.000001
    21  H    0.000001   0.000017   0.000001  -0.000002   0.000003
    22  C    0.397726  -0.073992  -0.005096  -0.005109   0.008800
    23  H   -0.027069   0.008800  -0.000161  -0.000160  -0.000468
    24  H   -0.029190  -0.005109  -0.000577   0.002676  -0.000160
    25  H    0.585741  -0.005096   0.002673  -0.000577  -0.000160
    26  C   -0.005096   4.878643   0.397720   0.397714   0.402070
    27  H    0.002673   0.397720   0.585746  -0.029189  -0.027070
    28  H   -0.000577   0.397714  -0.029189   0.585755  -0.027079
    29  H   -0.000160   0.402070  -0.027070  -0.027079   0.564070
 Mulliken charges:
               1
     1  C   -0.258452
     2  C   -0.019270
     3  C   -0.028773
     4  C   -0.028733
     5  C   -0.019330
     6  C   -0.063417
     7  C   -0.085503
     8  C   -0.092980
     9  C   -0.038242
    10  H    0.081394
    11  H    0.091025
    12  H    0.090633
    13  H    0.079261
    14  C   -0.038173
    15  C   -0.092995
    16  C   -0.085485
    17  C   -0.063486
    18  H    0.079269
    19  H    0.090630
    20  H    0.091030
    21  H    0.081398
    22  C   -0.209590
    23  H    0.117425
    24  H    0.103629
    25  H    0.103637
    26  C   -0.209595
    27  H    0.103636
    28  H    0.103629
    29  H    0.117426
 Sum of Mulliken charges =  -0.00000
 Mulliken charges with hydrogens summed into heavy atoms:
               1
     1  C   -0.258452
     2  C   -0.019270
     3  C   -0.028773
     4  C   -0.028733
     5  C   -0.019330
     6  C    0.015844
     7  C    0.005130
     8  C   -0.001955
     9  C    0.043153
    14  C    0.043226
    15  C   -0.001965
    16  C    0.005145
    17  C    0.015783
    22  C    0.115101
    26  C    0.115096
 Electronic spatial extent (au):  <R**2>=           2911.2890
 Charge=              0.0000 electrons
 Dipole moment (field-independent basis, Debye):
    X=             -0.0001    Y=              0.4398    Z=              0.0000  Tot=              0.4398
 Quadrupole moment (field-independent basis, Debye-Ang):
   XX=            -81.9126   YY=            -80.7884   ZZ=            -94.4980
   XY=              0.0003   XZ=              0.0000   YZ=              0.0005
 Traceless Quadrupole moment (field-independent basis, Debye-Ang):
   XX=              3.8204   YY=              4.9446   ZZ=             -8.7650
   XY=              0.0003   XZ=              0.0000   YZ=              0.0005
 Octapole moment (field-independent basis, Debye-Ang**2):
  XXX=             -0.0052  YYY=            -12.1150  ZZZ=              0.0001  XYY=              0.0011
  XXY=             -1.5252  XXZ=              0.0015  XZZ=              0.0012  YZZ=              4.9083
  YYZ=             -0.0000  XYZ=             -0.0005
 Hexadecapole moment (field-independent basis, Debye-Ang**3):
 XXXX=          -2268.2121 YYYY=          -1272.1370 ZZZZ=           -280.7247 XXXY=              0.0015
 XXXZ=              0.0005 YYYX=              0.0029 YYYZ=             -0.0009 ZZZX=              0.0002
 ZZZY=             -0.0024 XXYY=           -582.9239 XXZZ=           -512.5432 YYZZ=           -287.6570
 XXYZ=              0.0009 YYXZ=             -0.0001 ZZXY=              0.0018
 N-N= 9.274790251233D+02 E-N=-3.200394572754D+03  KE= 5.775747906225D+02
 No NMR shielding tensors so no spin-rotation constants.
 Leave Link  601 at Tue Mar 17 10:49:23 2026, MaxMem=   104857600 cpu:               0.1 elap:               0.1
 (Enter /sw/cluster/pub/apps//g16/l9999.exe)
 1\1\GINC-N07\SP\RB3LYP\6-311G(d,p)\C15H14\UNKNOWN\17-Mar-2026\0\\#p B3
 LYP/6-311G(d,p) nosymm density=current sp\\Generated by extraQ₂\\0,1
 \C,0,0.000147,1.414795,0.00002883\C,0,-1.180259,0.445129,0.00005009\C,
 0,-0.733997,-0.88864,0.00001883\C,0,0.733816,-0.888758,0.00002283\C,0,
 1.180249,0.444946,0.00002209\C,0,2.53929,0.727305,0.00003905\C,0,3.454
 78,-0.328214,0.00003172\C,0,3.010901,-1.651446,-0.00001547\C,0,1.64761
 1,-1.941721,-0.00000049\H,0,1.309043,-2.972071,-0.00002365\H,0,3.73323
 9,-2.460031,-0.00000909\H,0,4.518432,-0.118095,0.00006418\H,0,2.895848
 ,1.752182,0.00006917\C,0,-1.647757,-1.941634,-0.00002749\C,0,-3.01104,
 -1.651342,-0.00001147\C,0,-3.454797,-0.328078,0.00003572\C,0,-2.539308
 ,0.727445,0.00007005\H,0,-2.895997,1.752278,0.00014617\H,0,-4.518442,-
 0.117902,0.00006918\H,0,-3.733479,-2.459836,-0.00003509\H,0,-1.309014,
 -2.971919,-0.00006064\C,0,0.00017,2.30034921,1.26489198\H,0,0.000502,1
 .69035992,2.17078174\H,0,0.884203,2.94391907,1.28544345\H,0,-0.884202,
 2.94342907,1.28569445\C,0,0.000125,2.30005079,-1.26507002\H,0,-0.88430
 8,2.94304393,-1.28604656\H,0,0.884105,2.94368593,-1.28580255\H,0,0.000
 486,1.68983008,-2.17080826\\Version=ES64L-G16RevA.03\HF=-580.188568\RM
 SD=4.090e-09\Dipole=-0.0000419,0.1730479,0.0000097\Quadrupole=2.840409
 3,3.6761724,-6.5165817,0.0002474,0.0000088,0.000337\PG=C01 [X(C15H14)]
 \\@


 GOOD SENSE ABOUT TRIVIALITIES IS BETTER THAN NONSENSE
 ABOUT THINGS THAT MATTER

                                       -- MAX BEERBOHM
 Job cpu time:       0 days  0 hours  2 minutes  1.2 seconds.
 Elapsed time:       0 days  0 hours  2 minutes  1.4 seconds.
 File lengths (MBytes):  RWF=     72 Int=      0 D2E=      0 Chk=      8 Scr=      1
 Normal termination of Gaussian 16 at Tue Mar 17 10:49:24 2026.
