29
Generated from .fchk
C -0.000147 1.414795 -0.000019
C 1.180259 0.445129 -0.000047
C 0.733997 -0.888640 -0.000025
C -0.733816 -0.888758 -0.000029
C -1.180249 0.444946 -0.000019
C -2.539290 0.727305 -0.000034
C -3.454780 -0.328214 -0.000034
C -3.010901 -1.651446 0.000004
C -1.647611 -1.941721 -0.000013
H -1.309043 -2.972071 0.000003
H -3.733239 -2.460031 -0.000008
H -4.518432 -0.118095 -0.000065
H -2.895848 1.752182 -0.000057
C 1.647757 -1.941634 0.000014
C 3.011040 -1.651342 -0.000000
C 3.454797 -0.328078 -0.000038
C 2.539308 0.727445 -0.000065
H 2.895997 1.752278 -0.000134
H 4.518442 -0.117902 -0.000070
H 3.733479 -2.459836 0.000018
H 1.309014 -2.971919 0.000040
C -0.000170 2.300358 -1.264876
H -0.000502 1.690375 -2.170770
H -0.884203 2.943928 -1.285423
H 0.884202 2.943438 -1.285674
C -0.000125 2.300042 1.265086
H 0.884308 2.943035 1.286067
H -0.884105 2.943677 1.285823
H -0.000486 1.689815 2.170820