#p b3lyp/6-31g nosymm density=current sp

Verify additional points: Sm atoms correspond to centroids, Am to +1Å, and Lr to -1Å

0 1
C -0.687351 0.789505 -1.661633
C -0.594253 1.601640 0.969218
H -2.059797 2.018113 -0.568499
H -0.510293 2.775993 -0.820092
C 0.666360 0.076091 -1.630849
C 0.895984 1.808974 1.253214
C 1.438888 0.698541 1.927966
C 0.492310 -1.323663 -1.643066
C -0.945528 -1.619175 -1.661633
C 0.376483 -0.297493 2.113048
C -0.816212 0.203396 1.550623
C -1.650965 -0.400384 -1.661633
C -3.041427 -0.396116 -1.727245
C -1.996498 -0.527261 1.659543
C -3.729401 -1.616382 -1.770525
C -1.976709 -1.771034 2.303146
C -0.786627 -2.274958 2.843074
C -3.026614 -2.828012 -1.753998
C -1.629358 -2.837226 -1.703503
C 0.397900 -1.538546 2.755685
H 1.317317 -1.925604 3.188814
H -1.088477 -3.780632 -1.698791
H -3.571756 -3.768123 -1.787528
H -0.786024 -3.242473 3.339157
H -4.815525 -1.622531 -1.820844
H -2.893028 -2.350606 2.380292
H -3.599097 0.538561 -1.745846
H -2.927274 -0.152168 1.243276
C 1.595577 -2.181137 -1.677432
C 2.779129 0.691847 2.323843
C 2.879324 -1.629811 -1.710490
C 3.572566 1.809363 2.047118
C 3.054592 -0.240223 -1.718692
C 3.030001 2.921417 1.390464
C 1.685922 2.925297 0.993377
C 1.948028 0.617639 -1.684229
H 1.275110 3.797790 0.488447
H 2.101422 1.693173 -1.687811
H 4.057558 0.177714 -1.748402
H 3.654655 3.788669 1.190675
H 3.747673 -2.283622 -1.736630
H 4.616810 1.818263 2.349749
H 1.462014 -3.260409 -1.686086
H 3.203404 -0.165653 2.840825
C -0.833655 1.549977 -3.009752
H -0.721363 0.864200 -3.855763
H -1.819624 2.025150 -3.082673
H -0.070616 2.332236 -3.097735
C -0.979290 1.826792 -0.529111
C -1.408638 2.634797 1.797703
H -1.223556 3.654188 1.437382
H -2.483495 2.434487 1.717357
H -1.129258 2.590164 2.855338
Sm  -2.337216 -1.616216 -1.713089
Am  -2.377170 -1.630600 -0.713992
Lr  -2.297261 -1.601831 -2.712187
Sm  -0.425035 -0.495525 -1.651763
Am  -0.438100 -0.496105 -0.651848
Lr  -0.411970 -0.494945 -2.651677
Sm   1.772698 -0.780184 -1.677460
Am   1.804820 -0.783089 -0.677980
Lr   1.740577 -0.777279 -2.676939
Sm  -0.800277 -1.034316  2.204187
Am  -1.009772 -0.585279  3.072793
Lr  -0.590782 -1.483353  1.335580
Sm   0.260178  0.803012  1.562814
Am   0.026115  1.215819  2.443044
Lr   0.494241  0.390204  0.682584
Sm   2.233748  1.809240  1.655997
Am   1.973627  2.207095  2.535797
Lr   2.493870  1.411384  0.776197