#p b3lyp/6-31g nosymm density=current sp

Verify additional points: Sm atoms correspond to centroids, Am to +1Å, and Lr to -1Å

0 1
C 0.560542 -1.178235 1.504657
C 0.270168 -1.601574 -1.152578
H 1.657849 -2.517758 0.234706
H -0.012789 -2.987914 0.462703
C -0.679027 -0.288783 1.560268
C -1.229746 -1.364324 -1.314199
C -1.489887 -0.022136 -1.649877
C -0.315227 1.071577 1.534327
C 1.148148 1.165759 1.504657
C -0.210016 0.686124 -1.757112
C 0.832303 -0.224155 -1.495254
C 1.678746 -0.138189 1.504657
C 3.051592 -0.339658 1.522900
C 2.156793 0.179813 -1.596743
C 3.902111 0.772057 1.512934
C 2.439762 1.510749 -1.914953
C 1.403517 2.422864 -2.141542
C 3.375193 2.066829 1.488122
C 1.993730 2.273214 1.487586
C 0.070644 2.015547 -2.071925
H -0.732933 2.722335 -2.260251
H 1.588181 3.280905 1.469807
H 4.046809 2.920791 1.473878
H 1.639410 3.456542 -2.379231
H 4.978974 0.627964 1.523890
H 3.472365 1.841547 -1.970824
H 3.467299 -1.344601 1.533988
H 2.966834 -0.515743 -1.401922
C -1.290937 2.067985 1.554606
C -2.798790 0.420885 -1.829495
C -2.633435 1.692920 1.620439
C -3.845426 -0.493191 -1.687903
C -2.993537 0.342434 1.680582
C -3.585467 -1.831636 -1.378592
C -2.270606 -2.273806 -1.191414
C -2.014860 -0.654742 1.657114
H -2.075043 -3.314460 -0.943139
H -2.304553 -1.700369 1.682925
H -4.041979 0.064672 1.729916
H -4.409691 -2.532993 -1.282306
H -3.406409 2.456495 1.630517
H -4.871226 -0.161913 -1.823965
H -1.012290 3.117713 1.520307
H -3.004820 1.459792 -2.071255
C 0.653211 -2.054592 2.773347
H 0.666038 -1.429302 3.670867
H 1.567039 -2.659790 2.762345
H -0.204175 -2.733730 2.837654
C 0.634347 -2.122862 0.268922
C 0.753183 -2.651833 -2.177152
H 0.313604 -3.633283 -1.965026
H 1.843661 -2.752613 -2.142793
H 0.465681 -2.358545 -3.191067
Sm   1.115501  1.098490 -1.829588
Am   1.101260  1.336638 -0.858464
Lr   1.129741  0.860343 -2.800713
Sm  -0.365436 -0.505213 -1.473804
Am  -0.415599 -0.262647 -0.504967
Lr  -0.315272 -0.747779 -2.442641
Sm  -2.536654 -0.927368 -1.508580
Am  -2.601456 -0.708257 -0.535034
Lr  -2.471852 -1.146479 -2.482126
Sm   2.524920  0.966669  1.503476
Am   2.522258  0.977778  2.503411
Lr   2.527582  0.955559  0.503541
Sm   0.478636  0.126426  1.521713
Am   0.501381  0.125152  2.521454
Lr   0.455891  0.127700  0.521973
Sm  -1.654504  0.705232  1.601223
Am  -1.604019  0.727413  2.599701
Lr  -1.704989  0.683051  0.602744