OPT F1 - dispersion correction                                          
Freq      RB3LYP                                                      6-31G(d)            
Number of atoms                            I               12
Info1-9                                    I   N=           9
          21          19        1002           0           0         100
           6          18        -502
Full Title                                 C   N=           3
OPT F1 - dispersion correction      
Route                                      C   N=           5
#p opt freq b3lyp/6-31g(d) EmpiricalDispersion=GD3BJ        
Charge                                     I                0
Multiplicity                               I                1
Number of electrons                        I               42
Number of alpha electrons                  I               21
Number of beta electrons                   I               21
Number of basis functions                  I              102
Number of independent functions            I              102
Number of point charges in /Mol/           I                0
Number of translation vectors              I                0
Atomic numbers                             I   N=          12
           6           6           6           6           6           6
           1           1           1           1           1           1
Nuclear charges                            R   N=          12
  6.00000000E+00  6.00000000E+00  6.00000000E+00  6.00000000E+00  6.00000000E+00
  6.00000000E+00  1.00000000E+00  1.00000000E+00  1.00000000E+00  1.00000000E+00
  1.00000000E+00  1.00000000E+00
Current cartesian coordinates              R   N=          36
  2.28415472E+00 -1.31875514E+00 -8.56751912E-08  2.28415472E+00  1.31875933E+00
  0.00000000E+00 -2.60406984E-07  2.63751636E+00  0.00000000E+00 -2.28415472E+00
  1.31875514E+00 -8.56751912E-08 -2.28415472E+00 -1.31875933E+00  0.00000000E+00
  2.60406984E-07 -2.63751636E+00  0.00000000E+00  4.06231026E+00 -2.34537074E+00
 -1.81837385E-07  4.06230989E+00  2.34537595E+00  3.22888028E-07  3.71612102E-06
  4.69075165E+00  3.16447254E-07 -4.06231026E+00  2.34537074E+00 -1.81837385E-07
 -4.06230989E+00 -2.34537595E+00  3.22888028E-07 -3.71612102E-06 -4.69075165E+00
  3.16447254E-07
Number of symbols in /Mol/                 I                0
Force Field                                I                0
Atom Types                                 C   N=          12
                                                            
                                                            
                        
Int Atom Types                             I   N=          12
           0           0           0           0           0           0
           0           0           0           0           0           0
MM charges                                 R   N=          12
  0.00000000E+00  0.00000000E+00  0.00000000E+00  0.00000000E+00  0.00000000E+00
  0.00000000E+00  0.00000000E+00  0.00000000E+00  0.00000000E+00  0.00000000E+00
  0.00000000E+00  0.00000000E+00
Integer atomic weights                     I   N=          12
          12          12          12          12          12          12
           1           1           1           1           1           1
Real atomic weights                        R   N=          12
  1.20000000E+01  1.20000000E+01  1.20000000E+01  1.20000000E+01  1.20000000E+01
  1.20000000E+01  1.00782504E+00  1.00782504E+00  1.00782504E+00  1.00782504E+00
  1.00782504E+00  1.00782504E+00
Atom fragment info                         I   N=          12
           0           0           0           0           0           0
           0           0           0           0           0           0
Atom residue num                           I   N=          12
           0           0           0           0           0           0
           0           0           0           0           0           0
Nuclear spins                              I   N=          12
           0           0           0           0           0           0
           1           1           1           1           1           1
Nuclear ZEff                               R   N=          12
 -3.60000000E+00 -3.60000000E+00 -3.60000000E+00 -3.60000000E+00 -3.60000000E+00
 -3.60000000E+00 -1.00000000E+00 -1.00000000E+00 -1.00000000E+00 -1.00000000E+00
 -1.00000000E+00 -1.00000000E+00
Nuclear ZNuc                               R   N=          12
  6.00000000E+00  6.00000000E+00  6.00000000E+00  6.00000000E+00  6.00000000E+00
  6.00000000E+00  1.00000000E+00  1.00000000E+00  1.00000000E+00  1.00000000E+00
  1.00000000E+00  1.00000000E+00
Nuclear QMom                               R   N=          12
  0.00000000E+00  0.00000000E+00  0.00000000E+00  0.00000000E+00  0.00000000E+00
  0.00000000E+00  0.00000000E+00  0.00000000E+00  0.00000000E+00  0.00000000E+00
  0.00000000E+00  0.00000000E+00
Nuclear GFac                               R   N=          12
  0.00000000E+00  0.00000000E+00  0.00000000E+00  0.00000000E+00  0.00000000E+00
  0.00000000E+00  2.79284600E+00  2.79284600E+00  2.79284600E+00  2.79284600E+00
  2.79284600E+00  2.79284600E+00
MicOpt                                     I   N=          12
          -1          -1          -1          -1          -1          -1
          -1          -1          -1          -1          -1          -1
Number of residues                         I                0
Number of secondary structures             I                0
Redundant internal dimensions              I   N=           4
          54          12          18          24
Redundant internal coordinate indices      I   N=         216
           1           2           0           0           1           6
           0           0           1           7           0           0
           2           3           0           0           2           8
           0           0           3           4           0           0
           3           9           0           0           4           5
           0           0           4          10           0           0
           5           6           0           0           5          11
           0           0           6          12           0           0
           2           1           6           0           2           1
           7           0           6           1           7           0
           1           2           3           0           1           2
           8           0           3           2           8           0
           2           3           4           0           2           3
           9           0           4           3           9           0
           3           4           5           0           3           4
          10           0           5           4          10           0
           4           5           6           0           4           5
          11           0           6           5          11           0
           1           6           5           0           1           6
          12           0           5           6          12           0
           6           1           2           3           6           1
           2           8           7           1           2           3
           7           1           2           8           2           1
           6           5           2           1           6          12
           7           1           6           5           7           1
           6          12           1           2           3           4
           1           2           3           9           8           2
           3           4           8           2           3           9
           2           3           4           5           2           3
           4          10           9           3           4           5
           9           3           4          10           3           4
           5           6           3           4           5          11
          10           4           5           6          10           4
           5          11           4           5           6           1
           4           5           6          12          11           5
           6           1          11           5           6          12
Redundant internal coordinates             R   N=          54
  2.63751447E+00  2.63751640E+00  2.05323567E+00  2.63751475E+00  2.05323586E+00
  2.63751640E+00  2.05323529E+00  2.63751447E+00  2.05323567E+00  2.63751475E+00
  2.05323586E+00  2.05323529E+00  2.09439643E+00  2.09439385E+00  2.09439503E+00
  2.09439495E+00  2.09439436E+00  2.09439599E+00  2.09439393E+00  2.09439302E+00
  2.09439836E+00  2.09439643E+00  2.09439503E+00  2.09439385E+00  2.09439495E+00
  2.09439436E+00  2.09439599E+00  2.09439393E+00  2.09439836E+00  2.09439302E+00
 -7.45058060E-08  3.14159244E+00  3.14159260E+00 -1.98247056E-07  7.45058060E-08
 -3.14159244E+00 -3.14159260E+00  1.93715096E-07  0.00000000E+00  3.14159251E+00
 -3.14159251E+00  0.00000000E+00  7.45058060E-08 -3.14159260E+00 -3.14159244E+00
  1.93715096E-07 -7.45058060E-08  3.14159244E+00  3.14159260E+00 -1.97686242E-07
  1.49011612E-08  3.14159251E+00 -3.14159251E+00  0.00000000E+00
ZRed-IntVec                                I   N=          54
           0           0           0           0           0           0
           0           0           0           0           0           0
           0           0           0           0           0           0
           0           0           0           0           0           0
           0           0           0           0           0           0
           0           0           0           0           0           0
           0           0           0           0           0           0
           0           0           0           0           0           0
           0           0           0           0           0           0
ZRed-FPVec                                 R   N=          54
  0.00000000E+00  0.00000000E+00  0.00000000E+00  0.00000000E+00  0.00000000E+00
  0.00000000E+00  0.00000000E+00  0.00000000E+00  0.00000000E+00  0.00000000E+00
  0.00000000E+00  0.00000000E+00  0.00000000E+00  0.00000000E+00  0.00000000E+00
  0.00000000E+00  0.00000000E+00  0.00000000E+00  0.00000000E+00  0.00000000E+00
  0.00000000E+00  0.00000000E+00  0.00000000E+00  0.00000000E+00  0.00000000E+00
  0.00000000E+00  0.00000000E+00  0.00000000E+00  0.00000000E+00  0.00000000E+00
  0.00000000E+00  0.00000000E+00  0.00000000E+00  0.00000000E+00  0.00000000E+00
  0.00000000E+00  0.00000000E+00  0.00000000E+00  0.00000000E+00  0.00000000E+00
  0.00000000E+00  0.00000000E+00  0.00000000E+00  0.00000000E+00  0.00000000E+00
  0.00000000E+00  0.00000000E+00  0.00000000E+00  0.00000000E+00  0.00000000E+00
  0.00000000E+00  0.00000000E+00  0.00000000E+00  0.00000000E+00
ZRed-Constraint1                           R   N=          54
  2.63751447E+00  2.63751640E+00  2.05323567E+00  2.63751475E+00  2.05323586E+00
  2.63751640E+00  2.05323529E+00  2.63751447E+00  2.05323567E+00  2.63751475E+00
  2.05323586E+00  2.05323529E+00  2.09439643E+00  2.09439385E+00  2.09439503E+00
  2.09439495E+00  2.09439436E+00  2.09439599E+00  2.09439393E+00  2.09439302E+00
  2.09439836E+00  2.09439643E+00  2.09439503E+00  2.09439385E+00  2.09439495E+00
  2.09439436E+00  2.09439599E+00  2.09439393E+00  2.09439836E+00  2.09439302E+00
 -7.88495335E-08  3.14159244E+00  3.14159260E+00 -1.92565441E-07  7.88495335E-08
 -3.14159244E+00 -3.14159260E+00  1.90245291E-07  0.00000000E+00  3.14159252E+00
 -3.14159251E+00  1.49011612E-08  7.88495335E-08 -3.14159260E+00 -3.14159244E+00
  1.89074539E-07 -7.88495335E-08  3.14159244E+00  3.14159260E+00 -1.93141124E-07
  0.00000000E+00  3.14159252E+00 -3.14159251E+00  1.49011612E-08
ZRed-Constraint2                           R   N=          54
  2.64306671E+00  2.64306407E+00  2.05491496E+00  2.64307641E+00  2.05491599E+00
  2.64306407E+00  2.05491526E+00  2.64306671E+00  2.05491496E+00  2.64307641E+00
  2.05491599E+00  2.05491526E+00  2.09439561E+00  2.09440004E+00  2.09438965E+00
  2.09439938E+00  2.09438695E+00  2.09439897E+00  2.09439031E+00  2.09439657E+00
  2.09439843E+00  2.09439561E+00  2.09438965E+00  2.09440004E+00  2.09439938E+00
  2.09438695E+00  2.09439897E+00  2.09439031E+00  2.09439843E+00  2.09439657E+00
  0.00000000E+00  3.14159265E+00  3.14159159E+00 -1.06196259E-06  0.00000000E+00
  3.14159265E+00 -3.14159159E+00  1.06175348E-06  0.00000000E+00  3.14159265E+00
  3.14159265E+00  0.00000000E+00  0.00000000E+00  3.14159265E+00  3.14159265E+00
  0.00000000E+00  0.00000000E+00  3.14159265E+00  3.14159265E+00  0.00000000E+00
  0.00000000E+00  3.14159265E+00  3.14159265E+00  0.00000000E+00
SymInf integers                            I   N=          26
           2           2           1           1           1          -1
          -1           1           0           0           0           0
           0           0           0           0           0           0
           0           0           0           0           0           0
           0           0
RotTr to input orientation                 R   N=          12
 -5.80912856E-01 -8.13965757E-01 -0.00000000E+00  8.13965757E-01 -5.80912856E-01
 -0.00000000E+00  0.00000000E+00  0.00000000E+00  1.00000000E+00  2.43191710E-16
 -5.92118946E-16 -3.86262053E-07
Number of contracted shells                I               36
Number of primitive shells                 I               90
Pure/Cartesian d shells                    I                1
Pure/Cartesian f shells                    I                0
Highest angular momentum                   I                2
Largest degree of contraction              I                6
Shell types                                I   N=          36
           0          -1          -1           2           0          -1
          -1           2           0          -1          -1           2
           0          -1          -1           2           0          -1
          -1           2           0          -1          -1           2
           0           0           0           0           0           0
           0           0           0           0           0           0
Number of primitives per shell             I   N=          36
           6           3           1           1           6           3
           1           1           6           3           1           1
           6           3           1           1           6           3
           1           1           6           3           1           1
           3           1           3           1           3           1
           3           1           3           1           3           1
Shell to atom map                          I   N=          36
           1           1           1           1           2           2
           2           2           3           3           3           3
           4           4           4           4           5           5
           5           5           6           6           6           6
           7           7           8           8           9           9
          10          10          11          11          12          12
Primitive exponents                        R   N=          90
  3.04752488E+03  4.57369518E+02  1.03948685E+02  2.92101553E+01  9.28666296E+00
  3.16392696E+00  7.86827235E+00  1.88128854E+00  5.44249258E-01  1.68714478E-01
  8.00000000E-01  3.04752488E+03  4.57369518E+02  1.03948685E+02  2.92101553E+01
  9.28666296E+00  3.16392696E+00  7.86827235E+00  1.88128854E+00  5.44249258E-01
  1.68714478E-01  8.00000000E-01  3.04752488E+03  4.57369518E+02  1.03948685E+02
  2.92101553E+01  9.28666296E+00  3.16392696E+00  7.86827235E+00  1.88128854E+00
  5.44249258E-01  1.68714478E-01  8.00000000E-01  3.04752488E+03  4.57369518E+02
  1.03948685E+02  2.92101553E+01  9.28666296E+00  3.16392696E+00  7.86827235E+00
  1.88128854E+00  5.44249258E-01  1.68714478E-01  8.00000000E-01  3.04752488E+03
  4.57369518E+02  1.03948685E+02  2.92101553E+01  9.28666296E+00  3.16392696E+00
  7.86827235E+00  1.88128854E+00  5.44249258E-01  1.68714478E-01  8.00000000E-01
  3.04752488E+03  4.57369518E+02  1.03948685E+02  2.92101553E+01  9.28666296E+00
  3.16392696E+00  7.86827235E+00  1.88128854E+00  5.44249258E-01  1.68714478E-01
  8.00000000E-01  1.87311370E+01  2.82539436E+00  6.40121692E-01  1.61277759E-01
  1.87311370E+01  2.82539436E+00  6.40121692E-01  1.61277759E-01  1.87311370E+01
  2.82539436E+00  6.40121692E-01  1.61277759E-01  1.87311370E+01  2.82539436E+00
  6.40121692E-01  1.61277759E-01  1.87311370E+01  2.82539436E+00  6.40121692E-01
  1.61277759E-01  1.87311370E+01  2.82539436E+00  6.40121692E-01  1.61277759E-01
Contraction coefficients                   R   N=          90
  1.83473713E-03  1.40373228E-02  6.88426223E-02  2.32184443E-01  4.67941348E-01
  3.62311985E-01 -1.19332420E-01 -1.60854152E-01  1.14345644E+00  1.00000000E+00
  1.00000000E+00  1.83473713E-03  1.40373228E-02  6.88426223E-02  2.32184443E-01
  4.67941348E-01  3.62311985E-01 -1.19332420E-01 -1.60854152E-01  1.14345644E+00
  1.00000000E+00  1.00000000E+00  1.83473713E-03  1.40373228E-02  6.88426223E-02
  2.32184443E-01  4.67941348E-01  3.62311985E-01 -1.19332420E-01 -1.60854152E-01
  1.14345644E+00  1.00000000E+00  1.00000000E+00  1.83473713E-03  1.40373228E-02
  6.88426223E-02  2.32184443E-01  4.67941348E-01  3.62311985E-01 -1.19332420E-01
 -1.60854152E-01  1.14345644E+00  1.00000000E+00  1.00000000E+00  1.83473713E-03
  1.40373228E-02  6.88426223E-02  2.32184443E-01  4.67941348E-01  3.62311985E-01
 -1.19332420E-01 -1.60854152E-01  1.14345644E+00  1.00000000E+00  1.00000000E+00
  1.83473713E-03  1.40373228E-02  6.88426223E-02  2.32184443E-01  4.67941348E-01
  3.62311985E-01 -1.19332420E-01 -1.60854152E-01  1.14345644E+00  1.00000000E+00
  1.00000000E+00  3.34946043E-02  2.34726953E-01  8.13757326E-01  1.00000000E+00
  3.34946043E-02  2.34726953E-01  8.13757326E-01  1.00000000E+00  3.34946043E-02
  2.34726953E-01  8.13757326E-01  1.00000000E+00  3.34946043E-02  2.34726953E-01
  8.13757326E-01  1.00000000E+00  3.34946043E-02  2.34726953E-01  8.13757326E-01
  1.00000000E+00  3.34946043E-02  2.34726953E-01  8.13757326E-01  1.00000000E+00
P(S=P) Contraction coefficients            R   N=          90
  0.00000000E+00  0.00000000E+00  0.00000000E+00  0.00000000E+00  0.00000000E+00
  0.00000000E+00  6.89990666E-02  3.16423961E-01  7.44308291E-01  1.00000000E+00
  0.00000000E+00  0.00000000E+00  0.00000000E+00  0.00000000E+00  0.00000000E+00
  0.00000000E+00  0.00000000E+00  6.89990666E-02  3.16423961E-01  7.44308291E-01
  1.00000000E+00  0.00000000E+00  0.00000000E+00  0.00000000E+00  0.00000000E+00
  0.00000000E+00  0.00000000E+00  0.00000000E+00  6.89990666E-02  3.16423961E-01
  7.44308291E-01  1.00000000E+00  0.00000000E+00  0.00000000E+00  0.00000000E+00
  0.00000000E+00  0.00000000E+00  0.00000000E+00  0.00000000E+00  6.89990666E-02
  3.16423961E-01  7.44308291E-01  1.00000000E+00  0.00000000E+00  0.00000000E+00
  0.00000000E+00  0.00000000E+00  0.00000000E+00  0.00000000E+00  0.00000000E+00
  6.89990666E-02  3.16423961E-01  7.44308291E-01  1.00000000E+00  0.00000000E+00
  0.00000000E+00  0.00000000E+00  0.00000000E+00  0.00000000E+00  0.00000000E+00
  0.00000000E+00  6.89990666E-02  3.16423961E-01  7.44308291E-01  1.00000000E+00
  0.00000000E+00  0.00000000E+00  0.00000000E+00  0.00000000E+00  0.00000000E+00
  0.00000000E+00  0.00000000E+00  0.00000000E+00  0.00000000E+00  0.00000000E+00
  0.00000000E+00  0.00000000E+00  0.00000000E+00  0.00000000E+00  0.00000000E+00
  0.00000000E+00  0.00000000E+00  0.00000000E+00  0.00000000E+00  0.00000000E+00
  0.00000000E+00  0.00000000E+00  0.00000000E+00  0.00000000E+00  0.00000000E+00
Coordinates of each shell                  R   N=         108
  2.28415472E+00 -1.31875514E+00 -8.56751912E-08  2.28415472E+00 -1.31875514E+00
 -8.56751912E-08  2.28415472E+00 -1.31875514E+00 -8.56751912E-08  2.28415472E+00
 -1.31875514E+00 -8.56751912E-08  2.28415472E+00  1.31875933E+00  0.00000000E+00
  2.28415472E+00  1.31875933E+00  0.00000000E+00  2.28415472E+00  1.31875933E+00
  0.00000000E+00  2.28415472E+00  1.31875933E+00  0.00000000E+00 -2.60406984E-07
  2.63751636E+00  0.00000000E+00 -2.60406984E-07  2.63751636E+00  0.00000000E+00
 -2.60406984E-07  2.63751636E+00  0.00000000E+00 -2.60406984E-07  2.63751636E+00
  0.00000000E+00 -2.28415472E+00  1.31875514E+00 -8.56751912E-08 -2.28415472E+00
  1.31875514E+00 -8.56751912E-08 -2.28415472E+00  1.31875514E+00 -8.56751912E-08
 -2.28415472E+00  1.31875514E+00 -8.56751912E-08 -2.28415472E+00 -1.31875933E+00
  0.00000000E+00 -2.28415472E+00 -1.31875933E+00  0.00000000E+00 -2.28415472E+00
 -1.31875933E+00  0.00000000E+00 -2.28415472E+00 -1.31875933E+00  0.00000000E+00
  2.60406984E-07 -2.63751636E+00  0.00000000E+00  2.60406984E-07 -2.63751636E+00
  0.00000000E+00  2.60406984E-07 -2.63751636E+00  0.00000000E+00  2.60406984E-07
 -2.63751636E+00  0.00000000E+00  4.06231026E+00 -2.34537074E+00 -1.81837385E-07
  4.06231026E+00 -2.34537074E+00 -1.81837385E-07  4.06230989E+00  2.34537595E+00
  3.22888028E-07  4.06230989E+00  2.34537595E+00  3.22888028E-07  3.71612102E-06
  4.69075165E+00  3.16447254E-07  3.71612102E-06  4.69075165E+00  3.16447254E-07
 -4.06231026E+00  2.34537074E+00 -1.81837385E-07 -4.06231026E+00  2.34537074E+00
 -1.81837385E-07 -4.06230989E+00 -2.34537595E+00  3.22888028E-07 -4.06230989E+00
 -2.34537595E+00  3.22888028E-07 -3.71612102E-06 -4.69075165E+00  3.16447254E-07
 -3.71612102E-06 -4.69075165E+00  3.16447254E-07
Num ILSW                                   I              100
ILSW                                       I   N=         100
           0           1           0           0           2           0
           0           0           0           0         402          -1
           5           0           0           0           2           0
           0           0           0           0           1           0
           1           0           0           0           0           0
           0           0      100000           0          -1           0
           0           0           0           0           0           0
           0           0           0           1           0           0
           0 -2000000000           1           0           0           0
           0           0         141          52           0           0
           0           0           5           0           0           0
           0           0           0          12           0           1
           0           0           0           0           0           0
           0           0           0           0           0           0
           0           0           0           0           0           0
           0           0           0           0           0           0
           0           0           0           0
Num RLSW                                   I               52
RLSW                                       R   N=          52
  8.00000000E-01  7.20000000E-01  1.00000000E+00  8.10000000E-01  2.00000000E-01
  0.00000000E+00  0.00000000E+00  1.00000000E+00  0.00000000E+00  0.00000000E+00
  0.00000000E+00  0.00000000E+00  1.00000000E+00  0.00000000E+00  0.00000000E+00
  0.00000000E+00  0.00000000E+00  1.00000000E+00  0.00000000E+00  0.00000000E+00
  0.00000000E+00  0.00000000E+00  1.00000000E+00  0.00000000E+00  0.00000000E+00
  0.00000000E+00  0.00000000E+00  1.00000000E+00  0.00000000E+00  0.00000000E+00
  0.00000000E+00  0.00000000E+00  1.00000000E+00  0.00000000E+00  0.00000000E+00
  0.00000000E+00  0.00000000E+00  0.00000000E+00  1.00000000E+00  1.00000000E+00
  0.00000000E+00  1.00000000E+00  0.00000000E+00  0.00000000E+00  0.00000000E+00
  0.00000000E+00  0.00000000E+00  0.00000000E+00  0.00000000E+00  0.00000000E+00
  0.00000000E+00  0.00000000E+00
MxBond                                     I                3
NBond                                      I   N=          12
           3           3           3           3           3           3
           1           1           1           1           1           1
IBond                                      I   N=          36
           2           6           7           1           3           8
           2           4           9           3           5          10
           4           6          11           1           5          12
           1           0           0           2           0           0
           3           0           0           4           0           0
           5           0           0           6           0           0
RBond                                      R   N=          36
  1.50000000E+00  1.50000000E+00  1.00000000E+00  1.50000000E+00  1.50000000E+00
  1.00000000E+00  1.50000000E+00  1.50000000E+00  1.00000000E+00  1.50000000E+00
  1.50000000E+00  1.00000000E+00  1.50000000E+00  1.50000000E+00  1.00000000E+00
  1.50000000E+00  1.50000000E+00  1.00000000E+00  1.00000000E+00  0.00000000E+00
  0.00000000E+00  1.00000000E+00  0.00000000E+00  0.00000000E+00  1.00000000E+00
  0.00000000E+00  0.00000000E+00  1.00000000E+00  0.00000000E+00  0.00000000E+00
  1.00000000E+00  0.00000000E+00  0.00000000E+00  1.00000000E+00  0.00000000E+00
  0.00000000E+00
Virial Ratio                               R      2.010107184532058E+00
SCF Energy                                 R     -2.322675516494766E+02
Total Energy                               R     -2.322675516494766E+02
RMS Force                                  R      1.106546320474615E-04
RMS Density                                R      6.382449118543720E-09
NImag                                      I                0
Job Status                                 I                1
Nuclear derivative order                   I                2
External E-field                           R   N=          35
  0.00000000E+00  0.00000000E+00  0.00000000E+00  0.00000000E+00  0.00000000E+00
  0.00000000E+00  0.00000000E+00  0.00000000E+00  0.00000000E+00  0.00000000E+00
  0.00000000E+00  0.00000000E+00  0.00000000E+00  0.00000000E+00  0.00000000E+00
  0.00000000E+00  0.00000000E+00  0.00000000E+00  0.00000000E+00  0.00000000E+00
  0.00000000E+00  0.00000000E+00  0.00000000E+00  0.00000000E+00  0.00000000E+00
  0.00000000E+00  0.00000000E+00  0.00000000E+00  0.00000000E+00  0.00000000E+00
  0.00000000E+00  0.00000000E+00  0.00000000E+00  0.00000000E+00  0.00000000E+00
IOpCl                                      I                0
IROHF                                      I                0
Alpha Orbital Energies                     R   N=         102
 -1.01874390E+01 -1.01871725E+01 -1.01871724E+01 -1.01866167E+01 -1.01866166E+01
 -1.01863494E+01 -8.46756532E-01 -7.40063406E-01 -7.40062983E-01 -5.97629131E-01
 -5.97628733E-01 -5.18841364E-01 -4.59209542E-01 -4.38331612E-01 -4.17364893E-01
 -4.17364476E-01 -3.59676236E-01 -3.40259283E-01 -3.40258938E-01 -2.46393845E-01
 -2.46393582E-01  3.82584772E-03  3.82610649E-03  9.08499903E-02  1.44808377E-01
  1.44808764E-01  1.64416390E-01  1.82126053E-01  1.82126541E-01  1.90592338E-01
  3.03052295E-01  3.03052425E-01  3.19632064E-01  3.19632439E-01  4.74649666E-01
  5.27288837E-01  5.50114095E-01  5.50557051E-01  5.64825133E-01  5.92511535E-01
  6.01931865E-01  6.01932094E-01  6.02544020E-01  6.02544378E-01  6.26971112E-01
  6.26971478E-01  6.67638414E-01  6.67638602E-01  7.45060136E-01  8.40285167E-01
  8.40285352E-01  8.41689265E-01  8.65054135E-01  8.65054618E-01  9.39434830E-01
  9.39435174E-01  9.40929993E-01  9.58749842E-01  1.08287919E+00  1.08288008E+00
  1.14296636E+00  1.14296797E+00  1.20177965E+00  1.26190758E+00  1.39589658E+00
  1.43702496E+00  1.43702591E+00  1.48729425E+00  1.48729466E+00  1.51551409E+00
  1.51551458E+00  1.75708271E+00  1.79066305E+00  1.85799115E+00  1.89683961E+00
  1.97446554E+00  1.97446665E+00  2.06749925E+00  2.06749988E+00  2.15231425E+00
  2.15231538E+00  2.15575033E+00  2.15575089E+00  2.31040966E+00  2.31041089E+00
  2.32284552E+00  2.54642669E+00  2.54642713E+00  2.65871334E+00  2.70748469E+00
  2.70748533E+00  2.72296592E+00  2.72296651E+00  2.76070748E+00  3.01807402E+00
  3.41321772E+00  4.08636091E+00  4.11809588E+00  4.11809652E+00  4.33065418E+00
  4.33065445E+00  4.66680899E+00
Alpha MO coefficients                      R   N=       10404
  4.05115105E-01  1.97621339E-02  1.10641817E-04 -6.38475830E-05 -1.39207327E-11
 -2.55576479E-03 -3.11330883E-04  1.79557337E-04  3.17150468E-11 -3.96077068E-03
 -4.00743444E-03 -4.06815311E-03 -4.66919433E-05 -1.32039711E-11  7.75540243E-12
  4.05083413E-01  1.97605380E-02  1.10650837E-04  6.38615251E-05  1.72505570E-11
 -2.55512724E-03 -3.11422413E-04 -1.79662680E-04 -6.16384308E-11 -3.96047959E-03
 -4.00715640E-03 -4.06785255E-03  4.66955999E-05  1.30404434E-11  8.30338580E-12
  4.05194188E-01  1.97661269E-02  8.18025415E-09  1.27707524E-04  1.65214700E-11
 -2.55735241E-03 -4.92290461E-08 -3.59066429E-04 -5.89932187E-11 -4.03148584E-03
 -3.93814697E-03 -4.06890797E-03 -4.10964835E-09  7.97760637E-13  1.48200095E-11
  4.05115105E-01  1.97621339E-02 -1.10641817E-04  6.38475830E-05 -1.39207327E-11
 -2.55576479E-03  3.11330883E-04 -1.79557337E-04  3.17150468E-11 -3.96077068E-03
 -4.00743444E-03 -4.06815311E-03 -4.66919433E-05  1.32039711E-11 -7.75540243E-12
  4.05083413E-01  1.97605380E-02 -1.10650837E-04 -6.38615251E-05  1.72505570E-11
 -2.55512724E-03  3.11422413E-04  1.79662680E-04 -6.16384308E-11 -3.96047959E-03
 -4.00715640E-03 -4.06785255E-03  4.66955999E-05 -1.30404434E-11 -8.30338580E-12
  4.05194188E-01  1.97661269E-02 -8.18025415E-09 -1.27707524E-04  1.65214700E-11
 -2.55735241E-03  4.92290461E-08  3.59066429E-04 -5.89932187E-11 -4.03148584E-03
 -3.93814697E-03 -4.06890797E-03 -4.10964835E-09 -7.97760637E-13 -1.48200095E-11
 -1.92224746E-04  9.06389113E-04 -1.92212801E-04  9.06351054E-04 -1.92254778E-04
  9.06479579E-04 -1.92224746E-04  9.06389113E-04 -1.92212801E-04  9.06351054E-04
 -1.92254778E-04  9.06479579E-04 -3.52038577E-01 -1.74673771E-02 -9.87442478E-05
 -2.15804118E-04  7.71273871E-12  3.60321768E-03  4.16226128E-04  1.16989453E-03
  2.37319569E-11  3.42359254E-03  3.38245251E-03  3.42911365E-03  2.68008872E-05
  5.93923748E-12 -7.10752358E-12  2.15504036E-01  1.06927959E-02  1.26866557E-04
 -2.47127684E-04  1.46842365E-11 -2.20507787E-03 -5.98375315E-04  1.31057631E-03
 -2.14752633E-11 -2.11012729E-03 -2.05630249E-03 -2.09918047E-03  2.59590936E-05
  8.04421122E-12  1.26730352E-11  5.67671427E-01  2.81668723E-02  4.11895031E-05
 -3.61665161E-05  1.82859687E-11 -5.81477451E-03 -2.12911788E-04  3.64263090E-04
 -3.81035832E-11 -5.50313164E-03 -5.47153405E-03 -5.52945299E-03 -5.92190172E-06
 -6.52179411E-13  3.04298751E-11  3.52038577E-01  1.74673771E-02 -9.87442478E-05
 -2.15804118E-04 -7.71273871E-12 -3.60321768E-03  4.16226128E-04  1.16989453E-03
 -2.37319569E-11 -3.42359254E-03 -3.38245251E-03 -3.42911365E-03 -2.68008872E-05
  5.93923748E-12 -7.10752358E-12 -2.15504036E-01 -1.06927959E-02  1.26866557E-04
 -2.47127684E-04 -1.46842365E-11  2.20507787E-03 -5.98375315E-04  1.31057631E-03
  2.14752633E-11  2.11012729E-03  2.05630249E-03  2.09918047E-03 -2.59590936E-05
  8.04421122E-12  1.26730352E-11 -5.67671427E-01 -2.81668723E-02  4.11895031E-05
 -3.61665161E-05 -1.82859687E-11  5.81477451E-03 -2.12911788E-04  3.64263090E-04
  3.81035832E-11  5.50313164E-03  5.47153405E-03  5.52945299E-03  5.92190172E-06
 -6.52179411E-13  3.04298751E-11  1.51210898E-04 -5.69597854E-04 -9.25594290E-05
  3.48751840E-04 -2.43869843E-04  9.18047522E-04 -1.51210898E-04  5.69597854E-04
  9.25594290E-05 -3.48751840E-04  2.43869843E-04 -9.18047522E-04  4.52186293E-01
  2.24366586E-02 -1.16924604E-04 -1.44918886E-04 -9.77803173E-12 -4.63124757E-03
  7.26501101E-04  6.78611103E-04 -2.96895276E-11 -4.34489099E-03 -4.39715424E-03
 -4.40456796E-03  6.37630879E-07 -1.10762605E-11  3.59099391E-12  5.30975094E-01
  2.63459180E-02 -8.55766809E-05  8.06391480E-05  1.61023731E-11 -5.43648605E-03
  5.85102400E-04 -3.34426076E-04 -3.65311637E-11 -5.11313883E-03 -5.15222201E-03
 -5.17205266E-03  6.69632130E-06  2.62161063E-11  1.22756158E-11  7.88479749E-02
  3.91233053E-03 -2.96591991E-04 -5.03202861E-06  1.02406301E-11 -8.08203056E-04
  1.53311881E-03  5.08732286E-05 -1.09438256E-11 -7.64348402E-04 -7.59967848E-04
 -7.68014967E-04  4.26440437E-05  7.39369751E-12  5.60332783E-12 -4.52186293E-01
 -2.24366586E-02 -1.16924604E-04 -1.44918886E-04  9.77803173E-12  4.63124757E-03
  7.26501101E-04  6.78611103E-04  2.96895276E-11  4.34489099E-03  4.39715424E-03
  4.40456796E-03 -6.37630879E-07 -1.10762605E-11  3.59099391E-12 -5.30975094E-01
 -2.63459180E-02 -8.55766809E-05  8.06391480E-05 -1.61023731E-11  5.43648605E-03
  5.85102400E-04 -3.34426076E-04  3.65311637E-11  5.11313883E-03  5.15222201E-03
  5.17205266E-03 -6.69632130E-06  2.62161063E-11  1.22756158E-11 -7.88479749E-02
 -3.91233053E-03 -2.96591991E-04 -5.03202861E-06 -1.02406301E-11  8.08203056E-04
  1.53311881E-03  5.08732286E-05  1.09438256E-11  7.64348402E-04  7.59967848E-04
  7.68014967E-04 -4.26440437E-05  7.39369751E-12  5.60332783E-12 -1.94252638E-04
  7.31339922E-04 -2.28084681E-04  8.58938502E-04 -3.38772550E-05  1.27460415E-04
  1.94252638E-04 -7.31339922E-04  2.28084681E-04 -8.58938502E-04  3.38772550E-05
 -1.27460415E-04 -3.57212847E-01 -1.80053057E-02  2.29505792E-04  7.83540169E-05
 -2.56337248E-12  7.16074062E-03 -1.86858034E-03 -2.38882317E-04  8.46099257E-11
  3.17615755E-03  3.24633360E-03  3.39621740E-03 -1.20090126E-04  8.56889239E-12
  9.73415483E-12 -2.09813278E-01 -1.05756067E-02  1.89794768E-04 -1.41297476E-04
 -1.14947204E-11  4.20571476E-03 -1.44118149E-03  7.35701383E-04  3.62266692E-11
  1.82258498E-03  1.94977356E-03  1.99481914E-03  9.91848114E-05 -2.81037057E-11
 -4.88349162E-12  5.66899201E-01  2.85747309E-02 -3.46535617E-05 -2.53340590E-04
 -2.52948949E-12 -1.13656519E-02  2.16559512E-04  2.37916671E-03  2.20926646E-11
 -4.98105164E-03 -5.21130915E-03 -5.38976493E-03  1.80546929E-05  9.79005904E-12
  3.83607069E-11 -3.57212847E-01 -1.80053057E-02 -2.29505792E-04 -7.83540169E-05
 -2.56337248E-12  7.16074062E-03  1.86858034E-03  2.38882317E-04  8.46099257E-11
  3.17615755E-03  3.24633360E-03  3.39621740E-03 -1.20090126E-04 -8.56889239E-12
 -9.73415483E-12 -2.09813278E-01 -1.05756067E-02 -1.89794768E-04  1.41297476E-04
 -1.14947204E-11  4.20571476E-03  1.44118149E-03 -7.35701383E-04  3.62266692E-11
  1.82258498E-03  1.94977356E-03  1.99481914E-03  9.91848114E-05  2.81037057E-11
  4.88349162E-12  5.66899201E-01  2.85747309E-02  3.46535617E-05  2.53340590E-04
 -2.52948949E-12 -1.13656519E-02 -2.16559512E-04 -2.37916671E-03  2.20926646E-11
 -4.98105164E-03 -5.21130915E-03 -5.38976493E-03  1.80546929E-05 -9.79005904E-12
 -3.83607069E-11  1.34758805E-04 -4.11934734E-04  7.91539979E-05 -2.41974416E-04
 -2.13853290E-04  6.53622002E-04  1.34758805E-04 -4.11934734E-04  7.91539979E-05
 -2.41974416E-04 -2.13853290E-04  6.53622002E-04 -4.48415738E-01 -2.26025042E-02
  1.00810453E-04 -2.26153040E-04 -3.18063584E-12  8.99001099E-03 -1.17525738E-03
  1.72806919E-03  1.06642080E-10  4.13343403E-03  3.92871081E-03  4.26329419E-03
 -5.31773406E-05 -2.41760350E-12 -1.02580634E-11  5.33555767E-01  2.68939420E-02
 -1.63742743E-04 -1.93177933E-04 -4.43621423E-12 -1.06963467E-02  1.67205046E-03
  1.58176591E-03  2.96515947E-11 -4.88402967E-03 -4.70893619E-03 -5.07278289E-03
 -8.60890231E-05  2.32172453E-11  2.76439265E-11 -8.50817529E-02 -4.28859372E-03
 -2.30868876E-04  3.80313950E-05 -1.20528763E-11  1.70597023E-03  1.44273383E-03
 -3.57130528E-04  4.19874245E-11  7.47554749E-04  7.82120357E-04  8.08903657E-04
  1.20273795E-04  1.23714790E-11 -1.84870722E-11 -4.48415738E-01 -2.26025042E-02
 -1.00810453E-04  2.26153040E-04 -3.18063584E-12  8.99001099E-03  1.17525738E-03
 -1.72806919E-03  1.06642080E-10  4.13343403E-03  3.92871081E-03  4.26329419E-03
 -5.31773406E-05  2.41760350E-12  1.02580634E-11  5.33555767E-01  2.68939420E-02
  1.63742743E-04  1.93177933E-04 -4.43621423E-12 -1.06963467E-02 -1.67205046E-03
 -1.58176591E-03  2.96515947E-11 -4.88402967E-03 -4.70893619E-03 -5.07278289E-03
 -8.60890231E-05 -2.32172453E-11 -2.76439265E-11 -8.50817529E-02 -4.28859372E-03
  2.30868876E-04 -3.80313950E-05 -1.20528763E-11  1.70597023E-03 -1.44273383E-03
  3.57130528E-04  4.19874245E-11  7.47554749E-04  7.82120357E-04  8.08903657E-04
  1.20273795E-04 -1.23714790E-11  1.84870722E-11  1.69158075E-04 -5.17031390E-04
 -2.01279966E-04  6.15246354E-04  3.20938065E-05 -9.80874790E-05  1.69158075E-04
 -5.17031390E-04 -2.01279966E-04  6.15246354E-04  3.20938065E-05 -9.80874790E-05
 -4.05574454E-01 -2.10663289E-02  2.35074489E-04 -1.35762419E-04  1.12115442E-11
  2.03893090E-02 -7.34465592E-03  4.24063120E-03  2.23605485E-10  3.48351184E-03
  3.38117124E-03  3.63665879E-03 -1.02329416E-04 -1.99162988E-12  1.05832700E-12
  4.05607815E-01  2.10679869E-02 -2.35081361E-04 -1.35754636E-04 -2.96160953E-11
 -2.03896506E-02  7.34470809E-03  4.24060884E-03  4.40286643E-10 -3.48383344E-03
 -3.38149580E-03 -3.63698460E-03 -1.02329997E-04  2.13879975E-11  3.74670055E-11
 -4.05495236E-01 -2.10624060E-02 -1.01053882E-08  2.71456397E-04  2.96235536E-11
  2.03884920E-02  5.41982277E-08 -8.48093783E-03 -4.37894608E-10  3.32924600E-03
  3.53391320E-03  3.63588991E-03  9.24024690E-10 -2.18248504E-11 -3.60575632E-11
  4.05574454E-01  2.10663289E-02  2.35074489E-04 -1.35762419E-04 -1.12115442E-11
 -2.03893090E-02 -7.34465592E-03  4.24063120E-03 -2.23605485E-10 -3.48351184E-03
 -3.38117124E-03 -3.63665879E-03  1.02329416E-04 -1.99162988E-12  1.05832700E-12
 -4.05607815E-01 -2.10679869E-02 -2.35081361E-04 -1.35754636E-04  2.96160953E-11
  2.03896506E-02  7.34470809E-03  4.24060884E-03 -4.40286643E-10  3.48383344E-03
  3.38149580E-03  3.63698460E-03  1.02329997E-04  2.13879975E-11  3.74670055E-11
  4.05495236E-01  2.10624060E-02 -1.01053882E-08  2.71456397E-04 -2.96235536E-11
 -2.03884920E-02  5.41982277E-08 -8.48093783E-03  4.37894608E-10 -3.32924600E-03
 -3.53391320E-03 -3.63588991E-03 -9.24024690E-10 -2.18248504E-11 -3.60575632E-11
  3.11427594E-04  9.46207299E-04 -3.11442981E-04 -9.46159197E-04  3.11394680E-04
  9.46343071E-04 -3.11427594E-04 -9.46207299E-04  3.11442981E-04  9.46159197E-04
 -3.11394680E-04 -9.46343071E-04 -9.41112308E-02  1.79682549E-01 -5.24127596E-02
  3.02607000E-02  3.38867960E-09  1.13896162E-01 -6.16662391E-03  3.56035928E-03
  2.24162717E-10  3.03097752E-03  3.02596379E-03 -1.07197917E-02 -4.98898194E-06
 -5.71989581E-10  3.30763556E-10 -9.41113051E-02  1.79682709E-01 -5.24128784E-02
 -3.02606435E-02  3.50821783E-10  1.13896003E-01 -6.16643669E-03 -3.56014621E-03
  4.87603207E-10  3.03098360E-03  3.02594006E-03 -1.07197918E-02  4.98844832E-06
  8.25313071E-10  8.07081644E-10 -9.41111631E-02  1.79682556E-01  2.25585423E-07
 -6.05210261E-02  3.11599282E-10  1.13895837E-01  1.36935957E-08 -7.12022109E-03
  4.68514666E-10  3.02339639E-03  3.03314090E-03 -1.07197955E-02  8.12389331E-09
  2.86736731E-10  1.10192914E-09 -9.41112308E-02  1.79682549E-01  5.24127596E-02
 -3.02607000E-02  3.38867960E-09  1.13896162E-01  6.16662391E-03 -3.56035928E-03
  2.24162717E-10  3.03097752E-03  3.02596379E-03 -1.07197917E-02 -4.98898194E-06
  5.71989581E-10 -3.30763556E-10 -9.41113051E-02  1.79682709E-01  5.24128784E-02
  3.02606435E-02  3.50821783E-10  1.13896003E-01  6.16643669E-03  3.56014621E-03
  4.87603207E-10  3.03098360E-03  3.02594006E-03 -1.07197918E-02  4.98844832E-06
 -8.25313071E-10 -8.07081644E-10 -9.41111631E-02  1.79682556E-01 -2.25585423E-07
  6.05210261E-02  3.11599282E-10  1.13895837E-01 -1.36935957E-08  7.12022109E-03
  4.68514666E-10  3.02339639E-03  3.03314090E-03 -1.07197955E-02  8.12389331E-09
 -2.86736731E-10 -1.10192914E-09  3.55401174E-02  4.12595919E-03  3.55401326E-02
  4.12585819E-03  3.55401273E-02  4.12572896E-03  3.55401174E-02  4.12595919E-03
  3.55401326E-02  4.12585819E-03  3.55401273E-02  4.12572896E-03 -6.63779347E-02
  1.31006412E-01  4.00324862E-02  9.13008487E-02  1.68967499E-09  9.78746888E-02
  1.21831851E-02  1.10363732E-02 -1.01313990E-10 -6.11960789E-03  8.03484334E-03
 -6.46187292E-03 -4.26013932E-03 -6.03101040E-11  7.35392278E-10 -1.30805782E-01
  2.58164146E-01 -1.82458177E-02 -1.16770628E-02  3.46225340E-09  1.92873403E-01
  8.66763306E-03  4.82379209E-03  2.33564161E-09  1.47965309E-03  2.29450316E-03
 -1.27338716E-02 -6.30988828E-04  1.66608777E-09  1.40426962E-09 -6.44279188E-02
  1.27157879E-01  1.00074672E-01 -1.06585275E-02  3.38864503E-09  9.49993305E-02
  1.58056399E-02  4.88515981E-03  1.02656212E-09  1.26290425E-03  5.95973333E-04
 -6.27202209E-03 -9.29926047E-03  1.10821514E-10  9.26726206E-10  6.63779347E-02
 -1.31006412E-01  4.00324862E-02  9.13008487E-02 -1.68967499E-09 -9.78746888E-02
  1.21831851E-02  1.10363732E-02  1.01313990E-10  6.11960789E-03 -8.03484334E-03
  6.46187292E-03  4.26013932E-03 -6.03101040E-11  7.35392278E-10  1.30805782E-01
 -2.58164146E-01 -1.82458177E-02 -1.16770628E-02 -3.46225340E-09 -1.92873403E-01
  8.66763306E-03  4.82379209E-03 -2.33564161E-09 -1.47965309E-03 -2.29450316E-03
  1.27338716E-02  6.30988828E-04  1.66608777E-09  1.40426962E-09  6.44279188E-02
 -1.27157879E-01  1.00074672E-01 -1.06585275E-02 -3.38864503E-09 -9.49993305E-02
  1.58056399E-02  4.88515981E-03 -1.02656212E-09 -1.26290425E-03 -5.95973333E-04
  6.27202209E-03  9.29926047E-03  1.10821514E-10  9.26726206E-10  3.97279797E-02
  7.27589060E-03  7.82887554E-02  1.43377628E-02  3.85609492E-02  7.06200958E-03
 -3.97279797E-02 -7.27589060E-03 -7.82887554E-02 -1.43377628E-02 -3.85609492E-02
 -7.06200958E-03  1.12718214E-01 -2.22465779E-01  4.53237070E-02  4.12084433E-02
 -2.84664676E-09 -1.66203478E-01 -2.79392664E-03  1.22543773E-02  1.61350144E-10
 -5.40099228E-03  2.14872815E-03  1.09730451E-02 -3.29439352E-03  7.94786332E-10
 -4.72197288E-11 -1.12583279E-03  2.22204680E-03 -5.76538835E-02  9.94868935E-02
  2.00676235E-09  1.65996804E-03 -9.00624178E-03  1.57703344E-02 -8.25998186E-11
  8.02690799E-03 -7.99444003E-03 -1.09582995E-04 -5.34822946E-03 -5.17194838E-11
 -1.27469770E-10 -1.13844044E-01  2.24687841E-01 -5.66351243E-02 -1.88336749E-02
  1.95067836E-09  1.67863587E-01 -8.94487003E-03  8.63221581E-03  2.03351741E-09
  2.23152465E-03  1.05309060E-03 -1.10826431E-02  5.26278437E-03  3.77387027E-10
  1.89658836E-09 -1.12718214E-01  2.22465779E-01  4.53237070E-02  4.12084433E-02
  2.84664676E-09  1.66203478E-01 -2.79392664E-03  1.22543773E-02 -1.61350144E-10
  5.40099228E-03 -2.14872815E-03 -1.09730451E-02  3.29439352E-03  7.94786332E-10
 -4.72197288E-11  1.12583279E-03 -2.22204680E-03 -5.76538835E-02  9.94868935E-02
 -2.00676235E-09 -1.65996804E-03 -9.00624178E-03  1.57703344E-02  8.25998186E-11
 -8.02690799E-03  7.99444003E-03  1.09582995E-04  5.34822946E-03 -5.17194838E-11
 -1.27469770E-10  1.13844044E-01 -2.24687841E-01 -5.66351243E-02 -1.88336749E-02
 -1.95067836E-09 -1.67863587E-01 -8.94487003E-03  8.63221581E-03 -2.03351741E-09
 -2.23152465E-03 -1.05309060E-03  1.10826431E-02 -5.26278437E-03  3.77387027E-10
  1.89658836E-09 -6.74632601E-02 -1.23552230E-02  6.73790654E-04  1.23300629E-04
  6.81370477E-02  1.24785310E-02  6.74632601E-02  1.23552230E-02 -6.73790654E-04
 -1.23300629E-04 -6.81370477E-02 -1.24785310E-02  8.33667294E-02 -1.72470899E-01
 -1.09470169E-01 -7.45104705E-02  3.73410634E-09 -1.30509080E-01 -5.61777002E-02
 -3.79140275E-03  1.48488155E-09  3.51380904E-03 -2.29096262E-04  6.64159331E-03
  6.99412348E-03  3.98647691E-11 -6.53639462E-10  9.94235197E-03 -2.05689199E-02
 -1.07980622E-01  1.73301308E-01  5.81975471E-09 -1.55645411E-02 -3.16698353E-02
  4.37018698E-02  1.23928015E-09  6.82856537E-03 -6.43681062E-03  7.92087639E-04
 -5.10711330E-03 -5.04678770E-10 -3.97428684E-10 -9.33092187E-02  1.93040226E-01
  8.48106116E-02  6.44124269E-02  1.18987243E-08  1.46074047E-01  2.23095180E-02
  5.23320145E-02  6.23099526E-09 -6.66207220E-03  2.98563297E-03 -7.43366557E-03
 -3.81765885E-03 -1.16443296E-11  2.19799079E-09  8.33667294E-02 -1.72470899E-01
  1.09470169E-01  7.45104705E-02  3.73410634E-09 -1.30509080E-01  5.61777002E-02
  3.79140275E-03  1.48488155E-09  3.51380904E-03 -2.29096262E-04  6.64159331E-03
  6.99412348E-03 -3.98647691E-11  6.53639462E-10  9.94235197E-03 -2.05689199E-02
  1.07980622E-01 -1.73301308E-01  5.81975471E-09 -1.55645411E-02  3.16698353E-02
 -4.37018698E-02  1.23928015E-09  6.82856537E-03 -6.43681062E-03  7.92087639E-04
 -5.10711330E-03  5.04678770E-10  3.97428684E-10 -9.33092187E-02  1.93040226E-01
 -8.48106116E-02 -6.44124269E-02  1.18987243E-08  1.46074047E-01 -2.23095180E-02
 -5.23320145E-02  6.23099526E-09 -6.66207220E-03  2.98563297E-03 -7.43366557E-03
 -3.81765885E-03  1.16443296E-11 -2.19799079E-09 -9.28836297E-02 -3.10066323E-02
 -1.10774005E-02 -3.69798459E-03  1.03961314E-01  3.47045014E-02 -9.28836297E-02
 -3.10066323E-02 -1.10774005E-02 -3.69798459E-03  1.03961314E-01  3.47045014E-02
  5.96123413E-02 -1.23327337E-01  4.77559798E-02  1.65017566E-01  2.72673414E-09
 -9.33224086E-02 -7.01714444E-03  5.47121896E-02  1.07281768E-09 -5.99741939E-03
  8.34616075E-03  4.74913760E-03 -6.72074741E-04  6.05330131E-10  5.37465206E-10
 -1.02003877E-01  2.11027843E-01  5.10353418E-02  5.24335083E-02  1.08219962E-08
  1.59685632E-01  4.69277366E-02  3.31355103E-02  6.25876976E-09  1.29872398E-03
 -5.31773979E-03 -8.12635073E-03  4.82567970E-03  2.23069033E-09  1.31530799E-09
  4.23916380E-02 -8.77007856E-02  1.86678484E-01 -2.92628510E-02  2.16002311E-09
 -6.63634609E-02  4.91060115E-02 -2.37750105E-02 -7.99353092E-10  3.02669627E-03
 -1.35641847E-03  3.37721088E-03 -8.40325169E-03 -9.82097590E-11 -1.42028325E-09
  5.96123413E-02 -1.23327337E-01 -4.77559798E-02 -1.65017566E-01  2.72673414E-09
 -9.33224086E-02  7.01714444E-03 -5.47121896E-02  1.07281768E-09 -5.99741939E-03
  8.34616075E-03  4.74913760E-03 -6.72074741E-04 -6.05330131E-10 -5.37465206E-10
 -1.02003877E-01  2.11027843E-01 -5.10353418E-02 -5.24335083E-02  1.08219962E-08
  1.59685632E-01 -4.69277366E-02 -3.31355103E-02  6.25876976E-09  1.29872398E-03
 -5.31773979E-03 -8.12635073E-03  4.82567970E-03 -2.23069033E-09 -1.31530799E-09
  4.23916380E-02 -8.77007856E-02 -1.86678484E-01  2.92628510E-02  2.16002311E-09
 -6.63634609E-02 -4.91060115E-02  2.37750105E-02 -7.99353092E-10  3.02669627E-03
 -1.35641847E-03  3.37721088E-03 -8.40325169E-03  9.82097590E-11  1.42028325E-09
 -6.64174531E-02 -2.21716150E-02  1.13648611E-01  3.79384840E-02 -4.72306422E-02
 -1.57665612E-02 -6.64174531E-02 -2.21716150E-02  1.13648611E-01  3.79384840E-02
 -4.72306422E-02 -1.57665612E-02 -8.58582682E-03  1.80149007E-02  1.72395516E-01
 -9.95325461E-02  1.31589258E-09  3.09321603E-02  5.90123218E-02 -3.40706322E-02
  1.19380404E-09  1.10187064E-03  2.69476033E-03 -1.48331391E-04  1.59289468E-03
 -5.49728189E-10  3.23189626E-10 -8.58551159E-03  1.80142130E-02  1.72395380E-01
  9.95321920E-02  1.98948468E-08  3.09316151E-02  5.90120480E-02  3.40705132E-02
  6.63835939E-09  1.10186457E-03  2.69480771E-03 -1.48313211E-04 -1.59292339E-03
  1.30465936E-09  1.14380549E-09 -8.58571906E-03  1.80145012E-02 -4.18329780E-07
  1.99064702E-01  1.96771773E-08  3.09325374E-02 -1.36996074E-07  6.81404530E-02
  6.56996066E-09  3.49128883E-03  3.05804371E-04 -1.48321674E-04  7.37099891E-08
  3.43262664E-10  1.65278028E-09 -8.58582682E-03  1.80149007E-02 -1.72395516E-01
  9.95325461E-02  1.31589258E-09  3.09321603E-02 -5.90123218E-02  3.40706322E-02
  1.19380404E-09  1.10187064E-03  2.69476033E-03 -1.48331391E-04  1.59289468E-03
  5.49728189E-10 -3.23189626E-10 -8.58551159E-03  1.80142130E-02 -1.72395380E-01
 -9.95321920E-02  1.98948468E-08  3.09316151E-02 -5.90120480E-02 -3.40705132E-02
  6.63835939E-09  1.10186457E-03  2.69480771E-03 -1.48313211E-04 -1.59292339E-03
 -1.30465936E-09 -1.14380549E-09 -8.58571906E-03  1.80145012E-02  4.18329780E-07
 -1.99064702E-01  1.96771773E-08  3.09325374E-02  1.36996074E-07 -6.81404530E-02
  6.56996066E-09  3.49128883E-03  3.05804371E-04 -1.48321674E-04  7.37099891E-08
 -3.43262664E-10 -1.65278028E-09  1.08317675E-01  6.71147413E-02  1.08317249E-01
  6.71146039E-02  1.08317383E-01  6.71150464E-02  1.08317675E-01  6.71147413E-02
  1.08317249E-01  6.71146039E-02  1.08317383E-01  6.71150464E-02 -5.91954573E-02
  1.21418144E-01  1.16043912E-01 -6.70004306E-02 -1.87218087E-08  1.61521953E-01
  3.35786475E-02 -1.93873126E-02 -7.16748404E-09  5.56523144E-03 -8.58250062E-03
 -4.69203100E-03 -1.41475524E-02 -4.26512765E-10  2.30085905E-10  5.91954857E-02
 -1.21418198E-01 -1.16046489E-01 -6.69974199E-02 -2.10219639E-08 -1.61521939E-01
 -3.35794804E-02 -1.93862639E-02 -7.25199593E-09 -5.56519871E-03  8.58246321E-03
  4.69202906E-03 -1.41476194E-02 -3.11128079E-09 -4.73395686E-10 -5.91953820E-02
  1.21417985E-01  2.09892204E-06  1.33998728E-01  2.04871396E-08  1.61521467E-01
  5.86231057E-07  3.87739275E-02  7.05402407E-09 -1.56562523E-02  1.26390215E-02
 -4.69202913E-03 -1.10930033E-08 -1.15964781E-09  2.87716303E-09  5.91954573E-02
 -1.21418144E-01  1.16043912E-01 -6.70004306E-02  1.87218087E-08 -1.61521953E-01
  3.35786475E-02 -1.93873126E-02  7.16748404E-09 -5.56523144E-03  8.58250062E-03
  4.69203100E-03  1.41475524E-02 -4.26512765E-10  2.30085905E-10 -5.91954857E-02
  1.21418198E-01 -1.16046489E-01 -6.69974199E-02  2.10219639E-08  1.61521939E-01
 -3.35794804E-02 -1.93862639E-02  7.25199593E-09  5.56519871E-03 -8.58246321E-03
 -4.69202906E-03  1.41476194E-02 -3.11128079E-09 -4.73395686E-10  5.91953820E-02
 -1.21417985E-01  2.09892204E-06  1.33998728E-01 -2.04871396E-08 -1.61521467E-01
  5.86231057E-07  3.87739275E-02 -7.05402407E-09  1.56562523E-02 -1.26390215E-02
  4.69202913E-03  1.10930033E-08 -1.15964781E-09  2.87716303E-09  1.40694370E-01
  9.80164599E-02 -1.40694870E-01 -9.80169077E-02  1.40695221E-01  9.80172847E-02
 -1.40694370E-01 -9.80164599E-02  1.40694870E-01  9.80169077E-02 -1.40695221E-01
 -9.80172847E-02  2.24889976E-07 -4.71069204E-07 -1.37579941E-01 -2.38289658E-01
 -8.17854090E-12  3.84874263E-07 -4.62444995E-02 -8.00950341E-02 -8.83336198E-12
  2.87775908E-03 -2.87777329E-03  1.15203794E-08  1.91871322E-03 -1.90810643E-10
 -3.29652244E-10 -4.11334920E-07  8.67576125E-07 -1.37575013E-01  2.38290775E-01
  9.30642464E-09  4.83165453E-07 -4.62427159E-02  8.00967863E-02  3.79860399E-09
  2.87774248E-03 -2.87777788E-03 -3.86354731E-08 -1.91831430E-03 -2.64097122E-10
 -9.85793815E-11  7.47954528E-07 -1.63965993E-06  2.75154473E-01  2.11356656E-06
  9.31467261E-09 -2.01715221E-06  9.24867962E-02  5.29395687E-08  3.80715338E-09
  1.23069231E-07  8.27883425E-09  3.42377296E-08 -3.83710576E-03  3.46048481E-11
 -2.77605091E-10 -2.24889976E-07  4.71069204E-07 -1.37579941E-01 -2.38289658E-01
  8.17854090E-12 -3.84874263E-07 -4.62444995E-02 -8.00950341E-02  8.83336198E-12
 -2.87775908E-03  2.87777329E-03 -1.15203794E-08 -1.91871322E-03 -1.90810643E-10
 -3.29652244E-10  4.11334920E-07 -8.67576125E-07 -1.37575013E-01  2.38290775E-01
 -9.30642464E-09 -4.83165453E-07 -4.62427159E-02  8.00967863E-02 -3.79860399E-09
 -2.87774248E-03  2.87777788E-03  3.86354731E-08  1.91831430E-03 -2.64097122E-10
 -9.85793815E-11 -7.47954528E-07  1.63965993E-06  2.75154473E-01  2.11356656E-06
 -9.31467261E-09  2.01715221E-06  9.24867962E-02  5.29395687E-08 -3.80715338E-09
 -1.23069231E-07 -8.27883425E-09 -3.42377296E-08  3.83710576E-03  3.46048481E-11
 -2.77605091E-10 -2.17672836E-06 -1.61422228E-06  1.51755209E-06  1.05795094E-06
  6.94664141E-07  9.72345747E-07  2.17672836E-06  1.61422228E-06 -1.51755209E-06
 -1.05795094E-06 -6.94664141E-07 -9.72345747E-07  1.21923449E-02 -2.81777637E-02
  9.92666877E-02 -1.42768299E-01 -4.86073679E-09 -4.87378595E-02  5.07877840E-02
 -9.61374827E-03 -3.72276708E-10  1.27798340E-02 -8.40626544E-03  3.74445034E-04
  2.00710037E-03  5.02806934E-10  1.48147614E-09  2.37079418E-02 -5.47916889E-02
  2.64267801E-01  1.54215671E-01  3.90127037E-08 -9.47706917E-02  8.23262137E-02
  4.71521149E-02  1.29389849E-08  8.10531414E-03  3.99136183E-04  7.28047809E-04
  7.26067697E-03  1.89836397E-09  1.64347268E-09  1.15156231E-02 -2.66139755E-02
 -7.54309586E-02  1.48618942E-01  2.54237710E-08 -4.60328659E-02  1.73953495E-02
  4.60821315E-02  1.20444889E-08 -1.51541515E-03  5.64638327E-03  3.53622019E-04
  1.18194007E-02  8.79796906E-10  9.79039481E-10 -1.21923449E-02  2.81777637E-02
  9.92666877E-02 -1.42768299E-01  4.86073679E-09  4.87378595E-02  5.07877840E-02
 -9.61374827E-03  3.72276708E-10 -1.27798340E-02  8.40626544E-03 -3.74445034E-04
 -2.00710037E-03  5.02806934E-10  1.48147614E-09 -2.37079418E-02  5.47916889E-02
  2.64267801E-01  1.54215671E-01 -3.90127037E-08  9.47706917E-02  8.23262137E-02
  4.71521149E-02 -1.29389849E-08 -8.10531414E-03 -3.99136183E-04 -7.28047809E-04
 -7.26067697E-03  1.89836397E-09  1.64347268E-09 -1.15156231E-02  2.66139755E-02
 -7.54309586E-02  1.48618942E-01 -2.54237710E-08  4.60328659E-02  1.73953495E-02
  4.60821315E-02 -1.20444889E-08  1.51541515E-03 -5.64638327E-03 -3.53622019E-04
 -1.18194007E-02  8.79796906E-10  9.79039481E-10  8.54696378E-02  8.10942206E-02
  1.66196047E-01  1.57688277E-01  8.07263847E-02  7.65941734E-02 -8.54696378E-02
 -8.10942206E-02 -1.66196047E-01 -1.57688277E-01 -8.07263847E-02 -7.65941734E-02
 -2.03362371E-02  4.69994030E-02 -2.49479094E-01  9.28049974E-02  8.34139101E-09
  8.12928517E-02 -6.53608555E-02  4.95526318E-02  7.83888206E-10 -1.59498971E-03
 -5.69999883E-03 -6.24479941E-04  9.80001414E-03  8.87414480E-10  5.35690010E-10
  3.90503578E-04 -9.02647177E-04  4.75073658E-02 -7.22008446E-02  8.17148040E-09
 -1.56101435E-03 -8.59447936E-03  1.80124244E-02  6.72763327E-09 -1.00086063E-02
  1.01487559E-02  1.19498506E-05  6.88116791E-03 -5.05127110E-10  5.38301958E-10
  2.07272067E-02 -4.79030164E-02  4.19051889E-02  2.67498703E-01  3.00131595E-08
 -8.28553374E-02 -9.66589892E-03  8.29430384E-02  8.09471927E-09 -2.72752036E-03
  1.01628778E-02  6.36492439E-04 -6.56660078E-03  7.91102401E-11  2.20137253E-09
  2.03362371E-02 -4.69994030E-02 -2.49479094E-01  9.28049974E-02 -8.34139101E-09
 -8.12928517E-02 -6.53608555E-02  4.95526318E-02 -7.83888206E-10  1.59498971E-03
  5.69999883E-03  6.24479941E-04 -9.80001414E-03  8.87414480E-10  5.35690010E-10
 -3.90503578E-04  9.02647177E-04  4.75073658E-02 -7.22008446E-02 -8.17148040E-09
  1.56101435E-03 -8.59447936E-03  1.80124244E-02 -6.72763327E-09  1.00086063E-02
 -1.01487559E-02 -1.19498506E-05 -6.88116791E-03 -5.05127110E-10  5.38301958E-10
 -2.07272067E-02  4.79030164E-02  4.19051889E-02  2.67498703E-01 -3.00131595E-08
  8.28553374E-02 -9.66589892E-03  8.29430384E-02 -8.09471927E-09  2.72752036E-03
 -1.01628778E-02 -6.36492439E-04  6.56660078E-03  7.91102401E-11  2.20137253E-09
 -1.42561230E-01 -1.35263510E-01  2.73900182E-03  2.59885205E-03  1.45298909E-01
  1.37861531E-01  1.42561230E-01  1.35263510E-01 -2.73900182E-03 -2.59885205E-03
 -1.45298909E-01 -1.37861531E-01 -3.43513284E-09  1.45509110E-08 -1.13875836E-07
  6.33388832E-08  2.22044799E-01 -2.58810926E-08 -1.06698315E-08  5.21556743E-09
  1.28718328E-01 -7.83774896E-09  1.72733336E-09  1.66120492E-09  9.74496039E-09
 -8.29614109E-03  4.78979866E-03  4.76020601E-09 -1.37505483E-08  1.07903262E-07
 -9.97250540E-08  2.22044904E-01  1.84332370E-09  2.32265834E-08 -5.10048483E-08
  1.28718382E-01  1.65775818E-10  2.93025051E-09 -4.70853288E-10  9.10532582E-09
 -8.29614921E-03 -4.78979730E-03  4.58951972E-09 -1.32344786E-08 -1.42400761E-07
  4.08014289E-08  2.22044864E-01  1.60590117E-09 -5.66038482E-08 -5.62857144E-09
  1.28718524E-01 -4.40631851E-09  7.38090961E-09 -4.67853162E-10  6.02488986E-09
  3.05876871E-08 -9.57963453E-03 -3.43513284E-09  1.45509110E-08  1.13875836E-07
 -6.33388832E-08  2.22044799E-01 -2.58810926E-08  1.06698315E-08 -5.21556743E-09
  1.28718328E-01 -7.83774896E-09  1.72733336E-09  1.66120492E-09  9.74496039E-09
  8.29614109E-03 -4.78979866E-03  4.76020601E-09 -1.37505483E-08 -1.07903262E-07
  9.97250540E-08  2.22044904E-01  1.84332370E-09 -2.32265834E-08  5.10048483E-08
  1.28718382E-01  1.65775818E-10  2.93025051E-09 -4.70853288E-10  9.10532582E-09
  8.29614921E-03  4.78979730E-03  4.58951972E-09 -1.32344786E-08  1.42400761E-07
 -4.08014289E-08  2.22044864E-01  1.60590117E-09  5.66038482E-08  5.62857144E-09
  1.28718524E-01 -4.40631851E-09  7.38090961E-09 -4.67853162E-10  6.02488986E-09
 -3.05876871E-08  9.57963453E-03 -9.90237870E-08 -1.11050269E-07  5.01652818E-08
  5.39430569E-08  4.78599201E-08  5.14352273E-08 -9.90237870E-08 -1.11050269E-07
  5.01652818E-08  5.39430569E-08  4.78599201E-08  5.14352273E-08 -4.36141306E-05
  1.77802010E-04  1.32507552E-01  2.33406319E-01  7.83691606E-10 -2.20480478E-04
  5.23198706E-02  9.12891080E-02  4.35169858E-10 -8.80444926E-03  8.72844721E-03
  9.61339688E-06 -5.62469771E-03 -6.74109280E-10 -1.13631626E-09 -4.34578678E-03
  1.77320243E-02 -1.00268432E-01 -2.15162380E-01 -2.98784037E-08 -2.19842747E-02
 -2.18619777E-03 -6.29184459E-02 -9.30509963E-09 -1.64142079E-02  8.83772663E-03
  9.61025450E-04 -1.34999073E-02 -3.09789998E-09 -3.49760913E-10  4.38945579E-03
 -1.79101231E-02  1.32187645E-01  1.96364574E-01  3.08675604E-08  2.22040559E-02
  5.18220599E-02  3.36861209E-02  9.96258798E-09 -1.27764137E-02  2.04288552E-02
 -9.70691193E-04 -5.70279202E-03 -1.26900302E-09  2.77915005E-09 -4.36141306E-05
  1.77802010E-04 -1.32507552E-01 -2.33406319E-01  7.83691606E-10 -2.20480478E-04
 -5.23198706E-02 -9.12891080E-02  4.35169858E-10 -8.80444926E-03  8.72844721E-03
  9.61339688E-06 -5.62469771E-03  6.74109280E-10  1.13631626E-09 -4.34578678E-03
  1.77320243E-02  1.00268432E-01  2.15162380E-01 -2.98784037E-08 -2.19842747E-02
  2.18619777E-03  6.29184459E-02 -9.30509963E-09 -1.64142079E-02  8.83772663E-03
  9.61025450E-04 -1.34999073E-02  3.09789998E-09  3.49760913E-10  4.38945579E-03
 -1.79101231E-02 -1.32187645E-01 -1.96364574E-01  3.08675604E-08  2.22040559E-02
 -5.18220599E-02 -3.36861209E-02  9.96258798E-09 -1.27764137E-02  2.04288552E-02
 -9.70691193E-04 -5.70279202E-03  1.26900302E-09 -2.77915005E-09 -1.47464796E-03
 -1.68670826E-03 -1.47179403E-01 -1.68342080E-01  1.48654251E-01  1.70029364E-01
 -1.47464796E-03 -1.68670826E-03 -1.47179403E-01 -1.68342080E-01  1.48654251E-01
  1.70029364E-01  5.04332521E-03 -2.05780464E-02  1.96549109E-01 -1.10801462E-01
  1.21526106E-07  2.55121667E-02  3.39738134E-02 -1.85656557E-02  7.71688455E-08
  1.38592131E-02 -5.06682439E-03 -1.11527071E-03 -1.91259213E-02 -5.94211874E-09
  3.40750728E-09 -2.55944122E-03  1.04430993E-02 -2.14793107E-01  1.43040813E-01
  1.27350847E-07 -1.29466338E-02 -6.23440813E-02  6.86995325E-02  8.10890901E-08
  4.11890724E-04 -4.87380457E-03  5.65985749E-04 -1.46693805E-02 -6.70921401E-09
 -3.67786837E-09 -2.48389753E-03  1.01351003E-02  2.33591039E-01 -1.11121637E-01
  1.28147200E-07 -1.25653648E-02  9.15762875E-02 -1.90627397E-02  8.13379705E-08
  7.23015089E-03 -1.15606055E-02  5.49305663E-04 -1.00775549E-02  1.29807975E-10
 -7.56578712E-09  5.04332521E-03 -2.05780464E-02 -1.96549109E-01  1.10801462E-01
  1.21526106E-07  2.55121667E-02 -3.39738134E-02  1.85656557E-02  7.71688455E-08
  1.38592131E-02 -5.06682439E-03 -1.11527071E-03 -1.91259213E-02  5.94211874E-09
 -3.40750728E-09 -2.55944122E-03  1.04430993E-02  2.14793107E-01 -1.43040813E-01
  1.27350847E-07 -1.29466338E-02  6.23440813E-02 -6.86995325E-02  8.10890901E-08
  4.11890724E-04 -4.87380457E-03  5.65985749E-04 -1.46693805E-02  6.70921401E-09
  3.67786837E-09 -2.48389753E-03  1.01351003E-02 -2.33591039E-01  1.11121637E-01
  1.28147200E-07 -1.25653648E-02 -9.15762875E-02  1.90627397E-02  8.13379705E-08
  7.23015089E-03 -1.15606055E-02  5.49305663E-04 -1.00775549E-02 -1.29807975E-10
  7.56578712E-09  1.70799580E-01  1.95358734E-01 -8.66771016E-02 -9.91404703E-02
 -8.41226080E-02 -9.62189401E-02  1.70799580E-01  1.95358734E-01 -8.66771016E-02
 -9.91404703E-02 -8.41226080E-02 -9.62189401E-02 -3.88304741E-10  1.26072526E-09
  6.67612934E-09  8.01793553E-09  4.18351644E-02 -4.52982384E-09  1.11949646E-09
 -1.01476400E-08  3.00216331E-02 -1.27125419E-09  9.90598638E-10  1.35561589E-10
 -1.05399704E-09  8.81882281E-03  1.64887721E-02  4.39259753E-10  7.88013296E-10
 -3.90713277E-08 -3.24448191E-08  3.13014834E-01  5.47125098E-09 -2.63627572E-08
 -2.88892468E-08  2.24626754E-01  9.09683407E-10 -1.03050125E-09  5.08874067E-10
 -5.38840864E-10 -7.60209745E-03  4.08296611E-03 -1.05570780E-09  4.87095547E-09
 -7.13115766E-09 -4.48150783E-08  2.71179928E-01  6.15534195E-11 -1.10209204E-08
 -2.36139492E-08  1.94605054E-01 -8.27068535E-10  2.31560413E-10  6.35084407E-10
 -1.35312732E-09  1.13521023E-02 -3.93507575E-03  3.88304741E-10 -1.26072526E-09
  6.67612934E-09  8.01793553E-09 -4.18351644E-02  4.52982384E-09  1.11949646E-09
 -1.01476400E-08 -3.00216331E-02  1.27125419E-09 -9.90598638E-10 -1.35561589E-10
  1.05399704E-09  8.81882281E-03  1.64887721E-02 -4.39259753E-10 -7.88013296E-10
 -3.90713277E-08 -3.24448191E-08 -3.13014834E-01 -5.47125098E-09 -2.63627572E-08
 -2.88892468E-08 -2.24626754E-01 -9.09683407E-10  1.03050125E-09 -5.08874067E-10
  5.38840864E-10 -7.60209745E-03  4.08296611E-03  1.05570780E-09 -4.87095547E-09
 -7.13115766E-09 -4.48150783E-08 -2.71179928E-01 -6.15534195E-11 -1.10209204E-08
 -2.36139492E-08 -1.94605054E-01  8.27068535E-10 -2.31560413E-10 -6.35084407E-10
  1.35312732E-09  1.13521023E-02 -3.93507575E-03  7.10797007E-10 -8.94921618E-10
 -3.84393094E-09 -5.24469741E-09 -2.65473572E-09 -7.53020850E-09 -7.10797007E-10
  8.94921618E-10  3.84393094E-09  5.24469741E-09  2.65473572E-09  7.53020850E-09
 -2.59701839E-09  8.29913647E-09  1.26001292E-08 -8.71447540E-09  3.37285087E-01
 -3.06882469E-08  3.75176218E-08 -2.05711695E-08  2.42043686E-01 -5.09852635E-11
 -2.01315837E-09  1.02664360E-09 -1.57562713E-09 -5.39759906E-03  4.39633332E-04
  5.43493896E-09 -1.48591628E-08 -9.04260320E-09 -1.04111158E-08  1.32412421E-01
  1.57357924E-08 -3.61202637E-08 -2.36791609E-08  9.50220880E-02 -3.55139399E-10
  2.14824375E-09 -5.76843306E-10 -1.45397530E-09  7.00816967E-03 -1.59813064E-02
 -5.34365008E-09  1.41441923E-08  6.50129516E-09  2.43111822E-08 -2.04872647E-01
 -1.64393326E-08  5.20762487E-09  5.03291261E-08 -1.47021550E-01 -2.49735859E-09
  7.87853720E-10  4.44748600E-10 -2.16065918E-10  1.50261743E-02  2.97290463E-03
  2.59701839E-09 -8.29913647E-09  1.26001292E-08 -8.71447540E-09 -3.37285087E-01
  3.06882469E-08  3.75176218E-08 -2.05711695E-08 -2.42043686E-01  5.09852635E-11
  2.01315837E-09 -1.02664360E-09  1.57562713E-09 -5.39759906E-03  4.39633332E-04
 -5.43493896E-09  1.48591628E-08 -9.04260320E-09 -1.04111158E-08 -1.32412421E-01
 -1.57357924E-08 -3.61202637E-08 -2.36791609E-08 -9.50220880E-02  3.55139399E-10
 -2.14824375E-09  5.76843306E-10  1.45397530E-09  7.00816967E-03 -1.59813064E-02
  5.34365008E-09 -1.41441923E-08  6.50129516E-09  2.43111822E-08  2.04872647E-01
  1.64393326E-08  5.20762487E-09  5.03291261E-08  1.47021550E-01  2.49735859E-09
 -7.87853720E-10 -4.44748600E-10  2.16065918E-10  1.50261743E-02  2.97290463E-03
  5.60656063E-09 -5.01721084E-09 -4.15168455E-09  8.08017553E-09  4.93996326E-09
 -6.53769831E-09 -5.60656063E-09  5.01721084E-09  4.15168455E-09 -8.08017553E-09
 -4.93996326E-09  6.53769831E-09  7.34141824E-10 -6.05386914E-10 -2.33607214E-08
 -3.85105616E-09 -2.70752399E-01 -1.57785857E-08 -1.20349063E-08  2.03119145E-08
 -3.60393988E-01  1.18453265E-09 -1.52699794E-09  8.04361604E-10 -2.38754435E-09
 -1.70829306E-02 -1.33763237E-02  3.53147435E-09 -7.16450622E-09  1.32659498E-09
  1.72172355E-08 -7.61975773E-02 -4.55074915E-08  2.03275208E-10  2.92880816E-08
 -1.01425048E-01  2.16751181E-09 -2.58596966E-09  1.02926754E-09  4.25367016E-09
 -1.66651930E-02  2.43023984E-02  8.74172186E-09 -1.86099603E-08 -1.45840814E-08
 -4.24770777E-08  3.46949602E-01 -5.44356067E-08 -2.29609076E-08 -8.42543292E-08
  4.61819385E-01 -8.89144046E-10  1.27219715E-09  1.33748062E-09  4.76801829E-10
  9.25340665E-03  1.03874223E-02  7.34141824E-10 -6.05386914E-10  2.33607214E-08
  3.85105616E-09 -2.70752399E-01 -1.57785857E-08  1.20349063E-08 -2.03119145E-08
 -3.60393988E-01  1.18453265E-09 -1.52699794E-09  8.04361604E-10 -2.38754435E-09
  1.70829306E-02  1.33763237E-02  3.53147435E-09 -7.16450622E-09 -1.32659498E-09
 -1.72172355E-08 -7.61975773E-02 -4.55074915E-08 -2.03275208E-10 -2.92880816E-08
 -1.01425048E-01  2.16751181E-09 -2.58596966E-09  1.02926754E-09  4.25367016E-09
  1.66651930E-02 -2.43023984E-02  8.74172186E-09 -1.86099603E-08  1.45840814E-08
  4.24770777E-08  3.46949602E-01 -5.44356067E-08  2.29609076E-08  8.42543292E-08
  4.61819385E-01 -8.89144046E-10  1.27219715E-09  1.33748062E-09  4.76801829E-10
 -9.25340665E-03 -1.03874223E-02  9.18963579E-09  3.32213309E-08  1.21102724E-08
  4.60752921E-08  1.96541018E-08  7.33925355E-08  9.18963579E-09  3.32213309E-08
  1.21102724E-08  4.60752921E-08  1.96541018E-08  7.33925355E-08  7.15495535E-10
 -5.86144145E-10 -5.95538423E-09  2.29258938E-08 -2.44303995E-01 -1.52505063E-08
 -2.23489209E-08 -1.70297823E-09 -3.25189882E-01  8.66390425E-10 -1.15955190E-09
  7.29932111E-10 -2.39386653E-09  4.81786987E-03  2.29733799E-02  8.61966562E-09
 -1.83487657E-08 -3.05548957E-08 -3.61862197E-08  3.56630365E-01 -5.12983612E-08
 -6.34253538E-08 -6.60990458E-08  4.74705625E-01  1.84959698E-10  2.80892082E-10
  1.25238953E-09  9.13062300E-10  6.10822603E-03  1.07747650E-02  2.73438415E-09
 -5.40019839E-09  1.61225684E-08  1.39163796E-08 -1.12326212E-01 -4.12125661E-08
  2.76626348E-08  2.32403423E-08 -1.49515996E-01 -4.57392383E-09  4.13440011E-09
  9.03285747E-10 -3.08233230E-10  2.85815835E-02 -3.36292954E-03  7.15495535E-10
 -5.86144145E-10  5.95538423E-09 -2.29258938E-08 -2.44303995E-01 -1.52505063E-08
  2.23489209E-08  1.70297823E-09 -3.25189882E-01  8.66390425E-10 -1.15955190E-09
  7.29932111E-10 -2.39386653E-09 -4.81786987E-03 -2.29733799E-02  8.61966562E-09
 -1.83487657E-08  3.05548957E-08  3.61862197E-08  3.56630365E-01 -5.12983612E-08
  6.34253538E-08  6.60990458E-08  4.74705625E-01  1.84959698E-10  2.80892082E-10
  1.25238953E-09  9.13062300E-10 -6.10822603E-03 -1.07747650E-02  2.73438415E-09
 -5.40019839E-09 -1.61225684E-08 -1.39163796E-08 -1.12326212E-01 -4.12125661E-08
 -2.76626348E-08 -2.32403423E-08 -1.49515996E-01 -4.57392383E-09  4.13440011E-09
  9.03285747E-10 -3.08233230E-10 -2.85815835E-02  3.36292954E-03  8.55828906E-09
  3.09100567E-08  1.89965983E-08  7.07684100E-08  1.04650355E-08  3.98710783E-08
  8.55828906E-09  3.09100567E-08  1.89965983E-08  7.07684100E-08  1.04650355E-08
  3.98710783E-08  3.92327623E-02 -6.77541486E-02 -1.09590396E-01  6.32716241E-02
  4.54593242E-08 -5.12572457E-01 -2.43655061E-01  1.40675002E-01  1.04978060E-07
  1.18087723E-02 -4.18776079E-03  1.32987849E-04 -1.59964185E-02  2.86533959E-09
 -1.71703476E-09  3.92331528E-02 -6.77549903E-02 -1.09590413E-01 -6.32716136E-02
 -3.72067484E-08 -5.12575623E-01 -2.43657615E-01 -1.40673891E-01 -8.81396126E-08
  1.18087138E-02 -4.18761707E-03  1.32972177E-04  1.59963894E-02  2.96177341E-09
 -2.62965163E-09  3.92329454E-02 -6.77544804E-02  3.45089744E-07 -1.26543050E-01
 -3.59497904E-08 -5.12574771E-01 -7.39284732E-07 -2.81347971E-01 -8.51584405E-08
 -1.21858996E-02  1.98063960E-02  1.32965111E-04  4.48123514E-08 -3.81254838E-09
  1.29451717E-09  3.92327623E-02 -6.77541486E-02  1.09590396E-01 -6.32716241E-02
  4.54593242E-08 -5.12572457E-01  2.43655061E-01 -1.40675002E-01  1.04978060E-07
  1.18087723E-02 -4.18776079E-03  1.32987849E-04 -1.59964185E-02 -2.86533959E-09
  1.71703476E-09  3.92331528E-02 -6.77549903E-02  1.09590413E-01  6.32716136E-02
 -3.72067484E-08 -5.12575623E-01  2.43657615E-01  1.40673891E-01 -8.81396126E-08
  1.18087138E-02 -4.18761707E-03  1.32972177E-04  1.59963894E-02 -2.96177341E-09
  2.62965163E-09  3.92329454E-02 -6.77544804E-02 -3.45089744E-07  1.26543050E-01
 -3.59497904E-08 -5.12574771E-01  7.39284732E-07  2.81347971E-01 -8.51584405E-08
 -1.21858996E-02  1.98063960E-02  1.32965111E-04  4.48123514E-08  3.81254838E-09
 -1.29451717E-09  6.00135572E-02  7.31725313E-01  6.00135254E-02  7.31728138E-01
  6.00133815E-02  7.31724958E-01  6.00135572E-02  7.31725313E-01  6.00135254E-02
  7.31728138E-01  6.00133815E-02  7.31724958E-01  2.56654489E-02 -2.53699030E-02
 -1.53258789E-01  6.56596021E-02 -8.41330191E-08 -6.41903463E-01 -2.66234326E-01
  3.40209392E-01 -1.16529414E-07 -3.82671294E-03  3.85078238E-03  2.39495705E-03
 -1.07640494E-02 -4.33760604E-09  1.75191336E-09  3.78810545E-02 -3.74448191E-02
 -2.14268460E-01 -1.17579860E-01  5.51875458E-08 -9.47419456E-01 -4.90458547E-01
 -3.33237175E-01  5.28855231E-08  2.70230792E-03 -2.66677343E-03  3.53486338E-03
  1.03202559E-02  5.01262957E-09  2.25648200E-09  1.22154338E-02 -1.20745510E-02
 -2.50732211E-02 -7.87961304E-02 -1.03585400E-07 -3.05514353E-01  2.04875713E-01
 -1.90697896E-01 -1.49591051E-07 -2.92308202E-03  2.93447052E-03  1.13990894E-03
 -1.16964137E-02 -9.63006904E-10 -4.00472207E-09 -2.56654489E-02  2.53699030E-02
 -1.53258789E-01  6.56596021E-02  8.41330191E-08  6.41903463E-01 -2.66234326E-01
  3.40209392E-01  1.16529414E-07  3.82671294E-03 -3.85078238E-03 -2.39495705E-03
  1.07640494E-02 -4.33760604E-09  1.75191336E-09 -3.78810545E-02  3.74448191E-02
 -2.14268460E-01 -1.17579860E-01 -5.51875458E-08  9.47419456E-01 -4.90458547E-01
 -3.33237175E-01 -5.28855231E-08 -2.70230792E-03  2.66677343E-03 -3.53486338E-03
 -1.03202559E-02  5.01262957E-09  2.25648200E-09 -1.22154338E-02  1.20745510E-02
 -2.50732211E-02 -7.87961304E-02  1.03585400E-07  3.05514353E-01  2.04875713E-01
 -1.90697896E-01  1.49591051E-07  2.92308202E-03 -2.93447052E-03 -1.13990894E-03
  1.16964137E-02 -9.63006904E-10 -4.00472207E-09  2.99743378E-02  8.14926856E-01
  4.42407090E-02  1.20279080E+00  1.42661832E-02  3.87863658E-01 -2.99743378E-02
 -8.14926856E-01 -4.42407090E-02 -1.20279080E+00 -1.42661832E-02 -3.87863658E-01
 -2.89230550E-02  2.85892967E-02  1.52804494E-01 -1.08474245E-01  9.18042375E-08
  7.23386213E-01  4.62691706E-01 -1.01640324E-01  1.27125086E-07 -9.61757481E-03
  9.59057563E-03 -2.69904676E-03  2.84356198E-03  4.11744472E-09 -3.03324694E-09
  7.76531455E-03 -7.67543506E-03 -3.04357411E-02 -4.74652113E-02 -1.08162938E-07
 -1.94217371E-01 -2.10751140E-01  1.22585404E-01 -1.53304363E-07  9.99191973E-03
 -9.98470999E-03  7.24690475E-04 -4.17647156E-03 -3.49088180E-09 -3.04292238E-09
  3.66887375E-02 -3.62661465E-02  8.34825820E-03 -2.36660512E-01  6.57084849E-08
 -9.17597722E-01 -6.82156923E-02 -5.72756768E-01  6.85517845E-08 -8.77927377E-03
  8.81353611E-03  3.42362234E-03  3.89435589E-03 -4.45723523E-10  5.83198640E-09
  2.89230550E-02 -2.85892967E-02  1.52804494E-01 -1.08474245E-01 -9.18042375E-08
 -7.23386213E-01  4.62691706E-01 -1.01640324E-01 -1.27125086E-07  9.61757481E-03
 -9.59057563E-03  2.69904676E-03 -2.84356198E-03  4.11744472E-09 -3.03324694E-09
 -7.76531455E-03  7.67543506E-03 -3.04357411E-02 -4.74652113E-02  1.08162938E-07
  1.94217371E-01 -2.10751140E-01  1.22585404E-01  1.53304363E-07 -9.99191973E-03
  9.98470999E-03 -7.24690475E-04  4.17647156E-03 -3.49088180E-09 -3.04292238E-09
 -3.66887375E-02  3.62661465E-02  8.34825820E-03 -2.36660512E-01 -6.57084849E-08
  9.17597722E-01 -6.82156923E-02 -5.72756768E-01 -6.85517845E-08  8.77927377E-03
 -8.81353611E-03 -3.42362234E-03 -3.89435589E-03 -4.45723523E-10  5.83198640E-09
 -3.37788879E-02 -9.18362852E-01  9.06881790E-03  2.46562098E-01  4.28479686E-02
  1.16493362E+00  3.37788879E-02  9.18362852E-01 -9.06881790E-03 -2.46562098E-01
 -4.28479686E-02 -1.16493362E+00  4.60680038E-08 -9.87647502E-08 -1.05022658E-07
  6.05609114E-08  2.91732624E-01 -4.09596953E-07 -7.03078782E-07  4.09149541E-07
  5.41234328E-01  5.04349407E-09  8.67994838E-09 -4.55634737E-09  3.52323736E-09
  1.46530047E-02 -8.45990993E-03 -1.53290414E-08  7.12213563E-08 -2.44834468E-09
 -6.67351363E-09 -2.91732660E-01 -4.71243877E-07  4.94828400E-07  6.26389640E-08
 -5.41234714E-01 -5.21004680E-09 -5.13161911E-09  3.50415351E-09  5.27234323E-09
 -1.46530388E-02 -8.45993667E-03  1.57785959E-08 -7.17133402E-08  4.49152015E-09
  3.15874553E-09  2.91732574E-01  4.58078007E-07  1.95962128E-07 -4.66148590E-07
  5.41234308E-01  9.04422354E-09  1.26265742E-09 -3.46951127E-09 -2.73198955E-09
 -1.07014293E-09  1.69198700E-02 -4.60680038E-08  9.87647502E-08 -1.05022658E-07
  6.05609114E-08 -2.91732624E-01  4.09596953E-07 -7.03078782E-07  4.09149541E-07
 -5.41234328E-01 -5.04349407E-09 -8.67994838E-09  4.55634737E-09 -3.52323736E-09
  1.46530047E-02 -8.45990993E-03  1.53290414E-08 -7.12213563E-08 -2.44834468E-09
 -6.67351363E-09  2.91732660E-01  4.71243877E-07  4.94828400E-07  6.26389640E-08
  5.41234714E-01  5.21004680E-09  5.13161911E-09 -3.50415351E-09 -5.27234323E-09
 -1.46530388E-02 -8.45993667E-03 -1.57785959E-08  7.17133402E-08  4.49152015E-09
  3.15874553E-09 -2.91732574E-01 -4.58078007E-07  1.95962128E-07 -4.66148590E-07
 -5.41234308E-01 -9.04422354E-09 -1.26265742E-09  3.46951127E-09  2.73198955E-09
 -1.07014293E-09  1.69198700E-02  2.28920550E-08  1.07865794E-06 -3.91597816E-08
 -1.94190128E-07  3.88801957E-08  2.08861562E-07 -2.28920550E-08 -1.07865794E-06
  3.91597816E-08  1.94190128E-07 -3.88801957E-08 -2.08861562E-07  7.50931897E-02
 -1.11991792E-01 -6.64394341E-02  8.93864708E-02 -3.97438589E-09 -1.33788590E+00
 -2.82962644E-01  4.32205460E-01 -2.03596367E-08  4.67607933E-03  2.69814089E-03
  2.67364942E-03  1.18855985E-02 -2.08500501E-09  4.77749055E-10  3.81149341E-03
 -5.68415407E-03  3.66421176E-02 -7.38452999E-02 -1.31619818E-09 -6.79080396E-02
  1.96458235E-01 -3.87093429E-01 -2.60397881E-08  9.65256737E-03 -9.27825879E-03
  1.35729301E-04 -6.88007561E-03 -2.49315186E-09 -8.24076887E-10 -7.89046454E-02
  1.17676018E-01 -3.80822458E-02  1.07420726E-01  2.69093029E-08  1.40579387E+00
 -2.00634748E-01  4.84563785E-01  9.05325915E-08 -1.27213191E-02  4.97282150E-03
 -2.80936251E-03 -5.97367728E-03  5.65822634E-11  2.88371545E-10  7.50931897E-02
 -1.11991792E-01  6.64394341E-02 -8.93864708E-02 -3.97438589E-09 -1.33788590E+00
  2.82962644E-01 -4.32205460E-01 -2.03596367E-08  4.67607933E-03  2.69814089E-03
  2.67364942E-03  1.18855985E-02  2.08500501E-09 -4.77749055E-10  3.81149341E-03
 -5.68415407E-03 -3.66421176E-02  7.38452999E-02 -1.31619818E-09 -6.79080396E-02
 -1.96458235E-01  3.87093429E-01 -2.60397881E-08  9.65256737E-03 -9.27825879E-03
  1.35729301E-04 -6.88007561E-03  2.49315186E-09  8.24076887E-10 -7.89046454E-02
  1.17676018E-01  3.80822458E-02 -1.07420726E-01  2.69093029E-08  1.40579387E+00
  2.00634748E-01 -4.84563785E-01  9.05325915E-08 -1.27213191E-02  4.97282150E-03
 -2.80936251E-03 -5.97367728E-03 -5.65822634E-11 -2.88371545E-10  1.33385716E-02
  1.06396183E+00  6.77206738E-04  5.40061697E-02 -1.40157314E-02 -1.11796797E+00
  1.33385716E-02  1.06396183E+00  6.77206738E-04  5.40061697E-02 -1.40157314E-02
 -1.11796797E+00  4.77562852E-02 -7.12222021E-02 -9.10488952E-02 -2.76695012E-02
 -2.57360211E-09 -8.50845029E-01 -4.37034184E-01 -1.70408730E-01 -1.35866702E-08
 -8.50728136E-03  1.31969164E-02  1.70034700E-03 -9.53442215E-05 -6.71122465E-10
  1.54696666E-09 -8.89105016E-02  1.32598203E-01  1.06589913E-01  5.74670476E-02
  3.09617885E-08  1.58406591E+00  4.82149583E-01  2.56913421E-01  1.14476100E-07
  1.03394326E-03 -9.76490958E-03 -3.16562759E-03  9.69235259E-03  1.42381256E-09
  5.98938306E-10  4.11544788E-02 -6.13764914E-02 -7.30142363E-02 -5.60280063E-02
 -1.40668296E-08 -7.33224533E-01 -3.84680419E-01 -2.52733946E-01 -7.16392279E-08
  6.63500347E-03 -2.59367935E-03  1.46531534E-03 -1.14529819E-02  5.93140056E-10
 -3.02545550E-09  4.77562852E-02 -7.12222021E-02  9.10488952E-02  2.76695012E-02
 -2.57360211E-09 -8.50845029E-01  4.37034184E-01  1.70408730E-01 -1.35866702E-08
 -8.50728136E-03  1.31969164E-02  1.70034700E-03 -9.53442215E-05  6.71122465E-10
 -1.54696666E-09 -8.89105016E-02  1.32598203E-01 -1.06589913E-01 -5.74670476E-02
  3.09617885E-08  1.58406591E+00 -4.82149583E-01 -2.56913421E-01  1.14476100E-07
  1.03394326E-03 -9.76490958E-03 -3.16562759E-03  9.69235259E-03 -1.42381256E-09
 -5.98938306E-10  4.11544788E-02 -6.13764914E-02  7.30142363E-02  5.60280063E-02
 -1.40668296E-08 -7.33224533E-01  3.84680419E-01  2.52733946E-01 -7.16392279E-08
  6.63500347E-03 -2.59367935E-03  1.46531534E-03 -1.14529819E-02 -5.93140056E-10
  3.02545550E-09  8.48289139E-03  6.76641574E-01 -1.57929472E-02 -1.25973756E+00
  7.30991405E-03  5.83101845E-01  8.48289139E-03  6.76641574E-01 -1.57929472E-02
 -1.25973756E+00  7.30991405E-03  5.83101845E-01 -5.49367105E-02  1.59900841E-01
  6.68734863E-02 -3.86104364E-02  1.02269039E-07 -2.15725336E-01  1.08214046E+00
 -6.24773040E-01  2.49069209E-07 -7.75223537E-03 -1.54753067E-02  7.58244172E-03
 -7.72308011E-03  9.11120740E-09 -5.28026999E-09  5.49364836E-02 -1.59900481E-01
 -6.68737163E-02 -3.86092452E-02 -1.41276909E-07  2.15727910E-01 -1.08214061E+00
 -6.24773150E-01 -3.80498224E-07  7.75234108E-03  1.54751673E-02 -7.58244510E-03
 -7.72294034E-03 -6.37344499E-09 -2.50678965E-09 -5.49365496E-02  1.59900743E-01
 -3.58648494E-07  7.72181749E-02  1.40523028E-07 -2.15728046E-01 -7.26916035E-07
  1.24954641E+00  3.79013506E-07 -1.93368236E-02 -3.89073300E-03  7.58246089E-03
 -8.70672717E-08 -1.03305306E-09  6.80876433E-09  5.49367105E-02 -1.59900841E-01
  6.68734863E-02 -3.86104364E-02 -1.02269039E-07  2.15725336E-01  1.08214046E+00
 -6.24773040E-01 -2.49069209E-07  7.75223537E-03  1.54753067E-02 -7.58244172E-03
  7.72308011E-03  9.11120740E-09 -5.28026999E-09 -5.49364836E-02  1.59900481E-01
 -6.68737163E-02 -3.86092452E-02  1.41276909E-07 -2.15727910E-01 -1.08214061E+00
 -6.24773150E-01  3.80498224E-07 -7.75234108E-03 -1.54751673E-02  7.58244510E-03
  7.72294034E-03 -6.37344499E-09 -2.50678965E-09  5.49365496E-02 -1.59900743E-01
 -3.58648494E-07  7.72181749E-02 -1.40523028E-07  2.15728046E-01 -7.26916035E-07
  1.24954641E+00 -3.79013506E-07  1.93368236E-02  3.89073300E-03 -7.58246089E-03
  8.70672717E-08 -1.03305306E-09  6.80876433E-09 -4.75131705E-02 -1.22123583E+00
  4.75136487E-02  1.22123455E+00 -4.75130689E-02 -1.22123237E+00  4.75131705E-02
  1.22123583E+00 -4.75136487E-02 -1.22123455E+00  4.75130689E-02  1.22123237E+00
 -6.53481611E-02  7.32579508E-02 -1.99858968E-01  1.24274309E-01  2.33314173E-08
  1.74190943E+00 -9.98836011E-01  1.01816056E+00  5.66872323E-08  9.89646306E-03
 -1.59867674E-02 -9.43298951E-04  8.35705147E-03 -1.20852936E-09  1.82785910E-09
  6.09215954E-02 -6.82958027E-02  1.85155280E-01  1.17874888E-01  3.32916084E-08
 -1.62391708E+00  8.73290727E-01  1.04945187E+00  8.85396396E-08 -1.31141405E-02
  1.87917649E-02  8.79415283E-04  1.03831189E-02 -1.17716332E-09 -8.68566705E-10
  4.42658325E-03 -4.96260791E-03  1.72015480E-02  1.59347128E-02  2.50680331E-09
 -1.17988369E-01  8.54547605E-01  9.30822582E-02 -5.51418727E-09  2.20016953E-04
  1.92736962E-04  6.38192091E-05  3.82647104E-02  1.84074800E-09 -9.60985382E-10
 -6.53481611E-02  7.32579508E-02  1.99858968E-01 -1.24274309E-01  2.33314173E-08
  1.74190943E+00  9.98836011E-01 -1.01816056E+00  5.66872323E-08  9.89646306E-03
 -1.59867674E-02 -9.43298951E-04  8.35705147E-03  1.20852936E-09 -1.82785910E-09
  6.09215954E-02 -6.82958027E-02 -1.85155280E-01 -1.17874888E-01  3.32916084E-08
 -1.62391708E+00 -8.73290727E-01 -1.04945187E+00  8.85396396E-08 -1.31141405E-02
  1.87917649E-02  8.79415283E-04  1.03831189E-02  1.17716332E-09  8.68566705E-10
  4.42658325E-03 -4.96260791E-03 -1.72015480E-02 -1.59347128E-02  2.50680331E-09
 -1.17988369E-01 -8.54547605E-01 -9.30822582E-02 -5.51418727E-09  2.20016953E-04
  1.92736962E-04  6.38192091E-05  3.82647104E-02 -1.84074800E-09  9.60985382E-10
  1.75062081E-02  8.62954973E-01 -1.63199745E-02 -8.04498569E-01 -1.18469452E-03
 -5.84625794E-02  1.75062081E-02  8.62954973E-01 -1.63199745E-02 -8.04498569E-01
 -1.18469452E-03 -5.84625794E-02  3.26174907E-02 -3.65648218E-02  1.09385182E-01
 -4.53493888E-02 -1.16569469E-08 -8.69445923E-01  9.76970183E-01  3.20452809E-01
 -2.86741722E-08  2.71943405E-02 -2.41541538E-02  4.70872609E-04  1.72513399E-02
  1.75458862E-09  1.20485293E-09  4.02844879E-02 -4.51598557E-02  1.32763473E-01
  6.00523218E-02  2.18336918E-08 -1.07382048E+00  1.09064733E+00 -1.94903702E-01
  7.29789548E-08  2.57970961E-02 -2.20424631E-02  5.81579818E-04 -1.61133873E-02
  1.25224934E-09 -2.07453639E-09 -7.29019661E-02  8.17267213E-02  1.04425231E-03
 -2.62410203E-01 -3.89617798E-08  1.94326196E+00  5.18883286E-02 -1.53293310E+00
 -1.13413334E-07 -3.62348088E-03 -3.17091337E-03 -1.05232598E-03  2.32347020E-03
  1.60525987E-09  1.04076699E-09  3.26174907E-02 -3.65648218E-02 -1.09385182E-01
  4.53493888E-02 -1.16569469E-08 -8.69445923E-01 -9.76970183E-01 -3.20452809E-01
 -2.86741722E-08  2.71943405E-02 -2.41541538E-02  4.70872609E-04  1.72513399E-02
 -1.75458862E-09 -1.20485293E-09  4.02844879E-02 -4.51598557E-02 -1.32763473E-01
 -6.00523218E-02  2.18336918E-08 -1.07382048E+00 -1.09064733E+00  1.94903702E-01
  7.29789548E-08  2.57970961E-02 -2.20424631E-02  5.81579818E-04 -1.61133873E-02
 -1.25224934E-09  2.07453639E-09 -7.29019661E-02  8.17267213E-02 -1.04425231E-03
  2.62410203E-01 -3.89617798E-08  1.94326196E+00 -5.18883286E-02  1.53293310E+00
 -1.13413334E-07 -3.62348088E-03 -3.17091337E-03 -1.05232598E-03  2.32347020E-03
 -1.60525987E-09 -1.04076699E-09 -8.73762149E-03 -4.30726305E-01 -1.07918665E-02
 -5.31976603E-01  1.95291958E-02  9.62706276E-01 -8.73762149E-03 -4.30726305E-01
 -1.07918665E-02 -5.31976603E-01  1.95291958E-02  9.62706276E-01 -5.06963873E-02
  4.22373055E-02 -6.99590443E-02 -2.90783419E-02  4.11915876E-08  1.91658896E+00
 -3.70624835E-01 -2.51390918E-01  9.62072467E-08  1.06951107E-02 -1.47303608E-02
  4.80804496E-04 -3.65476510E-02  8.74905719E-10 -4.51284166E-10 -3.45855505E-02
  2.88143948E-02 -1.35978032E-01  1.72695079E-01 -3.60484739E-08  1.30751571E+00
 -8.44052445E-01  1.19551507E+00 -3.83190207E-08 -4.94061152E-03  2.18765919E-03
  3.28005322E-04  3.30912428E-02  7.91996191E-10  5.48324108E-10  1.61105450E-02
 -1.34225950E-02 -2.77708296E-01  1.46326711E-02  3.04720533E-08 -6.09068751E-01
 -1.86039677E+00  6.20496397E-02  2.30894742E-08  1.13719023E-02 -1.00896747E-02
 -1.52719501E-04 -2.56710973E-02 -1.77110699E-09  1.28743104E-09  5.06963873E-02
 -4.22373055E-02 -6.99590443E-02 -2.90783419E-02 -4.11915876E-08 -1.91658896E+00
 -3.70624835E-01 -2.51390918E-01 -9.62072467E-08 -1.06951107E-02  1.47303608E-02
 -4.80804496E-04  3.65476510E-02  8.74905719E-10 -4.51284166E-10  3.45855505E-02
 -2.88143948E-02 -1.35978032E-01  1.72695079E-01  3.60484739E-08 -1.30751571E+00
 -8.44052445E-01  1.19551507E+00  3.83190207E-08  4.94061152E-03 -2.18765919E-03
 -3.28005322E-04 -3.30912428E-02  7.91996191E-10  5.48324108E-10 -1.61105450E-02
  1.34225950E-02 -2.77708296E-01  1.46326711E-02 -3.04720533E-08  6.09068751E-01
 -1.86039677E+00  6.20496397E-02 -2.30894742E-08 -1.13719023E-02  1.00896747E-02
  1.52719501E-04  2.56710973E-02 -1.77110699E-09  1.28743104E-09  1.37546720E-01
 -1.58903758E-01  9.38358635E-02 -1.08410431E-01 -4.37117644E-02  5.05040474E-02
 -1.37546720E-01  1.58903758E-01 -9.38358635E-02  1.08410431E-01  4.37117644E-02
 -5.05040474E-02  1.06665094E-02 -8.88694352E-03 -1.34577513E-01 -2.52472009E-01
 -8.35417395E-09 -4.03252555E-01 -9.22179143E-01 -1.67942998E+00 -1.98484013E-08
 -2.29514756E-02  2.38004326E-02 -1.01190613E-04 -6.11128226E-03 -6.75702902E-12
  3.21543548E-10 -3.85710281E-02  3.21352175E-02  6.71943821E-02 -1.86450746E-01
 -6.34483231E-09  1.45818960E+00  5.24733772E-01 -1.20599709E+00 -3.02066628E-08
  2.48344259E-02 -2.79044850E-02  3.65836055E-04  1.66749048E-02  6.66975788E-09
 -1.07231818E-09 -4.92375118E-02  4.10218929E-02 -9.08670858E-02 -4.47221450E-02
 -1.94632426E-08  1.86144101E+00 -6.08727477E-01 -1.89658196E-01 -4.24327445E-08
 -3.47550379E-02  3.08356923E-02  4.66990697E-04 -8.39970170E-03 -3.87558783E-09
  5.14256409E-09 -1.06665094E-02  8.88694352E-03 -1.34577513E-01 -2.52472009E-01
  8.35417395E-09  4.03252555E-01 -9.22179143E-01 -1.67942998E+00  1.98484013E-08
  2.29514756E-02 -2.38004326E-02  1.01190613E-04  6.11128226E-03 -6.75702902E-12
  3.21543548E-10  3.85710281E-02 -3.21352175E-02  6.71943821E-02 -1.86450746E-01
  6.34483231E-09 -1.45818960E+00  5.24733772E-01 -1.20599709E+00  3.02066628E-08
 -2.48344259E-02  2.79044850E-02 -3.65836055E-04 -1.66749048E-02  6.66975788E-09
 -1.07231818E-09  4.92375118E-02 -4.10218929E-02 -9.08670858E-02 -4.47221450E-02
  1.94632426E-08 -1.86144101E+00 -6.08727477E-01 -1.89658196E-01  4.24327445E-08
  3.47550379E-02 -3.08356923E-02 -4.66990697E-04  8.39970170E-03 -3.87558783E-09
  5.14256409E-09 -2.89400232E-02  3.34359896E-02  1.04649441E-01 -1.20902726E-01
  1.33588793E-01 -1.54330209E-01  2.89400232E-02 -3.34359896E-02 -1.04649441E-01
  1.20902726E-01 -1.33588793E-01  1.54330209E-01 -5.42789117E-07 -1.46488523E-07
  1.64092018E-01  2.84217697E-01  5.62062035E-11  2.65236236E-05 -2.51271757E-01
 -4.35185221E-01 -5.02413748E-11 -3.65262609E-02  3.65262252E-02 -5.55786148E-10
 -2.43510350E-02  7.96339824E-10  1.38683683E-09  4.46274875E-07  2.57985106E-08
  1.64092645E-01 -2.84216829E-01 -1.32640198E-08 -1.94083875E-05 -2.51246863E-01
  4.35203076E-01  9.59130967E-09 -3.65263585E-02  3.65262668E-02  1.66420387E-08
  2.43510523E-02  4.15444590E-10  2.44523161E-09 -5.20032687E-07  7.01237891E-07
 -3.28186554E-01  6.78260919E-07 -1.33190804E-08  2.03162315E-05  5.02512581E-01
 -1.72983040E-05  9.63837112E-09  1.74798071E-07  2.55228179E-07 -4.13602841E-08
  4.87017416E-02  1.89561964E-09  1.58622645E-09  5.42789117E-07  1.46488523E-07
  1.64092018E-01  2.84217697E-01 -5.62062035E-11 -2.65236236E-05 -2.51271757E-01
 -4.35185221E-01  5.02413748E-11  3.65262609E-02 -3.65262252E-02  5.55786148E-10
  2.43510350E-02  7.96339824E-10  1.38683683E-09 -4.46274875E-07 -2.57985106E-08
  1.64092645E-01 -2.84216829E-01  1.32640198E-08  1.94083875E-05 -2.51246863E-01
  4.35203076E-01 -9.59130967E-09  3.65263585E-02 -3.65262668E-02 -1.66420387E-08
 -2.43510523E-02  4.15444590E-10  2.44523161E-09  5.20032687E-07 -7.01237891E-07
 -3.28186554E-01  6.78260919E-07  1.33190804E-08 -2.03162315E-05  5.02512581E-01
 -1.72983040E-05 -9.63837112E-09 -1.74798071E-07 -2.55228179E-07  4.13602841E-08
 -4.87017416E-02  1.89561964E-09  1.58622645E-09 -5.08416497E-07  5.10824187E-06
  7.16601823E-07 -4.67235806E-06  8.93525154E-07  3.24455577E-06  5.08416497E-07
 -5.10824187E-06 -7.16601823E-07  4.67235806E-06 -8.93525154E-07 -3.24455577E-06
 -1.30316415E-09 -6.52256346E-08  7.15710641E-08 -4.11033622E-08  4.24888440E-01
  6.71847115E-08 -8.58219477E-08  4.90843712E-08 -3.05220178E-01  4.85274243E-10
 -1.22188541E-08  7.40255656E-10 -1.28829497E-08 -1.34806134E-02  7.78305119E-03
  2.89394822E-09 -5.36280109E-08 -1.13263287E-08  4.97566760E-09  4.24888543E-01
  2.60486973E-08  2.37158606E-08 -2.10743051E-08 -3.05220884E-01  7.48387162E-09
 -1.14479348E-08 -4.18572122E-09  9.67439131E-09 -1.34807184E-02 -7.78307420E-03
  2.82092644E-09 -5.35631767E-08  1.01643282E-08 -6.01558079E-09  4.24889117E-01
  2.69357692E-08 -3.04684865E-08  8.02086387E-09 -3.05221081E-01 -1.39216378E-08
  1.00062697E-08 -4.16880487E-09 -4.71805052E-09  5.74051479E-08 -1.55660189E-02
 -1.30316415E-09 -6.52256346E-08 -7.15710641E-08  4.11033622E-08  4.24888440E-01
  6.71847115E-08  8.58219477E-08 -4.90843712E-08 -3.05220178E-01  4.85274243E-10
 -1.22188541E-08  7.40255656E-10 -1.28829497E-08  1.34806134E-02 -7.78305119E-03
  2.89394822E-09 -5.36280109E-08  1.13263287E-08 -4.97566760E-09  4.24888543E-01
  2.60486973E-08 -2.37158606E-08  2.10743051E-08 -3.05220884E-01  7.48387162E-09
 -1.14479348E-08 -4.18572122E-09  9.67439131E-09  1.34807184E-02  7.78307420E-03
  2.82092644E-09 -5.35631767E-08 -1.01643282E-08  6.01558079E-09  4.24889117E-01
  2.69357692E-08  3.04684865E-08 -8.02086387E-09 -3.05221081E-01 -1.39216378E-08
  1.00062697E-08 -4.16880487E-09 -4.71805052E-09 -5.74051479E-08  1.55660189E-02
  2.44397895E-08 -3.58195161E-08  5.05766724E-08 -2.02544030E-08  5.02253003E-08
 -2.03541741E-08  2.44397895E-08 -3.58195161E-08  5.05766724E-08 -2.02544030E-08
  5.02253003E-08 -2.03541741E-08  1.09788361E-01 -1.05501551E-01  1.54630933E-01
 -8.92727965E-02 -1.66404258E-07 -3.76643645E+00  2.46501309E+00 -1.42317978E+00
  4.62196070E-08  1.22944093E-02  5.49538945E-03 -1.98382865E-02 -6.79928774E-03
  8.96326112E-09 -5.40795854E-09 -1.09788316E-01  1.05503438E-01 -1.54629049E-01
 -8.92763745E-02 -1.03687837E-07  3.76644364E+00 -2.46502339E+00 -1.42317410E+00
 -3.52902082E-08 -1.22942652E-02 -5.49469633E-03  1.98380627E-02 -6.79908369E-03
 -3.48748025E-10  8.36782872E-09  1.09788548E-01 -1.05501617E-01 -2.21616541E-07
  1.78550568E-01  9.69514843E-08 -3.76643957E+00 -6.35763110E-06  2.84635952E+00
  4.04659532E-08  2.09560709E-03  1.56943958E-02 -1.98383499E-02  2.69334357E-07
 -7.62293529E-09 -3.33884627E-09 -1.09788361E-01  1.05501551E-01  1.54630933E-01
 -8.92727965E-02  1.66404258E-07  3.76643645E+00  2.46501309E+00 -1.42317978E+00
 -4.62196070E-08 -1.22944093E-02 -5.49538945E-03  1.98382865E-02  6.79928774E-03
  8.96326112E-09 -5.40795854E-09  1.09788316E-01 -1.05503438E-01 -1.54629049E-01
 -8.92763745E-02  1.03687837E-07 -3.76644364E+00 -2.46502339E+00 -1.42317410E+00
  3.52902082E-08  1.22942652E-02  5.49469633E-03 -1.98380627E-02  6.79908369E-03
 -3.48748025E-10  8.36782872E-09 -1.09788548E-01  1.05501617E-01 -2.21616541E-07
  1.78550568E-01 -9.69514843E-08  3.76643957E+00 -6.35763110E-06  2.84635952E+00
 -4.04659532E-08 -2.09560709E-03 -1.56943958E-02  1.98383499E-02 -2.69334357E-07
 -7.62293529E-09 -3.33884627E-09  1.61447554E-01 -1.16378390E+00 -1.61445646E-01
  1.16378812E+00  1.61448053E-01 -1.16378858E+00 -1.61447554E-01  1.16378390E+00
  1.61445646E-01 -1.16378812E+00 -1.61448053E-01  1.16378858E+00 -2.18119537E-03
  3.19616873E-01 -2.03814503E-01  1.17681756E-01  4.40695263E-08 -2.46407730E-01
  1.74688156E-01 -1.00806170E-01 -5.17028742E-08 -8.97293508E-03  5.37178152E-02
  2.34514121E-03  6.26913545E-02 -4.47518678E-09  2.65209497E-09 -2.18113882E-03
  3.19616642E-01 -2.03818278E-01 -1.17675204E-01  8.32691733E-08 -2.46417412E-01
  1.74642709E-01  1.00897312E-01 -4.93402068E-08 -8.97350710E-03  5.37178064E-02
  2.34530874E-03 -6.26908429E-02 -1.19761443E-08  2.25351079E-09 -2.18166508E-03
  3.19617544E-01 -5.70722418E-06 -2.35352757E-01  8.28568664E-08 -2.46427162E-01
 -4.55926750E-05  2.01700690E-01 -4.93556263E-08  8.50621300E-02 -4.03175826E-02
  2.34582867E-03 -1.41734163E-07  7.99873233E-09 -9.13425306E-09 -2.18119537E-03
  3.19616873E-01  2.03814503E-01 -1.17681756E-01  4.40695263E-08 -2.46407730E-01
 -1.74688156E-01  1.00806170E-01 -5.17028742E-08 -8.97293508E-03  5.37178152E-02
  2.34514121E-03  6.26913545E-02  4.47518678E-09 -2.65209497E-09 -2.18113882E-03
  3.19616642E-01  2.03818278E-01  1.17675204E-01  8.32691733E-08 -2.46417412E-01
 -1.74642709E-01 -1.00897312E-01 -4.93402068E-08 -8.97350710E-03  5.37178064E-02
  2.34530874E-03 -6.26908429E-02  1.19761443E-08 -2.25351079E-09 -2.18166508E-03
  3.19617544E-01  5.70722418E-06  2.35352757E-01  8.28568664E-08 -2.46427162E-01
  4.55926750E-05 -2.01700690E-01 -4.93556263E-08  8.50621300E-02 -4.03175826E-02
  2.34582867E-03 -1.41734163E-07 -7.99873233E-09  9.13425306E-09 -2.03771469E-01
  1.93003493E-01 -2.03772240E-01  1.93000384E-01 -2.03774020E-01  1.92996782E-01
 -2.03771469E-01  1.93003493E-01 -2.03772240E-01  1.93000384E-01 -2.03774020E-01
  1.92996782E-01 -6.62825618E-07  1.10665141E-05 -1.52266466E-01 -2.63721923E-01
 -1.23049804E-10 -2.25570551E-05 -1.66237671E+00 -2.87933306E+00  1.66559142E-10
 -1.41976885E-02  1.41981058E-02  3.61080349E-07 -9.46492847E-03  1.48453678E-09
  2.57039169E-09 -1.82831562E-07  9.91833816E-06  1.52251789E-01 -2.63716581E-01
 -4.14150657E-08  1.21355219E-06  1.66238547E+00 -2.87934174E+00 -6.84285648E-08
  1.41981592E-02 -1.41962191E-02 -2.48637319E-07 -9.46555582E-03  3.06084404E-10
 -3.42626788E-09  1.15789751E-06  8.28346745E-06  3.04521889E-01 -1.62504651E-06
  4.15356413E-08 -6.47710526E-06  3.32475797E+00  7.62852338E-06  6.82630506E-08
  2.87111342E-06  9.95847224E-07 -1.13368416E-06  1.89303128E-02  3.09329448E-09
  1.44814673E-09 -6.62825618E-07  1.10665141E-05  1.52266466E-01  2.63721923E-01
 -1.23049804E-10 -2.25570551E-05  1.66237671E+00  2.87933306E+00  1.66559142E-10
 -1.41976885E-02  1.41981058E-02  3.61080349E-07 -9.46492847E-03 -1.48453678E-09
 -2.57039169E-09 -1.82831562E-07  9.91833816E-06 -1.52251789E-01  2.63716581E-01
 -4.14150657E-08  1.21355219E-06 -1.66238547E+00  2.87934174E+00 -6.84285648E-08
  1.41981592E-02 -1.41962191E-02 -2.48637319E-07 -9.46555582E-03 -3.06084404E-10
  3.42626788E-09  1.15789751E-06  8.28346745E-06 -3.04521889E-01  1.62504651E-06
  4.15356413E-08 -6.47710526E-06 -3.32475797E+00 -7.62852338E-06  6.82630506E-08
  2.87111342E-06  9.95847224E-07 -1.13368416E-06  1.89303128E-02 -3.09329448E-09
 -1.44814673E-09 -2.94284660E-06  4.84354062E-06  3.44306398E-07  3.92031090E-06
  4.93483338E-06 -2.18408772E-06 -2.94284660E-06  4.84354062E-06  3.44306398E-07
  3.92031090E-06  4.93483338E-06 -2.18408772E-06 -1.19726202E-02 -4.32365889E-01
  9.31314543E-03 -5.37440016E-03 -2.48070057E-08  5.35112278E-01  1.15369143E-01
 -6.66635695E-02 -4.00672959E-09 -7.67369676E-02 -4.49888174E-02  3.13423096E-02
  3.17480935E-02  1.33235557E-10  7.78336526E-11 -1.19722591E-02 -4.32366926E-01
  9.31800691E-03  5.36969242E-03  2.01943471E-08  5.35109293E-01  1.15410704E-01
  6.65883972E-02  1.13534972E-08 -7.67365448E-02 -4.49887315E-02  3.13420596E-02
 -3.17485239E-02 -1.64847948E-08 -5.95104203E-09 -1.19738632E-02 -4.32364984E-01
  5.01885352E-06  1.07502522E-02  1.83399216E-08  5.35114577E-01  4.32980696E-05
  1.33239079E-01  1.26670719E-08 -2.91162828E-02 -9.26120317E-02  3.13432190E-02
  3.75111791E-07  3.22259962E-09 -1.70521751E-08 -1.19726202E-02 -4.32365889E-01
 -9.31314543E-03  5.37440016E-03 -2.48070057E-08  5.35112278E-01 -1.15369143E-01
  6.66635695E-02 -4.00672959E-09 -7.67369676E-02 -4.49888174E-02  3.13423096E-02
  3.17480935E-02 -1.33235557E-10 -7.78336526E-11 -1.19722591E-02 -4.32366926E-01
 -9.31800691E-03 -5.36969242E-03  2.01943471E-08  5.35109293E-01 -1.15410704E-01
 -6.65883972E-02  1.13534972E-08 -7.67365448E-02 -4.49887315E-02  3.13420596E-02
 -3.17485239E-02  1.64847948E-08  5.95104203E-09 -1.19738632E-02 -4.32364984E-01
 -5.01885352E-06 -1.07502522E-02  1.83399216E-08  5.35114577E-01 -4.32980696E-05
 -1.33239079E-01  1.26670719E-08 -2.91162828E-02 -9.26120317E-02  3.13432190E-02
  3.75111791E-07 -3.22259962E-09  1.70521751E-08 -3.07659744E-01 -2.43534543E-02
 -3.07659450E-01 -2.43520219E-02 -3.07663874E-01 -2.43491127E-02 -3.07659744E-01
 -2.43534543E-02 -3.07659450E-01 -2.43520219E-02 -3.07663874E-01 -2.43491127E-02
 -6.97699994E-09  2.91368240E-09 -1.19099722E-07 -1.61352578E-07 -1.42550781E-01
  1.51849988E-07  5.73098312E-09  2.25174236E-07  1.42318031E-01 -1.74398089E-08
  1.15576515E-08  2.46115803E-09 -8.68757000E-09  2.55750047E-02  2.17389706E-02
 -6.65760157E-09 -1.98366859E-07  8.90204520E-09 -1.18414512E-07  4.38548384E-01
  4.79957530E-08  1.49472419E-07  2.12301445E-07 -4.37832171E-01 -2.10021867E-08
 -4.73440677E-08  1.21016566E-08  9.52155368E-09 -4.12692063E-02  2.08088199E-03
 -1.77892867E-08 -1.77183049E-07 -1.23142945E-07 -1.04699271E-07  5.81099070E-01
  3.57089143E-07  1.36184782E-07  3.41522279E-08 -5.80149793E-01 -4.78255530E-08
 -2.33791650E-08  1.39478570E-08 -8.18345555E-09  9.17741859E-03 -4.59789097E-02
  6.97699994E-09 -2.91368240E-09 -1.19099722E-07 -1.61352578E-07  1.42550781E-01
 -1.51849988E-07  5.73098312E-09  2.25174236E-07 -1.42318031E-01  1.74398089E-08
 -1.15576515E-08 -2.46115803E-09  8.68757000E-09  2.55750047E-02  2.17389706E-02
  6.65760157E-09  1.98366859E-07  8.90204520E-09 -1.18414512E-07 -4.38548384E-01
 -4.79957530E-08  1.49472419E-07  2.12301445E-07  4.37832171E-01  2.10021867E-08
  4.73440677E-08 -1.21016566E-08 -9.52155368E-09 -4.12692063E-02  2.08088199E-03
  1.77892867E-08  1.77183049E-07 -1.23142945E-07 -1.04699271E-07 -5.81099070E-01
 -3.57089143E-07  1.36184782E-07  3.41522279E-08  5.80149793E-01  4.78255530E-08
  2.33791650E-08 -1.39478570E-08  8.18345555E-09  9.17741859E-03 -4.59789097E-02
 -1.63563296E-08  5.93233427E-08 -8.89968396E-08 -1.26316592E-07 -1.08187238E-07
 -1.00294397E-08  1.63563296E-08 -5.93233427E-08  8.89968396E-08  1.26316592E-07
  1.08187238E-07  1.00294397E-08  3.12883089E-08 -2.13051524E-08  6.22634416E-08
 -9.29364467E-08  5.88693511E-01 -6.84892253E-07  4.51136287E-07 -2.03994524E-07
 -5.87732061E-01  1.04732153E-08  1.38315883E-08 -1.09381218E-08 -5.98376578E-09
 -3.65117791E-02  2.99196118E-02 -2.88979916E-08 -6.72010681E-10 -9.26353393E-08
 -1.20303705E-07  4.17799439E-01  7.55072545E-07 -4.09032672E-07 -1.40778939E-07
 -4.17117357E-01 -1.19663939E-08 -1.38179243E-08  8.24322463E-09 -5.42380494E-10
 -1.68536332E-02 -3.69247508E-02  2.28613655E-08 -9.22801823E-08  1.12580580E-09
  1.01570629E-07 -1.70894593E-01 -6.54521891E-07 -2.23405667E-08  4.91637090E-07
  1.70615672E-01 -1.07515748E-08  2.01587504E-09 -1.81246531E-09 -2.94349779E-09
  3.12060708E-02  1.35218490E-02 -3.12883089E-08  2.13051524E-08  6.22634416E-08
 -9.29364467E-08 -5.88693511E-01  6.84892253E-07  4.51136287E-07 -2.03994524E-07
  5.87732061E-01 -1.04732153E-08 -1.38315883E-08  1.09381218E-08  5.98376578E-09
 -3.65117791E-02  2.99196118E-02  2.88979916E-08  6.72010681E-10 -9.26353393E-08
 -1.20303705E-07 -4.17799439E-01 -7.55072545E-07 -4.09032672E-07 -1.40778939E-07
  4.17117357E-01  1.19663939E-08  1.38179243E-08 -8.24322463E-09  5.42380494E-10
 -1.68536332E-02 -3.69247508E-02 -2.28613655E-08  9.22801823E-08  1.12580580E-09
  1.01570629E-07  1.70894593E-01  6.54521891E-07 -2.23405667E-08  4.91637090E-07
 -1.70615672E-01  1.07515748E-08 -2.01587504E-09  1.81246531E-09  2.94349779E-09
  3.12060708E-02  1.35218490E-02  7.09116431E-08 -2.71543993E-07 -7.09281310E-08
  2.46717507E-07  2.21856035E-08 -2.80579188E-07 -7.09116431E-08  2.71543993E-07
  7.09281310E-08 -2.46717507E-07 -2.21856035E-08  2.80579188E-07  6.29967221E-02
 -7.79708411E-02  2.79330947E-01  9.34559875E-02  2.03111664E-08  1.55910597E-01
 -1.72190335E-01 -1.95234150E-01 -3.70375751E-08  5.63653706E-02  6.98685639E-02
 -5.39912356E-02  3.26987365E-02 -9.90999398E-09  2.09159123E-09 -6.23817512E-03
  7.72173060E-03  2.44731514E-01 -4.62540969E-01 -3.87796153E-08 -1.54440832E-02
 -2.97931390E-01  5.26232388E-01  5.56701631E-08  1.21962535E-02 -2.46962482E-02
  5.34630721E-03 -8.61230785E-03 -4.78917943E-09  7.94685052E-10 -5.67581358E-02
  7.02507515E-02 -3.02323953E-01 -1.75847887E-01  2.58475938E-08 -1.40473339E-01
  3.49683513E-01  4.63956344E-02 -1.25755261E-08 -8.20045666E-02 -3.17275885E-02
  4.86441223E-02 -1.31536586E-02 -3.26757417E-09 -1.09926903E-08  6.29967221E-02
 -7.79708411E-02 -2.79330947E-01 -9.34559875E-02  2.03111664E-08  1.55910597E-01
  1.72190335E-01  1.95234150E-01 -3.70375751E-08  5.63653706E-02  6.98685639E-02
 -5.39912356E-02  3.26987365E-02  9.90999398E-09 -2.09159123E-09 -6.23817512E-03
  7.72173060E-03 -2.44731514E-01  4.62540969E-01 -3.87796153E-08 -1.54440832E-02
  2.97931390E-01 -5.26232388E-01  5.56701631E-08  1.21962535E-02 -2.46962482E-02
  5.34630721E-03 -8.61230785E-03  4.78917943E-09 -7.94685052E-10 -5.67581358E-02
  7.02507515E-02  3.02323953E-01  1.75847887E-01  2.58475938E-08 -1.40473339E-01
 -3.49683513E-01 -4.63956344E-02 -1.25755261E-08 -8.20045666E-02 -3.17275885E-02
  4.86441223E-02 -1.31536586E-02  3.26757417E-09  1.09926903E-08  2.20978208E-01
 -5.76764643E-02 -2.18778183E-02  5.70886996E-03 -1.99086513E-01  5.19632935E-02
  2.20978208E-01 -5.76764643E-02 -2.18778183E-02  5.70886996E-03 -1.99086513E-01
  5.19632935E-02  2.91676031E-02 -3.61036872E-02 -1.59970900E-01 -4.57813869E-01
  8.91093764E-09  7.21877244E-02  2.54860236E-01  4.89114813E-01 -1.65758552E-08
  7.21552459E-03  5.12300753E-02 -2.49976987E-02  2.55347233E-03 -4.35710953E-10
  8.25023495E-09 -6.91408025E-02  8.55732580E-02 -2.09107597E-01 -6.62447525E-02
  6.82508524E-08 -1.71107417E-01  7.62298822E-02 -1.89857292E-02 -6.50844174E-08
 -5.55019707E-02 -8.30437151E-02  5.92569245E-02  3.16477480E-02 -6.46183707E-09
 -1.17099639E-08  3.99727938E-02 -4.94770498E-02 -4.29283325E-01  1.23845212E-01
 -7.34871388E-08  9.89310927E-02  4.96434497E-01 -3.26768912E-02  8.44580816E-08
  5.77529007E-02  2.23445678E-02 -3.42582915E-02 -1.86776430E-02  6.93231881E-09
  4.38222779E-09  2.91676031E-02 -3.61036872E-02  1.59970900E-01  4.57813869E-01
  8.91093764E-09  7.21877244E-02 -2.54860236E-01 -4.89114813E-01 -1.65758552E-08
  7.21552459E-03  5.12300753E-02 -2.49976987E-02  2.55347233E-03  4.35710953E-10
 -8.25023495E-09 -6.91408025E-02  8.55732580E-02  2.09107597E-01  6.62447525E-02
  6.82508524E-08 -1.71107417E-01 -7.62298822E-02  1.89857292E-02 -6.50844174E-08
 -5.55019707E-02 -8.30437151E-02  5.92569245E-02  3.16477480E-02  6.46183707E-09
  1.17099639E-08  3.99727938E-02 -4.94770498E-02  4.29283325E-01 -1.23845212E-01
 -7.34871388E-08  9.89310927E-02 -4.96434497E-01  3.26768912E-02  8.44580816E-08
  5.77529007E-02  2.23445678E-02 -3.42582915E-02 -1.86776430E-02 -6.93231881E-09
 -4.38222779E-09  1.02307901E-01 -2.67040745E-02 -2.42528251E-01  6.33018502E-02
  1.40210100E-01 -3.65973574E-02  1.02307901E-01 -2.67040745E-02 -2.42528251E-01
  6.33018502E-02  1.40210100E-01 -3.65973574E-02 -1.12674832E-02 -1.04702169E-01
 -2.20117832E-01 -3.94751102E-01  7.45154273E-10  7.59582251E-02  2.97199456E-01
  5.12836335E-01 -3.01200741E-09 -4.65954740E-02 -1.87447632E-03  1.38042998E-02
 -1.70236339E-02 -4.96575257E-09 -9.10741152E-09 -4.36504695E-02 -4.05593577E-01
  8.53828100E-02 -9.56184978E-02 -2.21953064E-07  2.94328551E-01 -7.91082365E-02
  1.44386960E-01  2.54894505E-07 -8.43774898E-02 -1.03387176E-01  5.34758911E-02
  1.86313542E-03  8.05978256E-09 -7.57062630E-09 -3.23816703E-02 -3.00893071E-01
 -3.26424729E-01  1.93893226E-02 -2.47315966E-07  2.18329708E-01  4.28133390E-01
  2.75061237E-03  2.75309816E-07 -7.42093422E-02 -6.50848540E-02  3.96711941E-02
 -2.22991319E-02 -8.74100782E-09  6.44080072E-09  1.12674832E-02  1.04702169E-01
 -2.20117832E-01 -3.94751102E-01 -7.45154273E-10 -7.59582251E-02  2.97199456E-01
  5.12836335E-01  3.01200741E-09  4.65954740E-02  1.87447632E-03 -1.38042998E-02
  1.70236339E-02 -4.96575257E-09 -9.10741152E-09  4.36504695E-02  4.05593577E-01
  8.53828100E-02 -9.56184978E-02  2.21953064E-07 -2.94328551E-01 -7.91082365E-02
  1.44386960E-01 -2.54894505E-07  8.43774898E-02  1.03387176E-01 -5.34758911E-02
 -1.86313542E-03  8.05978256E-09 -7.57062630E-09  3.23816703E-02  3.00893071E-01
 -3.26424729E-01  1.93893226E-02  2.47315966E-07 -2.18329708E-01  4.28133390E-01
  2.75061237E-03 -2.75309816E-07  7.42093422E-02  6.50848540E-02 -3.96711941E-02
  2.22991319E-02 -8.74100782E-09  6.44080072E-09 -7.64820190E-02 -8.49881767E-03
 -2.96278444E-01 -3.29016432E-02 -2.19794108E-01 -2.44164767E-02  7.64820190E-02
  8.49881767E-03  2.96278444E-01  3.29016432E-02  2.19794108E-01  2.44164767E-02
  4.38971121E-02  4.07890568E-01 -8.07637720E-02 -8.73214014E-02 -1.14218097E-08
 -2.95980603E-01  7.28514591E-02  1.33622123E-01  2.10112549E-08  8.53778350E-02
  1.03449825E-01 -5.37784758E-02  2.22252609E-03 -2.04926922E-09 -1.82725596E-09
  1.21903402E-02  1.13270664E-01  2.18369191E-01 -3.92824412E-01 -1.08000784E-07
 -8.22005241E-02 -2.95584685E-01  5.09914614E-01  1.06377822E-07  4.83837548E-02
  4.05333734E-03 -1.49342446E-02 -1.70668366E-02  5.86333359E-09  4.90669409E-09
 -3.17071196E-02 -2.94620004E-01  3.33375050E-01  1.89843841E-02 -1.00552241E-08
  2.13798083E-01 -4.37242378E-01  2.67794179E-03  2.69871139E-08 -7.26625550E-02
 -6.37279999E-02  3.88442567E-02  2.27739434E-02 -6.22891952E-09 -5.09189505E-09
 -4.38971121E-02 -4.07890568E-01 -8.07637720E-02 -8.73214014E-02  1.14218097E-08
  2.95980603E-01  7.28514591E-02  1.33622123E-01 -2.10112549E-08 -8.53778350E-02
 -1.03449825E-01  5.37784758E-02 -2.22252609E-03 -2.04926922E-09 -1.82725596E-09
 -1.21903402E-02 -1.13270664E-01  2.18369191E-01 -3.92824412E-01  1.08000784E-07
  8.22005241E-02 -2.95584685E-01  5.09914614E-01 -1.06377822E-07 -4.83837548E-02
 -4.05333734E-03  1.49342446E-02  1.70668366E-02  5.86333359E-09  4.90669409E-09
  3.17071196E-02  2.94620004E-01  3.33375050E-01  1.89843841E-02  1.00552241E-08
 -2.13798083E-01 -4.37242378E-01  2.67794179E-03 -2.69871139E-08  7.26625550E-02
  6.37279999E-02 -3.88442567E-02 -2.27739434E-02 -6.22891952E-09 -5.09189505E-09
  2.97953776E-01  3.30960163E-02  8.27419128E-02  9.18801955E-03 -2.15212669E-01
 -2.39012462E-02 -2.97953776E-01 -3.30960163E-02 -8.27419128E-02 -9.18801955E-03
  2.15212669E-01  2.39012462E-02  6.03176043E-10 -4.05314037E-09  2.56020428E-08
  1.31628328E-08 -5.89215009E-01  5.67242304E-08 -1.44290642E-07 -3.39000781E-08
  9.71652122E-01  5.11146641E-09  5.62966478E-09 -5.74928952E-09 -8.86085085E-09
  1.62937962E-02  1.41591702E-03  4.83041052E-09 -1.00225973E-08 -2.57373324E-08
 -6.46375604E-08  4.87705204E-01 -7.14339991E-08  1.47913167E-07  9.27839629E-08
 -8.04256529E-01  9.28824278E-09 -4.73202136E-09 -5.88768888E-09  7.19150689E-09
 -1.79896654E-02  8.97113037E-03 -4.48535642E-09  4.59497714E-09  1.85969666E-08
  8.94672159E-09  1.01509376E-01 -3.04117871E-08  4.97525695E-08 -6.78927079E-08
 -1.67395503E-01 -1.11237895E-08  6.77802722E-09  1.39835147E-09 -6.03172967E-09
  2.61370530E-02 -2.30916219E-03  6.03176043E-10 -4.05314037E-09 -2.56020428E-08
 -1.31628328E-08 -5.89215009E-01  5.67242304E-08  1.44290642E-07  3.39000781E-08
  9.71652122E-01  5.11146641E-09  5.62966478E-09 -5.74928952E-09 -8.86085085E-09
 -1.62937962E-02 -1.41591702E-03  4.83041052E-09 -1.00225973E-08  2.57373324E-08
  6.46375604E-08  4.87705204E-01 -7.14339991E-08 -1.47913167E-07 -9.27839629E-08
 -8.04256529E-01  9.28824278E-09 -4.73202136E-09 -5.88768888E-09  7.19150689E-09
  1.79896654E-02 -8.97113037E-03 -4.48535642E-09  4.59497714E-09 -1.85969666E-08
 -8.94672159E-09  1.01509376E-01 -3.04117871E-08 -4.97525695E-08  6.78927079E-08
 -1.67395503E-01 -1.11237895E-08  6.77802722E-09  1.39835147E-09 -6.03172967E-09
 -2.61370530E-02  2.30916219E-03  3.17098186E-08  4.31219636E-08  3.00615366E-08
 -5.66094268E-08  7.32837801E-10  2.95379792E-08  3.17098186E-08  4.31219636E-08
  3.00615366E-08 -5.66094268E-08  7.32837801E-10  2.95379792E-08 -2.85965632E-10
  2.15879112E-09  2.63707520E-08  5.65091527E-08  2.22970264E-01 -2.15926314E-08
 -1.00681997E-07 -2.50402862E-07 -3.67691645E-01 -1.22525910E-08  8.33500630E-09
  2.13019744E-09 -3.75372464E-09  7.99203252E-03  2.39865759E-02  1.21113496E-08
 -1.75619595E-08 -2.64796527E-08 -1.02782533E-07  3.98790092E-01 -3.45449302E-08
  2.90990518E-07  8.61838790E-08 -6.57629450E-01  4.75269879E-10  1.13370330E-08
 -8.76999146E-09 -7.99987282E-10  2.39494189E-03 -2.22907330E-02 -1.20751944E-08
  2.04807895E-08  8.61043751E-08  9.05518524E-08 -6.21759907E-01  7.08841850E-08
  4.81828471E-08 -3.33055211E-07  1.02532092E+00 -2.53396716E-09 -8.85056717E-09
  1.01772106E-08 -1.61282261E-09  4.26720710E-03  1.41433036E-02 -2.85965632E-10
  2.15879112E-09 -2.63707520E-08 -5.65091527E-08  2.22970264E-01 -2.15926314E-08
  1.00681997E-07  2.50402862E-07 -3.67691645E-01 -1.22525910E-08  8.33500630E-09
  2.13019744E-09 -3.75372464E-09 -7.99203252E-03 -2.39865759E-02  1.21113496E-08
 -1.75619595E-08  2.64796527E-08  1.02782533E-07  3.98790092E-01 -3.45449302E-08
 -2.90990518E-07 -8.61838790E-08 -6.57629450E-01  4.75269879E-10  1.13370330E-08
 -8.76999146E-09 -7.99987282E-10 -2.39494189E-03  2.22907330E-02 -1.20751944E-08
  2.04807895E-08 -8.61043751E-08 -9.05518524E-08 -6.21759907E-01  7.08841850E-08
 -4.81828471E-08  3.33055211E-07  1.02532092E+00 -2.53396716E-09 -8.85056717E-09
  1.01772106E-08 -1.61282261E-09 -4.26720710E-03 -1.41433036E-02 -1.16124995E-08
 -1.51965449E-08  3.30941793E-08 -1.06804280E-07 -4.31528638E-08  1.16322696E-07
 -1.16124995E-08 -1.51965449E-08  3.30941793E-08 -1.06804280E-07 -4.31528638E-08
  1.16322696E-07  1.83291086E-09  2.38104229E-08  5.84536197E-08 -3.29072517E-08
 -4.47415402E-01  7.84001804E-07 -6.08633355E-07  3.47912102E-07  1.17539289E+00
  2.80773696E-08  2.05591082E-08 -1.68319605E-08 -7.52516340E-09 -5.85685131E-04
  3.38197287E-04  8.68805701E-10  5.49514984E-08 -1.17885022E-07 -8.19029493E-08
  4.47415043E-01 -7.65235707E-07  6.72374811E-07  5.07913455E-07 -1.17539285E+00
 -9.40601496E-09 -8.20714858E-09  6.63899737E-09  4.21516127E-09  5.85734482E-04
  3.38171750E-04 -7.22338530E-10 -5.37441518E-08  1.27157641E-08  1.41856458E-07
 -4.47415054E-01  7.67799653E-07 -1.06693865E-07 -8.34016937E-07  1.17539252E+00
  1.19331055E-08  6.38692019E-09 -6.92989444E-09 -2.71038399E-09  5.62848824E-08
 -6.76280253E-04 -1.83291086E-09 -2.38104229E-08  5.84536197E-08 -3.29072517E-08
  4.47415402E-01 -7.84001804E-07 -6.08633355E-07  3.47912102E-07 -1.17539289E+00
 -2.80773696E-08 -2.05591082E-08  1.68319605E-08  7.52516340E-09 -5.85685131E-04
  3.38197287E-04 -8.68805701E-10 -5.49514984E-08 -1.17885022E-07 -8.19029493E-08
 -4.47415043E-01  7.65235707E-07  6.72374811E-07  5.07913455E-07  1.17539285E+00
  9.40601496E-09  8.20714858E-09 -6.63899737E-09 -4.21516127E-09  5.85734482E-04
  3.38171750E-04  7.22338530E-10  5.37441518E-08  1.27157641E-08  1.41856458E-07
  4.47415054E-01 -7.67799653E-07 -1.06693865E-07 -8.34016937E-07 -1.17539252E+00
 -1.19331055E-08 -6.38692019E-09  6.92989444E-09  2.71038399E-09  5.62848824E-08
 -6.76280253E-04  3.78260153E-08  2.34939780E-07 -3.64757157E-08 -2.29819194E-07
  3.67823319E-08  2.29546075E-07 -3.78260153E-08 -2.34939780E-07  3.64757157E-08
  2.29819194E-07 -3.67823319E-08 -2.29546075E-07 -3.06522465E-02  7.07463638E-02
  4.88265744E-01 -2.92836036E-01 -2.05470778E-08  7.51805569E-01 -2.03087873E+00
  1.08254305E+00  4.81388559E-08  6.06633106E-03  5.65456151E-03  2.52991810E-02
  6.04312421E-02 -6.74847320E-10  2.69890178E-09  2.82321336E-03 -6.51886235E-03
 -5.64846200E-02 -7.03135558E-03  7.75159637E-10 -6.92381386E-02  9.23393337E-02
  2.63756460E-01 -2.47852220E-08  5.49025820E-02 -5.59823585E-02 -2.33017432E-03
 -3.14078994E-02 -1.48786886E-09 -5.21829257E-09  2.78291956E-02 -6.42341324E-02
  1.26790289E-02 -5.16839717E-01 -1.00861225E-07 -6.82552219E-01  1.04322199E-01
  2.08822748E+00  2.45551770E-07 -4.63769020E-02  3.57352799E-02 -2.29691366E-02
 -4.07250426E-02 -1.53419305E-09  5.92793079E-09 -3.06522465E-02  7.07463638E-02
 -4.88265744E-01  2.92836036E-01 -2.05470778E-08  7.51805569E-01  2.03087873E+00
 -1.08254305E+00  4.81388559E-08  6.06633106E-03  5.65456151E-03  2.52991810E-02
  6.04312421E-02  6.74847320E-10 -2.69890178E-09  2.82321336E-03 -6.51886235E-03
  5.64846200E-02  7.03135558E-03  7.75159637E-10 -6.92381386E-02 -9.23393337E-02
 -2.63756460E-01 -2.47852220E-08  5.49025820E-02 -5.59823585E-02 -2.33017432E-03
 -3.14078994E-02  1.48786886E-09  5.21829257E-09  2.78291956E-02 -6.42341324E-02
 -1.26790289E-02  5.16839717E-01 -1.00861225E-07 -6.82552219E-01 -1.04322199E-01
 -2.08822748E+00  2.45551770E-07 -4.63769020E-02  3.57352799E-02 -2.29691366E-02
 -4.07250426E-02  1.53419305E-09 -5.92793079E-09 -3.42212033E-01  1.56785074E+00
  3.15195873E-02 -1.44408164E-01  3.10695147E-01 -1.42345579E+00 -3.42212033E-01
  1.56785074E+00  3.15195873E-02 -1.44408164E-01  3.10695147E-01 -1.42345579E+00
 -1.44372739E-02  3.33225228E-02  2.42258094E-01 -1.16645748E-01 -9.39072389E-09
  3.54094598E-01 -8.55464158E-01  6.84946554E-01  2.12390971E-08 -5.63314216E-02
  6.18515447E-02  1.19160248E-02 -1.09958444E-02 -3.16369099E-09 -3.19139863E-09
  3.37642716E-02 -7.79317400E-02 -5.42128324E-01 -3.15136295E-01 -1.34274883E-07
 -8.28121443E-01  2.20176585E+00  1.25359098E+00  3.45524447E-07  1.39887915E-02
 -2.68996305E-02 -2.78679145E-02  5.27861021E-02  8.93286376E-09  6.46939821E-09
 -1.93270040E-02  4.46089438E-02  1.82590639E-02  3.58938996E-01  8.49259309E-08
  4.74029586E-01  1.50211861E-01 -1.45025081E+00 -2.37237892E-07  3.22082116E-02
 -2.48177706E-02  1.59517550E-02 -5.86402850E-02 -3.71702954E-09 -1.02158126E-08
 -1.44372739E-02  3.33225228E-02 -2.42258094E-01  1.16645748E-01 -9.39072389E-09
  3.54094598E-01  8.55464158E-01 -6.84946554E-01  2.12390971E-08 -5.63314216E-02
  6.18515447E-02  1.19160248E-02 -1.09958444E-02  3.16369099E-09  3.19139863E-09
  3.37642716E-02 -7.79317400E-02  5.42128324E-01  3.15136295E-01 -1.34274883E-07
 -8.28121443E-01 -2.20176585E+00 -1.25359098E+00  3.45524447E-07  1.39887915E-02
 -2.68996305E-02 -2.78679145E-02  5.27861021E-02 -8.93286376E-09 -6.46939821E-09
 -1.93270040E-02  4.46089438E-02 -1.82590639E-02 -3.58938996E-01  8.49259309E-08
  4.74029586E-01 -1.50211861E-01  1.45025081E+00 -2.37237892E-07  3.22082116E-02
 -2.48177706E-02  1.59517550E-02 -5.86402850E-02  3.71702954E-09  1.02158126E-08
 -1.61182453E-01  7.38457627E-01  3.76956197E-01 -1.72703254E+00 -2.15773843E-01
  9.88572270E-01 -1.61182453E-01  7.38457627E-01  3.76956197E-01 -1.72703254E+00
 -2.15773843E-01  9.88572270E-01  6.05761119E-03  2.17691257E-02 -4.61790189E-01
  2.66614740E-01 -1.23993424E-08 -2.65252759E+00  2.81922002E+00 -1.62767366E+00
  1.60273047E-07 -4.40896031E-02 -4.79755159E-02  2.11536847E-02 -3.88606490E-03
  5.36690113E-09 -3.02831047E-09 -6.05783881E-03 -2.17675114E-02  4.61795305E-01
  2.66615642E-01  1.61459385E-07  2.65252254E+00 -2.81923317E+00 -1.62767853E+00
 -5.60295305E-07  4.40891017E-02  4.79757799E-02 -2.11532166E-02 -3.88693131E-03
  1.54586590E-09 -1.65246686E-09  6.05779163E-03  2.17685804E-02  4.17814855E-07
 -5.33233465E-01 -1.58506890E-07 -2.65252538E+00 -1.33387522E-06  3.25536562E+00
  5.55211770E-07 -4.99189730E-02 -4.21460643E-02  2.11534736E-02  5.51134224E-07
  2.26468049E-09 -4.26256950E-10 -6.05761119E-03 -2.17691257E-02 -4.61790189E-01
  2.66614740E-01  1.23993424E-08  2.65252759E+00  2.81922002E+00 -1.62767366E+00
 -1.60273047E-07  4.40896031E-02  4.79755159E-02 -2.11536847E-02  3.88606490E-03
  5.36690113E-09 -3.02831047E-09  6.05783881E-03  2.17675114E-02  4.61795305E-01
  2.66615642E-01 -1.61459385E-07 -2.65252254E+00 -2.81923317E+00 -1.62767853E+00
  5.60295305E-07 -4.40891017E-02 -4.79757799E-02  2.11532166E-02  3.88693131E-03
  1.54586590E-09 -1.65246686E-09 -6.05779163E-03 -2.17685804E-02  4.17814855E-07
 -5.33233465E-01  1.58506890E-07  2.65252538E+00 -1.33387522E-06  3.25536562E+00
 -5.55211770E-07  4.99189730E-02  4.21460643E-02 -2.11534736E-02 -5.51134224E-07
  2.26468049E-09 -4.26256950E-10  1.06165353E-01 -1.47015330E+00 -1.06168834E-01
  1.47016791E+00  1.06167065E-01 -1.47016486E+00 -1.06165353E-01  1.47015330E+00
  1.06168834E-01 -1.47016791E+00 -1.06167065E-01  1.47016486E+00 -1.75771482E-02
  1.97911177E-01  3.26144218E-01 -9.38017407E-02 -1.25879015E-08 -1.21371234E-01
 -9.64905291E-01 -1.73157650E-01  6.09180268E-08 -2.48033749E-02  9.12187165E-03
  3.67371445E-02  8.81154528E-02  5.73583189E-09  5.78609544E-09 -2.67210300E-02
  3.00868731E-01  4.43221446E-01  2.33674692E-01  9.41673920E-08 -1.84525888E-01
 -1.06049242E+00 -4.40571855E-01 -1.92878746E-07 -6.38213434E-02  3.99817574E-02
  5.58485158E-02 -1.16544970E-01 -1.78091338E-08 -8.64808485E-09 -9.14399303E-03
  1.02957632E-01  1.01079206E-01  1.71335705E-01  4.77368323E-08 -6.31345022E-02
 -7.81109193E-01 -3.89678315E-01 -6.23467957E-08  3.47128830E-02 -4.28705153E-02
  1.91113938E-02  3.34661864E-02  2.49142894E-09 -9.21869403E-09  1.75771482E-02
 -1.97911177E-01  3.26144218E-01 -9.38017407E-02  1.25879015E-08  1.21371234E-01
 -9.64905291E-01 -1.73157650E-01 -6.09180268E-08  2.48033749E-02 -9.12187165E-03
 -3.67371445E-02 -8.81154528E-02  5.73583189E-09  5.78609544E-09  2.67210300E-02
 -3.00868731E-01  4.43221446E-01  2.33674692E-01 -9.41673920E-08  1.84525888E-01
 -1.06049242E+00 -4.40571855E-01  1.92878746E-07  6.38213434E-02 -3.99817574E-02
 -5.58485158E-02  1.16544970E-01 -1.78091338E-08 -8.64808485E-09  9.14399303E-03
 -1.02957632E-01  1.01079206E-01  1.71335705E-01 -4.77368323E-08  6.31345022E-02
 -7.81109193E-01 -3.89678315E-01  6.23467957E-08 -3.47128830E-02  4.28705153E-02
 -1.91113938E-02 -3.34661864E-02  2.49142894E-09 -9.21869403E-09 -2.71250598E-01
  8.69294956E-01 -4.12357496E-01  1.32150409E+00 -1.41110985E-01  4.52228171E-01
  2.71250598E-01 -8.69294956E-01  4.12357496E-01 -1.32150409E+00  1.41110985E-01
 -4.52228171E-01  2.07068520E-02 -2.33148210E-01 -3.01275705E-01  2.54155719E-01
  1.51595043E-08  1.42986868E-01  4.95787483E-01 -9.06112896E-01 -7.14125550E-08
  7.04096374E-02 -5.19355418E-02 -4.32783915E-02 -7.63441650E-02  1.10292958E-09
  7.01166977E-09 -4.86888276E-03  5.48223844E-02  2.62051461E-02  1.37073334E-01
  3.32704381E-08 -3.36189991E-02  2.28352036E-01 -8.10502078E-01 -3.29931019E-08
 -3.87235099E-02  3.43798747E-02  1.01762772E-02 -3.17283876E-03 -6.40253451E-09
 -1.18498399E-09 -2.55755696E-02  2.87968660E-01 -3.61382648E-02  4.79217105E-01
  8.57995860E-08 -1.76615645E-01  2.79265930E-01 -1.08989165E+00 -1.81345396E-07
  9.70907906E-02 -1.19908871E-01  5.34544322E-02 -1.19651570E-02  1.05376079E-09
 -1.81586281E-08 -2.07068520E-02  2.33148210E-01 -3.01275705E-01  2.54155719E-01
 -1.51595043E-08 -1.42986868E-01  4.95787483E-01 -9.06112896E-01  7.14125550E-08
 -7.04096374E-02  5.19355418E-02  4.32783915E-02  7.63441650E-02  1.10292958E-09
  7.01166977E-09  4.86888276E-03 -5.48223844E-02  2.62051461E-02  1.37073334E-01
 -3.32704381E-08  3.36189991E-02  2.28352036E-01 -8.10502078E-01  3.29931019E-08
  3.87235099E-02 -3.43798747E-02 -1.01762772E-02  3.17283876E-03 -6.40253451E-09
 -1.18498399E-09  2.55755696E-02 -2.87968660E-01 -3.61382648E-02  4.79217105E-01
 -8.57995860E-08  1.76615645E-01  2.79265930E-01 -1.08989165E+00  1.81345396E-07
 -9.70907906E-02  1.19908871E-01 -5.34544322E-02  1.19651570E-02  1.05376079E-09
 -1.81586281E-08  3.19545054E-01 -1.02407158E+00 -7.51370195E-02  2.40797623E-01
 -3.94679672E-01  1.26485580E+00 -3.19545054E-01  1.02407158E+00  7.51370195E-02
 -2.40797623E-01  3.94679672E-01 -1.26485580E+00 -1.08770619E-02 -6.41121297E-01
  1.24445359E-01  3.09148536E-01 -1.46519378E-08  2.63154362E+00 -9.05859318E-01
 -1.73265990E+00  4.91682260E-08 -3.48708889E-02 -6.09379559E-02  6.18328648E-03
  7.67995647E-02  4.91146818E-10 -2.62264412E-10 -1.42842890E-02 -8.41960214E-01
  1.64261008E-02 -1.51377043E-01 -1.47958165E-08  3.45591910E+00 -3.19318499E-01
  7.68000034E-01  3.23458424E-08 -8.01664631E-02 -4.56549270E-02  8.11989555E-03
 -7.79429739E-02 -6.90585617E-09 -9.89952933E-09 -3.40740083E-03 -2.00839305E-01
  4.69262312E-01 -1.46605610E-02 -1.08386888E-08  8.24365671E-01 -2.77822218E+00
  2.56332364E-02 -2.43649634E-08  9.95600334E-04 -3.10089976E-02  1.93704771E-03
  7.31493617E-02 -5.30151833E-10 -1.73699123E-09  1.08770619E-02  6.41121297E-01
  1.24445359E-01  3.09148536E-01  1.46519378E-08 -2.63154362E+00 -9.05859318E-01
 -1.73265990E+00 -4.91682260E-08  3.48708889E-02  6.09379559E-02 -6.18328648E-03
 -7.67995647E-02  4.91146818E-10 -2.62264412E-10  1.42842890E-02  8.41960214E-01
  1.64261008E-02 -1.51377043E-01  1.47958165E-08 -3.45591910E+00 -3.19318499E-01
  7.68000034E-01 -3.23458424E-08  8.01664631E-02  4.56549270E-02 -8.11989555E-03
  7.79429739E-02 -6.90585617E-09 -9.89952933E-09  3.40740083E-03  2.00839305E-01
  4.69262312E-01 -1.46605610E-02  1.08386888E-08 -8.24365671E-01 -2.77822218E+00
  2.56332364E-02  2.43649634E-08 -9.95600334E-04  3.10089976E-02 -1.93704771E-03
 -7.31493617E-02 -5.30151833E-10 -1.73699123E-09 -5.06207333E-02 -2.94670383E-01
 -6.64756387E-02 -3.86981277E-01 -1.58588176E-02 -9.23081059E-02  5.06207333E-02
  2.94670383E-01  6.64756387E-02  3.86981277E-01  1.58588176E-02  9.23081059E-02
  1.02143182E-02  6.02061020E-01  2.13741142E-01  2.82311826E-01  1.37121869E-08
 -2.47122677E+00 -1.10664111E+00 -1.76307612E+00 -4.70235839E-08  1.10048929E-01
 -2.00776160E-02 -5.80635085E-03 -2.05854055E-02 -5.24345176E-10  3.14903105E-10
 -4.31255106E-03 -2.54196808E-01 -2.46783214E-01  3.90329845E-01 -1.18860553E-08
  1.04337524E+00  1.39401484E+00 -2.34961916E+00 -2.12233898E-08 -8.30665158E-02
  4.50796354E-02  2.45152724E-03  1.57104726E-02 -1.64110178E-09 -1.95395447E-09
 -1.45269258E-02 -8.56258757E-01 -1.10068323E-01 -6.25059237E-02 -1.49596213E-08
  3.51460227E+00  6.51650723E-01  1.09286035E-01  2.87526469E-08  4.24502618E-03
 -1.32203591E-01  8.25793166E-03 -1.71574650E-02 -5.16285676E-09 -1.09003077E-08
 -1.02143182E-02 -6.02061020E-01  2.13741142E-01  2.82311826E-01 -1.37121869E-08
  2.47122677E+00 -1.10664111E+00 -1.76307612E+00  4.70235839E-08 -1.10048929E-01
  2.00776160E-02  5.80635085E-03  2.05854055E-02 -5.24345176E-10  3.14903105E-10
  4.31255106E-03  2.54196808E-01 -2.46783214E-01  3.90329845E-01  1.18860553E-08
 -1.04337524E+00  1.39401484E+00 -2.34961916E+00  2.12233898E-08  8.30665158E-02
 -4.50796354E-02 -2.45152724E-03 -1.57104726E-02 -1.64110178E-09 -1.95395447E-09
  1.45269258E-02  8.56258757E-01 -1.10068323E-01 -6.25059237E-02  1.49596213E-08
 -3.51460227E+00  6.51650723E-01  1.09286035E-01 -2.87526469E-08 -4.24502618E-03
  1.32203591E-01 -8.25793166E-03  1.71574650E-02 -5.16285676E-09 -1.09003077E-08
  4.75352665E-02  2.76717840E-01 -2.00693083E-02 -1.16833015E-01 -6.76044195E-02
 -3.93552696E-01 -4.75352665E-02 -2.76717840E-01  2.00693083E-02  1.16833015E-01
  6.76044195E-02  3.93552696E-01 -1.97794533E-03 -3.65392684E-01 -3.46433463E-01
  2.00016375E-01  1.52520097E-08  8.84988733E-01  4.96584257E-01 -2.86725179E-01
 -6.79037089E-08  1.43393472E-02 -3.98754209E-02 -3.29025115E-02 -5.42137308E-02
 -1.31544569E-08  7.50546387E-09 -1.97805135E-03 -3.65391229E-01 -3.46433213E-01
 -2.00010108E-01 -4.30715265E-08  8.84984447E-01  4.96592874E-01  2.86689023E-01
  8.97182897E-08  1.43385258E-02 -3.98745914E-02 -3.29022198E-02  5.42141347E-02
  6.41446190E-09 -2.23694465E-09 -1.97776584E-03 -3.65387292E-01 -2.86663255E-06
 -4.00023638E-01 -4.21442803E-08  8.84970345E-01  1.94061811E-05  5.73404469E-01
  8.71919250E-08 -6.69815544E-02  4.14473403E-02 -3.29023337E-02 -2.85308530E-07
 -5.22168491E-09  4.19622278E-09 -1.97794533E-03 -3.65392684E-01  3.46433463E-01
 -2.00016375E-01  1.52520097E-08  8.84988733E-01 -4.96584257E-01  2.86725179E-01
 -6.79037089E-08  1.43393472E-02 -3.98754209E-02 -3.29025115E-02 -5.42137308E-02
  1.31544569E-08 -7.50546387E-09 -1.97805135E-03 -3.65391229E-01  3.46433213E-01
  2.00010108E-01 -4.30715265E-08  8.84984447E-01 -4.96592874E-01 -2.86689023E-01
  8.97182897E-08  1.43385258E-02 -3.98745914E-02 -3.29022198E-02  5.42141347E-02
 -6.41446190E-09  2.23694465E-09 -1.97776584E-03 -3.65387292E-01  2.86663255E-06
  4.00023638E-01 -4.21442803E-08  8.84970345E-01 -1.94061811E-05 -5.73404469E-01
  8.71919250E-08 -6.69815544E-02  4.14473403E-02 -3.29023337E-02 -2.85308530E-07
  5.22168491E-09 -4.19622278E-09  2.65400833E-01 -8.50508806E-01  2.65398795E-01
 -8.50499207E-01  2.65398933E-01 -8.50495890E-01  2.65400833E-01 -8.50508806E-01
  2.65398795E-01 -8.50499207E-01  2.65398933E-01 -8.50495890E-01 -8.94178458E-08
 -6.16755161E-07  2.60768242E-01  4.51662410E-01  2.26053336E-11 -4.67518984E-06
 -2.16215366E+00 -3.74496942E+00 -4.74494859E-11  5.70642939E-02 -5.70648367E-02
  2.85939434E-07  3.80436270E-02 -3.85743432E-10 -6.63091418E-10  8.83104279E-08
  3.59578327E-06 -2.60765206E-01  4.51663227E-01  2.39979624E-08 -4.19856331E-06
  2.16215187E+00 -3.74496724E+00 -1.63334457E-07 -5.70650066E-02  5.70654918E-02
  1.23277493E-07  3.80431642E-02 -6.60776619E-10 -3.91161516E-10 -8.10576020E-10
  2.15053531E-06 -5.21534923E-01  2.09125587E-06 -2.40204174E-08 -3.47512536E-06
  4.32431258E+00 -1.36948134E-06  1.63381121E-07  6.53703238E-07 -4.79915635E-07
  2.37904289E-07 -7.60866958E-02  1.82595526E-12  7.70644276E-10 -8.94178458E-08
 -6.16755161E-07 -2.60768242E-01 -4.51662410E-01  2.26053336E-11 -4.67518984E-06
  2.16215366E+00  3.74496942E+00 -4.74494859E-11  5.70642939E-02 -5.70648367E-02
  2.85939434E-07  3.80436270E-02  3.85743432E-10  6.63091418E-10  8.83104279E-08
  3.59578327E-06  2.60765206E-01 -4.51663227E-01  2.39979624E-08 -4.19856331E-06
 -2.16215187E+00  3.74496724E+00 -1.63334457E-07 -5.70650066E-02  5.70654918E-02
  1.23277493E-07  3.80431642E-02  6.60776619E-10  3.91161516E-10 -8.10576020E-10
  2.15053531E-06  5.21534923E-01 -2.09125587E-06 -2.40204174E-08 -3.47512536E-06
 -4.32431258E+00  1.36948134E-06  1.63381121E-07  6.53703238E-07 -4.79915635E-07
  2.37904289E-07 -7.60866958E-02 -1.82595526E-12 -7.70644276E-10 -2.20773016E-06
  1.47372913E-06 -8.04774493E-07  5.44418290E-06 -1.29212716E-06  5.11959845E-06
 -2.20773016E-06  1.47372913E-06 -8.04774493E-07  5.44418290E-06 -1.29212716E-06
  5.11959845E-06 -3.55789181E-02 -1.01553930E+00 -1.14279969E-02  8.66063534E-02
 -5.81296982E-09  3.83006190E+00 -1.97459629E-01 -4.60090581E-01  6.89600007E-08
 -7.62555175E-02 -5.41517695E-02  4.98855627E-03  8.02694602E-02  4.12790917E-08
 -1.20883917E-08  2.28051867E-03  6.50929805E-02  7.98859275E-02 -1.31543797E-01
 -4.67263724E-09 -2.45491778E-01 -5.55314620E-01  9.54260626E-01  4.09185764E-08
  5.47218144E-02 -4.63629951E-02 -3.19569774E-04 -2.80777714E-02  4.06068820E-08
  4.93404521E-09  3.32985010E-02  9.50448184E-01 -8.45709044E-02  4.97919380E-02
  2.51361452E-08 -3.58457612E+00  6.06838231E-01 -5.52559882E-02 -7.68670767E-08
 -4.90690964E-04  1.22539243E-01 -4.66841307E-03 -3.54976492E-02 -3.54780199E-09
  5.99919390E-08 -3.55789181E-02 -1.01553930E+00  1.14279969E-02 -8.66063534E-02
 -5.81296982E-09  3.83006190E+00  1.97459629E-01  4.60090581E-01  6.89600007E-08
 -7.62555175E-02 -5.41517695E-02  4.98855627E-03  8.02694602E-02 -4.12790917E-08
  1.20883917E-08  2.28051867E-03  6.50929805E-02 -7.98859275E-02  1.31543797E-01
 -4.67263724E-09 -2.45491778E-01  5.55314620E-01 -9.54260626E-01  4.09185764E-08
  5.47218144E-02 -4.63629951E-02 -3.19569774E-04 -2.80777714E-02 -4.06068820E-08
 -4.93404521E-09  3.32985010E-02  9.50448184E-01  8.45709044E-02 -4.97919380E-02
  2.51361452E-08 -3.58457612E+00 -6.06838231E-01  5.52559882E-02 -7.68670767E-08
 -4.90690964E-04  1.22539243E-01 -4.66841307E-03 -3.54976492E-02  3.54780199E-09
 -5.99919390E-08 -2.60904274E-01 -5.13727406E-01  1.67216692E-02  3.29308968E-02
  2.44180398E-01  4.80802848E-01 -2.60904274E-01 -5.13727406E-01  1.67216692E-02
  3.29308968E-02  2.44180398E-01  4.80802848E-01  1.79083627E-02  5.11160924E-01
  9.20213303E-02  1.05828848E-01  2.99991052E-09 -1.92782897E+00 -5.19638936E-01
 -8.40609890E-01 -3.55925540E-08  9.26973289E-02 -2.70581496E-02 -2.51082249E-03
 -4.19298973E-03 -8.42621069E-09  2.86982026E-08 -3.97665124E-02 -1.13506486E+00
 -4.70840784E-02 -3.73706905E-02 -3.56065588E-08  4.28085949E+00  2.54883152E-02
  8.78104738E-02  1.29165421E-07 -1.06831961E-01 -3.89233503E-02  5.57543359E-03
 -7.53155239E-02 -3.78446982E-08 -3.05145348E-08  2.18582164E-02  6.23905349E-01
  1.28836112E-01  3.26847839E-02  2.45988273E-08 -2.35303549E+00 -9.24476192E-01
 -3.62665089E-02 -1.09113769E-07 -3.22186319E-04  8.04388664E-02 -3.06456609E-03
  5.40771407E-02  1.77403224E-08 -2.92605171E-09  1.79083627E-02  5.11160924E-01
 -9.20213303E-02 -1.05828848E-01  2.99991052E-09 -1.92782897E+00  5.19638936E-01
  8.40609890E-01 -3.55925540E-08  9.26973289E-02 -2.70581496E-02 -2.51082249E-03
 -4.19298973E-03  8.42621069E-09 -2.86982026E-08 -3.97665124E-02 -1.13506486E+00
  4.70840784E-02  3.73706905E-02 -3.56065588E-08  4.28085949E+00 -2.54883152E-02
 -8.78104738E-02  1.29165421E-07 -1.06831961E-01 -3.89233503E-02  5.57543359E-03
 -7.53155239E-02  3.78446982E-08  3.05145348E-08  2.18582164E-02  6.23905349E-01
 -1.28836112E-01 -3.26847839E-02  2.45988273E-08 -2.35303549E+00  9.24476192E-01
  3.62665089E-02 -1.09113769E-07 -3.22186319E-04  8.04388664E-02 -3.06456609E-03
  5.40771407E-02 -1.77403224E-08  2.92605171E-09  1.31323036E-01  2.58580478E-01
 -2.91609773E-01 -5.74189733E-01  1.60286018E-01  3.15614038E-01  1.31323036E-01
  2.58580478E-01 -2.91609773E-01 -5.74189733E-01  1.60286018E-01  3.15614038E-01
 -1.77105621E-04  1.51894285E-01 -1.82091193E-01  9.82164642E-02  9.43819836E-09
  7.30443229E-01 -1.64658603E-01 -1.64005642E+00 -8.29034648E-08 -3.74019369E-02
  7.24944561E-02 -2.14461257E-02  1.50818156E-02  4.30904709E-08  8.44061315E-08
 -4.03856676E-04  3.46022205E-01 -4.07751849E-01 -2.35955762E-01 -8.58181914E-08
  1.66400623E+00  1.39512719E+00  6.69816379E-01  2.28621433E-07 -1.42524314E-03
  8.13685032E-02 -4.88547484E-02 -9.02055779E-02 -5.90200348E-08 -9.58165188E-08
 -2.26569252E-04  1.94118979E-01 -5.52093422E-03 -2.64295676E-01 -5.05439122E-08
  9.33535829E-01 -1.38517253E+00  8.65745911E-01 -2.06708662E-08  7.19921565E-02
 -2.71432615E-02 -2.74081552E-02 -4.37011891E-02 -5.80702739E-08 -9.16537656E-08
  1.77105621E-04 -1.51894285E-01 -1.82091193E-01  9.82164642E-02 -9.43819836E-09
 -7.30443229E-01 -1.64658603E-01 -1.64005642E+00  8.29034648E-08  3.74019369E-02
 -7.24944561E-02  2.14461257E-02 -1.50818156E-02  4.30904709E-08  8.44061315E-08
  4.03856676E-04 -3.46022205E-01 -4.07751849E-01 -2.35955762E-01  8.58181914E-08
 -1.66400623E+00  1.39512719E+00  6.69816379E-01 -2.28621433E-07  1.42524314E-03
 -8.13685032E-02  4.88547484E-02  9.02055779E-02 -5.90200348E-08 -9.58165188E-08
  2.26569252E-04 -1.94118979E-01 -5.52093422E-03 -2.64295676E-01  5.05439122E-08
 -9.33535829E-01 -1.38517253E+00  8.65745911E-01  2.06708662E-08 -7.19921565E-02
  2.71432615E-02  2.74081552E-02  4.37011891E-02 -5.80702739E-08 -9.16537656E-08
 -1.97138397E-01 -3.33021193E-01 -4.49069678E-01 -7.58604496E-01 -2.51942935E-01
 -4.25600427E-01  1.97138397E-01  3.33021193E-01  4.49069678E-01  7.58604496E-01
  2.51942935E-01  4.25600427E-01 -3.64192663E-04  3.11849289E-01 -3.66240477E-01
  2.14815319E-01  1.94614969E-08  1.49970565E+00  1.57039768E+00 -6.15234754E-02
 -1.64542198E-07  1.35275113E-02  5.85204256E-02 -4.40300837E-02  9.11746765E-02
 -3.05115703E-08 -3.55027978E-08 -2.83085260E-05  2.43820472E-02 -3.20681113E-02
 -1.08418074E-02 -1.83347937E-09  1.17239550E-01 -7.39495318E-01  1.49829239E+00
  1.97154757E-07 -3.97468442E-02  4.53798948E-02 -3.44235756E-03  2.00756066E-02
  1.78113633E-08  4.75600727E-08  3.35521550E-04 -2.87472178E-01 -3.72644006E-03
  3.91386823E-01  6.72736301E-08 -1.38245057E+00 -9.35394420E-01 -1.28202977E+00
 -2.96527792E-07 -1.06611950E-01  4.01953885E-02  4.05879930E-02 -2.95105308E-02
  2.23033578E-08  5.23460760E-08  3.64192663E-04 -3.11849289E-01 -3.66240477E-01
  2.14815319E-01 -1.94614969E-08 -1.49970565E+00  1.57039768E+00 -6.15234754E-02
  1.64542198E-07 -1.35275113E-02 -5.85204256E-02  4.40300837E-02 -9.11746765E-02
 -3.05115703E-08 -3.55027978E-08  2.83085260E-05 -2.43820472E-02 -3.20681113E-02
 -1.08418074E-02  1.83347937E-09 -1.17239550E-01 -7.39495318E-01  1.49829239E+00
 -1.97154757E-07  3.97468442E-02 -4.53798948E-02  3.44235756E-03 -2.00756066E-02
  1.78113633E-08  4.75600727E-08 -3.35521550E-04  2.87472178E-01 -3.72644006E-03
  3.91386823E-01 -6.72736301E-08  1.38245057E+00 -9.35394420E-01 -1.28202977E+00
  2.96527792E-07  1.06611950E-01 -4.01953885E-02 -4.05879930E-02  2.95105308E-02
  2.23033578E-08  5.23460760E-08 -4.04732614E-01 -6.83702390E-01 -3.16397344E-02
 -5.34488926E-02  3.73089620E-01  6.30246264E-01  4.04732614E-01  6.83702390E-01
  3.16397344E-02  5.34488926E-02 -3.73089620E-01 -6.30246264E-01 -1.12466318E-02
 -5.80822625E-01  5.88757181E-02 -3.39921666E-02  6.08790375E-09  7.86831991E-01
  1.09720110E+00 -6.33442912E-01  1.68158359E-07 -7.04380684E-02 -3.04859726E-02
  2.32599306E-02  3.99518902E-02  7.09774087E-08 -4.13355190E-08  1.12468544E-02
  5.80820075E-01 -5.88708386E-02 -3.39892144E-02  5.60405405E-08 -7.86880615E-01
 -1.09720481E+00 -6.33475646E-01 -3.47018831E-07  7.04384871E-02  3.04849235E-02
 -2.32595048E-02  3.99536288E-02  4.27286296E-08  4.18257926E-08 -1.12466347E-02
 -5.80821367E-01 -1.94675811E-06  6.79828523E-02 -5.44634049E-08  7.86841181E-01
  2.92617384E-05  1.26693106E+00  3.44102759E-07 -1.05095015E-02 -9.04138866E-02
  2.32596437E-02  1.14065512E-07 -1.51657054E-08 -5.51130928E-08  1.12466318E-02
  5.80822625E-01  5.88757181E-02 -3.39921666E-02 -6.08790375E-09 -7.86831991E-01
  1.09720110E+00 -6.33442912E-01 -1.68158359E-07  7.04380684E-02  3.04859726E-02
 -2.32599306E-02 -3.99518902E-02  7.09774087E-08 -4.13355190E-08 -1.12468544E-02
 -5.80820075E-01 -5.88708386E-02 -3.39892144E-02 -5.60405405E-08  7.86880615E-01
 -1.09720481E+00 -6.33475646E-01  3.47018831E-07 -7.04384871E-02 -3.04849235E-02
  2.32595048E-02 -3.99536288E-02  4.27286296E-08  4.18257926E-08  1.12466347E-02
  5.80821367E-01 -1.94675811E-06  6.79828523E-02  5.44634049E-08 -7.86841181E-01
  2.92617384E-05  1.26693106E+00 -3.44102759E-07  1.05095015E-02  9.04138866E-02
 -2.32596437E-02 -1.14065512E-07 -1.51657054E-08 -5.51130928E-08 -4.55868412E-01
 -5.81327862E-01  4.55876228E-01  5.81338129E-01 -4.55870890E-01 -5.81331070E-01
  4.55868412E-01  5.81327862E-01 -4.55876228E-01 -5.81338129E-01  4.55870890E-01
  5.81331070E-01  2.27937400E-12 -5.87678585E-11  2.84678611E-09  4.79709113E-09
  2.39902465E-07 -3.37229090E-10 -2.75388292E-07 -4.76588763E-07 -1.67669909E-07
 -2.20218900E-08  2.20121976E-08  3.19000833E-12 -1.46925472E-08 -1.69372111E-01
 -2.93360941E-01 -1.29465144E-09  6.55749154E-08 -8.91350183E-08 -4.58891756E-08
  1.21032406E-07  4.82746073E-07  4.30322198E-07 -7.32871033E-08  2.94152914E-09
  2.13649136E-09 -1.13785950E-09  2.93072510E-09 -2.24930231E-08 -1.69371842E-01
  2.93360903E-01 -1.29681792E-09  6.56330608E-08  4.84584110E-09 -1.00204497E-07
 -1.24880894E-07  4.83077337E-07 -2.78017799E-07  3.36230397E-07  8.69561366E-08
  1.65663765E-08 -1.55580832E-08  2.92783331E-09 -1.29015549E-08  3.38744068E-01
  7.46690205E-07 -2.27937400E-12  5.87678585E-11  2.84678611E-09  4.79709113E-09
 -2.39902465E-07  3.37229090E-10 -2.75388292E-07 -4.76588763E-07  1.67669909E-07
  2.20218900E-08 -2.20121976E-08 -3.19000833E-12  1.46925472E-08 -1.69372111E-01
 -2.93360941E-01  1.29465144E-09 -6.55749154E-08 -8.91350183E-08 -4.58891756E-08
 -1.21032406E-07 -4.82746073E-07  4.30322198E-07 -7.32871033E-08 -2.94152914E-09
 -2.13649136E-09  1.13785950E-09 -2.93072510E-09  2.24930231E-08 -1.69371842E-01
  2.93360903E-01  1.29681792E-09 -6.56330608E-08  4.84584110E-09 -1.00204497E-07
  1.24880894E-07 -4.83077337E-07 -2.78017799E-07  3.36230397E-07 -8.69561366E-08
 -1.65663765E-08  1.55580832E-08 -2.92783331E-09  1.29015549E-08  3.38744068E-01
  7.46690205E-07  7.27918787E-11  9.20760240E-11 -1.02344153E-07 -1.72000755E-07
 -1.02417201E-07 -1.72094905E-07 -7.27918787E-11 -9.20760240E-11  1.02344153E-07
  1.72000755E-07  1.02417201E-07  1.72094905E-07  6.44078793E-08  1.33294135E-06
 -3.28856160E-07  1.75746147E-07  5.46653810E-02 -5.52779202E-06  5.26781367E-06
 -3.04225342E-06  1.19706916E-02  6.90605774E-09  8.31462598E-08 -3.78139100E-08
  8.50701529E-08  3.20713210E-01 -1.85162372E-01 -3.29560468E-08 -7.34267554E-07
  3.36863024E-07 -2.40708329E-07  5.46658412E-02  2.92742071E-06 -2.70551427E-06
 -1.67073597E-06  1.19699294E-02 -1.61473154E-07  5.61631304E-08  7.87147880E-08
  5.11256169E-08  3.20713224E-01  1.85162448E-01 -3.01092462E-08 -6.74150797E-07
 -3.89118308E-07  1.54477352E-07  5.46661020E-02  2.68036437E-06 -9.49873634E-08
 -2.89120568E-06  1.19705529E-02 -3.15631263E-08 -6.95909800E-08  7.68941348E-08
  1.38796845E-07 -4.32447250E-07  3.70327609E-01  6.44078793E-08  1.33294135E-06
  3.28856160E-07 -1.75746147E-07  5.46653810E-02 -5.52779202E-06 -5.26781367E-06
  3.04225342E-06  1.19706916E-02  6.90605774E-09  8.31462598E-08 -3.78139100E-08
  8.50701529E-08 -3.20713210E-01  1.85162372E-01 -3.29560468E-08 -7.34267554E-07
 -3.36863024E-07  2.40708329E-07  5.46658412E-02  2.92742071E-06  2.70551427E-06
  1.67073597E-06  1.19699294E-02 -1.61473154E-07  5.61631304E-08  7.87147880E-08
  5.11256169E-08 -3.20713224E-01 -1.85162448E-01 -3.01092462E-08 -6.74150797E-07
  3.89118308E-07 -1.54477352E-07  5.46661020E-02  2.68036437E-06  9.49873634E-08
  2.89120568E-06  1.19705529E-02 -3.15631263E-08 -6.95909800E-08  7.68941348E-08
  1.38796845E-07  4.32447250E-07 -3.70327609E-01 -9.62566918E-07 -1.69289422E-06
  5.30610445E-07  8.50970153E-07  4.82816292E-07  7.69996568E-07 -9.62566918E-07
 -1.69289422E-06  5.30610445E-07  8.50970153E-07  4.82816292E-07  7.69996568E-07
 -1.21129663E-02 -2.52456339E-01 -6.25851949E-02 -2.72994348E-01  3.19911587E-08
  1.04867313E+00 -1.14311387E+00  6.95343492E-01  3.19710443E-08  6.98062497E-02
 -8.48838398E-02  7.77072149E-03  2.95232465E-02 -3.17890733E-07 -9.68559764E-07
 -2.27492206E-02 -4.74140996E-01  2.47149189E-02  2.66322042E-01  2.52297208E-07
  1.96950224E+00 -2.16318530E+00 -1.27777923E+00 -8.92446950E-08  5.76905856E-02
 -8.60078327E-02  1.45940152E-02 -6.50416941E-03  3.52732216E-07  7.85117327E-07
  3.48622336E-02  7.26598111E-01 -4.94287821E-02 -2.36861209E-01 -2.15975871E-07
 -3.01817242E+00  5.68146485E-03  3.84990485E+00  1.93703088E-07  6.92748293E-02
 -2.58783471E-02 -2.23658362E-02  1.70050861E-02 -4.69605619E-07 -3.30961389E-07
 -1.21129663E-02 -2.52456339E-01  6.25851949E-02  2.72994348E-01  3.19911587E-08
  1.04867313E+00  1.14311387E+00 -6.95343492E-01  3.19710443E-08  6.98062497E-02
 -8.48838398E-02  7.77072149E-03  2.95232465E-02  3.17890733E-07  9.68559764E-07
 -2.27492206E-02 -4.74140996E-01 -2.47149189E-02 -2.66322042E-01  2.52297208E-07
  1.96950224E+00  2.16318530E+00  1.27777923E+00 -8.92446950E-08  5.76905856E-02
 -8.60078327E-02  1.45940152E-02 -6.50416941E-03 -3.52732216E-07 -7.85117327E-07
  3.48622336E-02  7.26598111E-01  4.94287821E-02  2.36861209E-01 -2.15975871E-07
 -3.01817242E+00 -5.68146485E-03 -3.84990485E+00  1.93703088E-07  6.92748293E-02
 -2.58783471E-02 -2.23658362E-02  1.70050861E-02  4.69605619E-07  3.30961389E-07
  2.23194165E-01  4.02439606E-01  4.19192167E-01  7.55840298E-01 -6.42388740E-01
 -1.15828241E+00  2.23194165E-01  4.02439606E-01  4.19192167E-01  7.55840298E-01
 -6.42388740E-01 -1.15828241E+00  3.32620665E-02  6.93248795E-01 -2.44458490E-01
  2.85657605E-02 -9.93597713E-08 -2.87964685E+00  3.18667376E+00 -1.82692396E+00
 -8.83044542E-08  2.31609288E-02  1.82419746E-02 -2.13380438E-02  6.21640222E-02
 -7.32732720E-07 -3.76215576E-09 -2.71210095E-02 -5.65256083E-01  2.51129156E-01
 -6.64364495E-02  3.27035348E-08  2.34798226E+00 -2.60425827E+00 -1.47935291E+00
 -2.01176700E-07 -4.56210434E-02  1.18607240E-02  1.74002295E-02  6.85100069E-02
 -3.67967329E-07 -7.52903218E-08 -6.14120354E-03 -1.27993101E-01 -2.80590585E-01
  4.17241208E-02 -1.40891539E-07  5.31658437E-01  3.21053345E-02 -6.78179438E-01
 -9.61525716E-08 -1.22032533E-02  4.55793854E-03  3.94093258E-03  9.65377641E-02
 -2.41915624E-07 -7.37693678E-07  3.32620665E-02  6.93248795E-01  2.44458490E-01
 -2.85657605E-02 -9.93597713E-08 -2.87964685E+00 -3.18667376E+00  1.82692396E+00
 -8.83044542E-08  2.31609288E-02  1.82419746E-02 -2.13380438E-02  6.21640222E-02
  7.32732720E-07  3.76215576E-09 -2.71210095E-02 -5.65256083E-01 -2.51129156E-01
  6.64364495E-02  3.27035348E-08  2.34798226E+00  2.60425827E+00  1.47935291E+00
 -2.01176700E-07 -4.56210434E-02  1.18607240E-02  1.74002295E-02  6.85100069E-02
  3.67967329E-07  7.52903218E-08 -6.14120354E-03 -1.27993101E-01  2.80590585E-01
 -4.17241208E-02 -1.40891539E-07  5.31658437E-01 -3.21053345E-02  6.78179438E-01
 -9.61525716E-08 -1.22032533E-02  4.55793854E-03  3.94093258E-03  9.65377641E-02
  2.41915624E-07  7.37693678E-07 -6.12902862E-01 -1.10511876E+00  4.99745710E-01
  9.01084956E-01  1.13159977E-01  2.04039116E-01 -6.12902862E-01 -1.10511876E+00
  4.99745710E-01  9.01084956E-01  1.13159977E-01  2.04039116E-01 -1.97617122E-10
 -1.15416945E-08 -3.35635347E-07 -5.96918023E-07 -2.41562983E-02  5.09976321E-08
  5.66696265E-08  3.62135710E-07 -2.54924351E-02  1.79878262E-07 -1.92944870E-07
  1.43491451E-08  1.26867425E-07  1.66589484E-01  4.11935467E-01 -6.88276237E-08
 -1.43285250E-06  2.58799877E-07  5.54413627E-07 -7.01145418E-02  5.99853436E-06
 -7.08823541E-06 -3.96697168E-06 -7.39942368E-02  1.04767081E-07 -1.59438158E-07
  3.33689203E-08  5.52012304E-08  3.42197328E-03 -3.64082017E-01  6.98808111E-08
  1.45493478E-06 -3.36743732E-07 -5.13320916E-07  9.42699811E-02 -6.07321646E-06
 -1.28076916E-07  8.24135982E-06  9.94868529E-02  1.47712466E-07 -1.06905604E-07
 -1.67809289E-08  1.04476077E-07  1.23025872E-01  2.40771608E-01 -1.97617122E-10
 -1.15416945E-08  3.35635347E-07  5.96918023E-07 -2.41562983E-02  5.09976321E-08
 -5.66696265E-08 -3.62135710E-07 -2.54924351E-02  1.79878262E-07 -1.92944870E-07
  1.43491451E-08  1.26867425E-07 -1.66589484E-01 -4.11935467E-01 -6.88276237E-08
 -1.43285250E-06 -2.58799877E-07 -5.54413627E-07 -7.01145418E-02  5.99853436E-06
  7.08823541E-06  3.96697168E-06 -7.39942368E-02  1.04767081E-07 -1.59438158E-07
  3.33689203E-08  5.52012304E-08 -3.42197328E-03  3.64082017E-01  6.98808111E-08
  1.45493478E-06  3.36743732E-07  5.13320916E-07  9.42699811E-02 -6.07321646E-06
  1.28076916E-07 -8.24135982E-06  9.94868529E-02  1.47712466E-07 -1.06905604E-07
 -1.67809289E-08  1.04476077E-07 -1.23025872E-01 -2.40771608E-01  2.74182723E-08
  4.93012403E-08  1.37271194E-06  2.53386557E-06 -1.39145387E-06 -2.56770178E-06
  2.74182723E-08  4.93012403E-08  1.37271194E-06  2.53386557E-06 -1.39145387E-06
 -2.56770178E-06  2.54689049E-09  8.43043739E-08 -1.27702599E-07 -1.32254306E-07
  9.49073370E-02 -3.59930084E-07  6.86625977E-07 -2.94813135E-07  1.00159617E-01
  7.91147605E-08 -2.43635805E-08 -5.91903322E-08  2.63461198E-08  2.65924686E-01
 -2.42052978E-02 -2.10824984E-08 -4.38486418E-07  1.17017363E-07  1.23102664E-07
 -6.83733546E-02  1.79969080E-06 -2.17978336E-06 -1.17586428E-06 -7.21571427E-02
  6.15931955E-08 -4.58494490E-08 -2.73147889E-08  6.19832599E-08 -3.13777348E-01
  1.94218905E-01  1.50240707E-08  3.13561778E-07 -1.30929574E-07 -1.01522734E-07
 -2.65341989E-02 -1.34360662E-06  1.28464230E-08  1.78704927E-06 -2.80022854E-02
  8.31318382E-09  3.24385898E-08 -4.05162100E-08  3.17405801E-08  4.37087126E-01
 -6.77688418E-02  2.54689049E-09  8.43043739E-08  1.27702599E-07  1.32254306E-07
  9.49073370E-02 -3.59930084E-07 -6.86625977E-07  2.94813135E-07  1.00159617E-01
  7.91147605E-08 -2.43635805E-08 -5.91903322E-08  2.63461198E-08 -2.65924686E-01
  2.42052978E-02 -2.10824984E-08 -4.38486418E-07 -1.17017363E-07 -1.23102664E-07
 -6.83733546E-02  1.79969080E-06  2.17978336E-06  1.17586428E-06 -7.21571427E-02
  6.15931955E-08 -4.58494490E-08 -2.73147889E-08  6.19832599E-08  3.13777348E-01
 -1.94218905E-01  1.50240707E-08  3.13561778E-07  1.30929574E-07  1.01522734E-07
 -2.65341989E-02 -1.34360662E-06 -1.28464230E-08 -1.78704927E-06 -2.80022854E-02
  8.31318382E-09  3.24385898E-08 -4.05162100E-08  3.17405801E-08 -4.37087126E-01
  6.77688418E-02 -1.46430260E-07 -2.64256957E-07  4.14907748E-07  7.64984782E-07
 -3.05274605E-07 -5.64145055E-07 -1.46430260E-07 -2.64256957E-07  4.14907748E-07
  7.64984782E-07 -3.05274605E-07 -5.64145055E-07 -2.06004699E-10 -4.02477689E-09
 -2.45756980E-08 -4.22719929E-08 -5.12690541E-03  2.27659413E-08 -2.44840687E-07
 -4.15478040E-07  2.27929344E-03 -2.84554219E-08  2.69822861E-08  1.36951984E-09
 -1.79175563E-08 -7.49256397E-02 -8.94107273E-02 -2.84425010E-09  7.65799903E-08
 -1.10501874E-07 -8.57191324E-08  1.12206316E-01  4.58715539E-07  4.73309054E-07
 -1.34160286E-08 -4.98894733E-02 -7.52220233E-08  2.17586119E-08  3.09920015E-08
 -1.14631770E-07  4.13165647E-01  1.67761235E-01 -3.28399277E-09  6.67609835E-08
 -1.88969975E-08 -1.38043797E-07  1.17333306E-01  5.04046020E-07 -2.48670891E-07
  3.90301798E-07 -5.21693134E-02  8.34432318E-08 -1.39166664E-07  3.32729488E-08
 -9.67955883E-09 -5.35985215E-02  4.61874690E-01  2.06004699E-10  4.02477689E-09
 -2.45756980E-08 -4.22719929E-08  5.12690541E-03 -2.27659413E-08 -2.44840687E-07
 -4.15478040E-07 -2.27929344E-03  2.84554219E-08 -2.69822861E-08 -1.36951984E-09
  1.79175563E-08 -7.49256397E-02 -8.94107273E-02  2.84425010E-09 -7.65799903E-08
 -1.10501874E-07 -8.57191324E-08 -1.12206316E-01 -4.58715539E-07  4.73309054E-07
 -1.34160286E-08  4.98894733E-02  7.52220233E-08 -2.17586119E-08 -3.09920015E-08
  1.14631770E-07  4.13165647E-01  1.67761235E-01  3.28399277E-09 -6.67609835E-08
 -1.88969975E-08 -1.38043797E-07 -1.17333306E-01 -5.04046020E-07 -2.48670891E-07
  3.90301798E-07  5.21693134E-02 -8.34432318E-08  1.39166664E-07 -3.32729488E-08
  9.67955883E-09 -5.35985215E-02  4.61874690E-01 -1.68785692E-09 -1.26869770E-09
 -8.28593970E-08 -2.37541833E-07 -8.50299607E-08 -2.38185109E-07  1.68785692E-09
  1.26869770E-09  8.28593970E-08  2.37541833E-07  8.50299607E-08  2.38185109E-07
  1.65860054E-08  3.30399702E-07 -2.35562483E-08  1.10842101E-08  1.32524709E-01
 -1.96626758E-06  7.35572216E-07 -4.49581991E-07 -5.89235766E-02  1.46318177E-08
  1.99163000E-08 -3.73714107E-08  2.23359033E-09  4.49561531E-01 -2.64686763E-01
 -1.80005126E-08 -3.34356485E-07 -7.82664244E-09  3.03827552E-09  7.07026176E-02
  2.11478929E-06 -7.19392519E-07 -3.58808021E-07 -3.14365387E-02 -3.12860978E-08
 -1.00701470E-08  4.05564407E-08 -3.96692768E-08  1.92388574E-01  2.23404454E-01
  1.77223940E-08  3.40606971E-07 -8.27817981E-09 -7.02777397E-09 -6.18221668E-02
 -2.07174248E-06 -7.11209315E-08  8.37461169E-07  2.74879515E-02 -6.87806839E-09
  4.34178984E-08 -3.77271428E-08  8.42833090E-09 -1.01724049E-01 -2.43359117E-01
 -1.65860054E-08 -3.30399702E-07 -2.35562483E-08  1.10842101E-08 -1.32524709E-01
  1.96626758E-06  7.35572216E-07 -4.49581991E-07  5.89235766E-02 -1.46318177E-08
 -1.99163000E-08  3.73714107E-08 -2.23359033E-09  4.49561531E-01 -2.64686763E-01
  1.80005126E-08  3.34356485E-07 -7.82664244E-09  3.03827552E-09 -7.07026176E-02
 -2.11478929E-06 -7.19392519E-07 -3.58808021E-07  3.14365387E-02  3.12860978E-08
  1.00701470E-08 -4.05564407E-08  3.96692768E-08  1.92388574E-01  2.23404454E-01
 -1.77223940E-08 -3.40606971E-07 -8.27817981E-09 -7.02777397E-09  6.18221668E-02
  2.07174248E-06 -7.11209315E-08  8.37461169E-07 -2.74879515E-02  6.87806839E-09
 -4.34178984E-08  3.77271428E-08 -8.42833090E-09 -1.01724049E-01 -2.43359117E-01
  2.08916046E-08 -9.58967818E-08 -2.90535644E-08  5.01724007E-08  2.16619469E-08
 -7.12430587E-08 -2.08916046E-08  9.58967818E-08  2.90535644E-08 -5.01724007E-08
 -2.16619469E-08  7.12430587E-08  1.52441470E-02  2.24751669E-01 -6.94455449E-02
  4.00943450E-02  1.02632078E-08 -3.19795558E-01 -5.47381147E-02  3.16063564E-02
  4.91569246E-08 -1.63791388E-01 -1.53719151E-01  4.27936481E-01  1.00709153E-02
 -3.72038713E-09  2.95957952E-09  1.52443406E-02  2.24753961E-01 -6.94466436E-02
 -4.00941609E-02 -1.26794437E-08 -3.19806071E-01 -5.47233711E-02 -3.15908826E-02
 -4.06740117E-08 -1.63790273E-01 -1.53719520E-01  4.27935556E-01 -1.00710824E-02
 -7.17356478E-08  9.12458716E-09  1.52443235E-02  2.24754120E-01  9.43548327E-07
 -8.01902149E-02 -1.25778725E-08 -3.19808061E-01 -4.37471586E-06 -6.31867716E-02
 -3.90334197E-08 -1.48683927E-01 -1.68824792E-01  4.27935220E-01 -7.09412932E-07
  4.44733050E-08 -5.75552597E-08  1.52441470E-02  2.24751669E-01  6.94455449E-02
 -4.00943450E-02  1.02632078E-08 -3.19795558E-01  5.47381147E-02 -3.16063564E-02
  4.91569246E-08 -1.63791388E-01 -1.53719151E-01  4.27936481E-01  1.00709153E-02
  3.72038713E-09 -2.95957952E-09  1.52443406E-02  2.24753961E-01  6.94466436E-02
  4.00941609E-02 -1.26794437E-08 -3.19806071E-01  5.47233711E-02  3.15908826E-02
 -4.06740117E-08 -1.63790273E-01 -1.53719520E-01  4.27935556E-01 -1.00710824E-02
  7.17356478E-08 -9.12458716E-09  1.52443235E-02  2.24754120E-01 -9.43548327E-07
  8.01902149E-02 -1.25778725E-08 -3.19808061E-01  4.37471586E-06  6.31867716E-02
 -3.90334197E-08 -1.48683927E-01 -1.68824792E-01  4.27935220E-01 -7.09412932E-07
 -4.44733050E-08  5.75552597E-08  1.48691573E-01  1.17559787E-01  1.48687752E-01
  1.17552351E-01  1.48687291E-01  1.17552569E-01  1.48691573E-01  1.17559787E-01
  1.48687752E-01  1.17552351E-01  1.48687291E-01  1.17552569E-01  1.13983501E-07
  3.02696900E-06 -1.10301815E-01 -1.91048567E-01  4.08023556E-12 -1.98765176E-05
  1.33213015E-01  2.30705402E-01  5.97740685E-12 -2.75892445E-01  2.75891733E-01
  4.70886789E-07 -1.83930063E-01  2.51394752E-09  4.40359405E-09 -1.42193163E-07
 -1.75401062E-06 -1.10301450E-01  1.91047944E-01  1.47981853E-09  1.95153731E-05
  1.33193700E-01 -2.30717503E-01  2.68516200E-09 -2.75891570E-01  2.75891945E-01
 -1.26451690E-07  1.83929246E-01 -8.56777192E-09 -4.04452096E-09  1.65779147E-07
  2.13398790E-06  2.20604786E-01  6.48875089E-07  1.47583633E-09 -1.93746836E-05
 -2.66403468E-01  1.07930266E-05  2.68028496E-09  6.08939143E-08  3.85303250E-07
 -5.90583012E-07  3.67856296E-01  7.07264504E-10 -9.41817041E-09 -1.13983501E-07
 -3.02696900E-06 -1.10301815E-01 -1.91048567E-01 -4.08023556E-12  1.98765176E-05
  1.33213015E-01  2.30705402E-01 -5.97740685E-12  2.75892445E-01 -2.75891733E-01
 -4.70886789E-07  1.83930063E-01  2.51394752E-09  4.40359405E-09  1.42193163E-07
  1.75401062E-06 -1.10301450E-01  1.91047944E-01 -1.47981853E-09 -1.95153731E-05
  1.33193700E-01 -2.30717503E-01 -2.68516200E-09  2.75891570E-01 -2.75891945E-01
  1.26451690E-07 -1.83929246E-01 -8.56777192E-09 -4.04452096E-09 -1.65779147E-07
 -2.13398790E-06  2.20604786E-01  6.48875089E-07 -1.47583633E-09  1.93746836E-05
 -2.66403468E-01  1.07930266E-05 -2.68028496E-09 -6.08939143E-08 -3.85303250E-07
  5.90583012E-07 -3.67856296E-01  7.07264504E-10 -9.41817041E-09 -1.68878106E-06
 -2.99323631E-06 -3.74296269E-07  1.37653887E-06 -1.89356932E-06 -7.57395887E-07
  1.68878106E-06  2.99323631E-06  3.74296269E-07 -1.37653887E-06  1.89356932E-06
  7.57395887E-07 -8.47762886E-03  1.95817261E-01 -4.70688139E-04  2.71214165E-04
  1.01474089E-08  5.18716726E-02  1.85142702E-01 -1.06897659E-01 -9.56437839E-08
  1.89675548E-01 -1.36612948E-01 -8.68719877E-03 -3.26288979E-01  5.71125877E-08
 -3.44003836E-08 -8.47747810E-03  1.95814091E-01 -4.68065888E-04 -2.70693118E-04
  9.81300988E-09  5.18697252E-02  1.85142676E-01  1.06884950E-01  6.55163598E-08
  1.89676998E-01 -1.36613746E-01 -8.68812247E-03  3.26289302E-01  7.14739534E-08
 -2.46952160E-08 -8.47756945E-03  1.95813365E-01 -8.10574321E-07 -5.41267985E-04
  9.53967995E-09  5.18775410E-02  9.92728109E-06  2.13778644E-01  6.28116367E-08
 -2.99758725E-01  3.52822143E-01 -8.68731842E-03 -2.45645424E-06 -5.83589503E-08
  5.02916774E-08 -8.47762886E-03  1.95817261E-01  4.70688139E-04 -2.71214165E-04
  1.01474089E-08  5.18716726E-02 -1.85142702E-01  1.06897659E-01 -9.56437839E-08
  1.89675548E-01 -1.36612948E-01 -8.68719877E-03 -3.26288979E-01 -5.71125877E-08
  3.44003836E-08 -8.47747810E-03  1.95814091E-01  4.68065888E-04  2.70693118E-04
  9.81300988E-09  5.18697252E-02 -1.85142676E-01 -1.06884950E-01  6.55163598E-08
  1.89676998E-01 -1.36613746E-01 -8.68812247E-03  3.26289302E-01 -7.14739534E-08
  2.46952160E-08 -8.47756945E-03  1.95813365E-01  8.10574321E-07  5.41267985E-04
  9.53967995E-09  5.18775410E-02 -9.92728109E-06 -2.13778644E-01  6.28116367E-08
 -2.99758725E-01  3.52822143E-01 -8.68731842E-03 -2.45645424E-06  5.83589503E-08
 -5.02916774E-08 -3.43046754E-01 -2.25666916E-02 -3.43046486E-01 -2.25640159E-02
 -3.43047147E-01 -2.25633643E-02 -3.43046754E-01 -2.25666916E-02 -3.43046486E-01
 -2.25640159E-02 -3.43047147E-01 -2.25633643E-02 -7.48864893E-02 -1.21572593E+00
  6.57393849E-02 -3.79545552E-02  3.01364016E-08  1.09288645E+01 -6.01659316E+00
  3.47366272E+00 -5.10596512E-08  3.02620668E-02  1.24606489E-02  9.36744541E-02
 -1.78026202E-02  1.57695560E-07 -9.21164432E-08  7.48864339E-02  1.21572702E+00
 -6.57391076E-02 -3.79548435E-02 -4.75096015E-08 -1.09288413E+01  6.01659854E+00
  3.47368381E+00  6.45137248E-07 -3.02614434E-02 -1.24610237E-02 -9.36741604E-02
 -1.77989679E-02  1.99236903E-08  1.15348503E-09 -7.48865240E-02 -1.21572503E+00
  3.98701188E-06  7.59070562E-02  4.75071464E-08  1.09288542E+01 -1.43508973E-05
 -6.94736307E+00 -6.40993636E-07  3.56050959E-03  3.91603019E-02  9.36758286E-02
  4.30111388E-07  8.03497170E-09 -1.21791339E-08  7.48864893E-02  1.21572593E+00
  6.57393849E-02 -3.79545552E-02 -3.01364016E-08 -1.09288645E+01 -6.01659316E+00
  3.47366272E+00  5.10596512E-08 -3.02620668E-02 -1.24606489E-02 -9.36744541E-02
  1.78026202E-02  1.57695560E-07 -9.21164432E-08 -7.48864339E-02 -1.21572702E+00
 -6.57391076E-02 -3.79548435E-02  4.75096015E-08  1.09288413E+01  6.01659854E+00
  3.47368381E+00 -6.45137248E-07  3.02614434E-02  1.24610237E-02  9.36741604E-02
  1.77989679E-02  1.99236903E-08  1.15348503E-09  7.48865240E-02  1.21572503E+00
  3.98701188E-06  7.59070562E-02 -4.75071464E-08 -1.09288542E+01 -1.43508973E-05
 -6.94736307E+00  6.40993636E-07 -3.56050959E-03 -3.91603019E-02 -9.36758286E-02
 -4.30111388E-07  8.03497170E-09 -1.21791339E-08  4.54762454E-01  1.54626692E+00
 -4.54769163E-01 -1.54627388E+00  4.54767396E-01  1.54627145E+00 -4.54762454E-01
 -1.54626692E+00  4.54769163E-01  1.54627388E+00 -4.54767396E-01 -1.54627145E+00
 -4.85409318E-03 -8.02935843E-02  1.69156847E-01  1.33011616E-01  3.38780638E-09
  4.25524447E-01 -2.13050077E-01 -5.71342413E-01 -6.25311090E-08  1.58626430E-01
 -4.28051928E-03 -1.33913667E-01 -2.24336299E-01  5.92043531E-09 -5.53701189E-08
 -9.86085912E-03 -1.63112286E-01  1.39693176E-01  8.30142478E-02  2.66925857E-08
  8.64478331E-01  1.81007335E-01  9.73921687E-02  9.31951620E-08  3.69257511E-01
 -5.57279653E-02 -2.72023360E-01  4.24354378E-01  9.28769634E-08  2.98674838E-08
 -5.00625877E-03 -8.28094314E-02  1.97722229E-01  8.24961071E-02  2.97642173E-08
  4.38873714E-01 -5.95160183E-01  1.04338905E-01 -5.87052698E-08 -1.35941415E-01
  2.95124988E-01 -1.38110746E-01 -3.04022632E-02 -2.59565103E-08  1.21644518E-07
  4.85409318E-03  8.02935843E-02  1.69156847E-01  1.33011616E-01 -3.38780638E-09
 -4.25524447E-01 -2.13050077E-01 -5.71342413E-01  6.25311090E-08 -1.58626430E-01
  4.28051928E-03  1.33913667E-01  2.24336299E-01  5.92043531E-09 -5.53701189E-08
  9.86085912E-03  1.63112286E-01  1.39693176E-01  8.30142478E-02 -2.66925857E-08
 -8.64478331E-01  1.81007335E-01  9.73921687E-02 -9.31951620E-08 -3.69257511E-01
  5.57279653E-02  2.72023360E-01 -4.24354378E-01  9.28769634E-08  2.98674838E-08
  5.00625877E-03  8.28094314E-02  1.97722229E-01  8.24961071E-02 -2.97642173E-08
 -4.38873714E-01 -5.95160183E-01  1.04338905E-01  5.87052698E-08  1.35941415E-01
 -2.95124988E-01  1.38110746E-01  3.04022632E-02 -2.59565103E-08  1.21644518E-07
 -2.77165491E-01  2.40505939E-03 -5.63019803E-01  4.89530763E-03 -2.85857849E-01
  2.47891282E-03  2.77165491E-01 -2.40505939E-03  5.63019803E-01 -4.89530763E-03
  2.85857849E-01 -2.47891282E-03 -8.58323100E-03 -1.41976981E-01  6.60013178E-02
 -1.68558986E-01  5.44867601E-09  7.52456235E-01  3.24954535E-01  2.05057765E-01
 -1.06418504E-07  3.34254823E-01 -6.13346886E-02 -2.36789998E-01 -3.60845308E-01
  5.98263940E-08 -5.55207505E-09 -8.81994516E-05 -1.45742901E-03  1.16000831E-01
 -1.98023907E-01 -1.85555409E-08  7.75175520E-03 -3.43836784E-01  5.99150943E-01
  1.19968415E-07 -2.31746782E-02  2.59690513E-02 -2.42352439E-03  2.14259642E-02
 -8.04428018E-08 -2.65510122E-08  8.49590667E-03  1.40531868E-01  1.16518385E-01
 -1.39991029E-01 -1.29677056E-08 -7.44829687E-01 -3.50736978E-01 -1.77001435E-01
 -1.39060573E-07  2.30685293E-01 -5.00810043E-01  2.34364114E-01 -1.79139598E-02
  8.74911686E-09 -3.80578465E-08  8.58323100E-03  1.41976981E-01  6.60013178E-02
 -1.68558986E-01 -5.44867601E-09 -7.52456235E-01  3.24954535E-01  2.05057765E-01
  1.06418504E-07 -3.34254823E-01  6.13346886E-02  2.36789998E-01  3.60845308E-01
  5.98263940E-08 -5.55207505E-09  8.81994516E-05  1.45742901E-03  1.16000831E-01
 -1.98023907E-01  1.85555409E-08 -7.75175520E-03 -3.43836784E-01  5.99150943E-01
 -1.19968415E-07  2.31746782E-02 -2.59690513E-02  2.42352439E-03 -2.14259642E-02
 -8.04428018E-08 -2.65510122E-08 -8.49590667E-03 -1.40531868E-01  1.16518385E-01
 -1.39991029E-01  1.29677056E-08  7.44829687E-01 -3.50736978E-01 -1.77001435E-01
  1.39060573E-07 -2.30685293E-01  5.00810043E-01 -2.34364114E-01  1.79139598E-02
  8.74911686E-09 -3.80578465E-08 -4.90103139E-01  4.24983900E-03 -5.01634232E-03
  4.97036212E-05  4.85079976E-01 -4.21973370E-03  4.90103139E-01 -4.24983900E-03
  5.01634232E-03 -4.97036212E-05 -4.85079976E-01  4.21973370E-03 -3.41698193E-04
  9.76080927E-02 -4.82184600E-03  1.19284552E-01  1.86860041E-09 -1.01076621E-01
 -6.27182568E-02 -2.76838441E-01 -1.20587178E-08  3.71294699E-01 -3.85881108E-01
  3.54630867E-02  2.90709895E-01  3.65459766E-08  2.36631956E-08 -1.31875148E-03
  3.76664281E-01 -1.79373476E-01 -1.81856430E-01 -1.39337985E-08 -3.90054697E-01
  1.89969528E-01  3.20061078E-01 -3.52305531E-08  1.80496556E-01 -2.36786241E-01
  1.36849801E-01 -2.86958878E-01  5.26819297E-08 -4.94231305E-09  1.66063407E-03
 -4.74271566E-01  3.30860441E-02  3.10088820E-01  1.76626243E-08  4.91129402E-01
 -8.89015961E-02 -4.08653140E-01  4.35881951E-08 -1.04199339E-01  1.75075486E-01
 -1.72311897E-01  1.71820815E-01  8.40033690E-09 -5.84791984E-08 -3.41698193E-04
  9.76080927E-02  4.82184600E-03 -1.19284552E-01  1.86860041E-09 -1.01076621E-01
  6.27182568E-02  2.76838441E-01 -1.20587178E-08  3.71294699E-01 -3.85881108E-01
  3.54630867E-02  2.90709895E-01 -3.65459766E-08 -2.36631956E-08 -1.31875148E-03
  3.76664281E-01  1.79373476E-01  1.81856430E-01 -1.39337985E-08 -3.90054697E-01
 -1.89969528E-01 -3.20061078E-01 -3.52305531E-08  1.80496556E-01 -2.36786241E-01
  1.36849801E-01 -2.86958878E-01 -5.26819297E-08  4.94231305E-09  1.66063407E-03
 -4.74271566E-01 -3.30860441E-02 -3.10088820E-01  1.76626243E-08  4.91129402E-01
  8.89015961E-02  4.08653140E-01  4.35881951E-08 -1.04199339E-01  1.75075486E-01
 -1.72311897E-01  1.71820815E-01 -8.40033690E-09  5.84791984E-08  2.90537195E-02
 -2.26523513E-02  1.12119144E-01 -8.74150627E-02 -1.41174241E-01  1.10069351E-01
  2.90537195E-02 -2.26523513E-02  1.12119144E-01 -8.74150627E-02 -1.41174241E-01
  1.10069351E-01  1.72010270E-03 -4.91287459E-01  2.88201463E-01 -1.43246815E-01
 -9.17479089E-09  5.08755168E-01 -3.93533350E-01  1.65014006E-01  6.31063878E-08
  1.87105754E-01 -1.13686231E-01 -1.78494455E-01 -9.25991487E-02 -8.56812973E-08
  5.89827707E-08 -1.15597527E-03  3.30176517E-01 -2.25630237E-01 -4.09476227E-02
 -1.30781807E-08 -3.41913464E-01  3.50305110E-01 -3.77564160E-02 -3.03664693E-08
 -3.74550412E-01  3.25208020E-01  1.19959885E-01  1.03640573E-01  1.64630119E-08
  7.18857278E-08 -5.64014466E-04  1.61114255E-01  9.73988794E-02 -1.05338581E-01
 -6.63893786E-09 -1.66842090E-01 -2.61717409E-01  1.38825098E-01 -1.39019965E-08
  3.53950355E-02 -5.94724089E-02  5.85361667E-02  5.05795950E-01  6.22095818E-08
  2.88826247E-08  1.72010270E-03 -4.91287459E-01 -2.88201463E-01  1.43246815E-01
 -9.17479089E-09  5.08755168E-01  3.93533350E-01 -1.65014006E-01  6.31063878E-08
  1.87105754E-01 -1.13686231E-01 -1.78494455E-01 -9.25991487E-02  8.56812973E-08
 -5.89827707E-08 -1.15597527E-03  3.30176517E-01  2.25630237E-01  4.09476227E-02
 -1.30781807E-08 -3.41913464E-01 -3.50305110E-01  3.77564160E-02 -3.03664693E-08
 -3.74550412E-01  3.25208020E-01  1.19959885E-01  1.03640573E-01 -1.64630119E-08
 -7.18857278E-08 -5.64014466E-04  1.61114255E-01 -9.73988794E-02  1.05338581E-01
 -6.63893786E-09 -1.66842090E-01  2.61717409E-01 -1.38825098E-01 -1.39019965E-08
  3.53950355E-02 -5.94724089E-02  5.85361667E-02  5.05795950E-01 -6.22095818E-08
 -2.88826247E-08 -1.46239006E-01  1.14018016E-01  9.82798758E-02 -7.66271542E-02
  4.79549296E-02 -3.73907797E-02 -1.46239006E-01  1.14018016E-01  9.82798758E-02
 -7.66271542E-02  4.79549296E-02 -3.73907797E-02  5.42888455E-09 -5.58975783E-08
  3.18592233E-08 -1.67475881E-08 -4.52262642E-02 -1.01096354E-07  8.47425122E-08
 -3.80323082E-08 -3.13454188E-01 -2.75115604E-09  1.98488857E-08 -3.17183898E-08
 -1.62832357E-08  5.31446037E-01 -2.34886437E-01  4.95829222E-10  1.89686792E-08
 -2.94420434E-08 -2.23904232E-08  1.50146507E-02  9.75177173E-09  2.74754374E-08
 -4.22162862E-08  1.04064278E-01 -1.00993087E-07  9.90312461E-08  7.70982002E-09
  7.75542638E-10 -1.14514839E-02 -3.63741708E-01 -4.24909273E-10  1.59967668E-08
 -7.47152275E-09 -4.71481176E-08  3.02113123E-02  8.69645182E-08 -5.28607992E-08
 -1.19775003E-07  2.09390031E-01  3.85911386E-08 -2.13804088E-08  1.19909604E-09
  8.43805984E-08 -2.46979496E-01 -3.85901608E-01  5.42888455E-09 -5.58975783E-08
 -3.18592233E-08  1.67475881E-08 -4.52262642E-02 -1.01096354E-07 -8.47425122E-08
  3.80323082E-08 -3.13454188E-01 -2.75115604E-09  1.98488857E-08 -3.17183898E-08
 -1.62832357E-08 -5.31446037E-01  2.34886437E-01  4.95829222E-10  1.89686792E-08
  2.94420434E-08  2.23904232E-08  1.50146507E-02  9.75177173E-09 -2.74754374E-08
  4.22162862E-08  1.04064278E-01 -1.00993087E-07  9.90312461E-08  7.70982002E-09
  7.75542638E-10  1.14514839E-02  3.63741708E-01 -4.24909273E-10  1.59967668E-08
  7.47152275E-09  4.71481176E-08  3.02113123E-02  8.69645182E-08  5.28607992E-08
  1.19775003E-07  2.09390031E-01  3.85911386E-08 -2.13804088E-08  1.19909604E-09
  8.43805984E-08  2.46979496E-01  3.85901608E-01  1.31387348E-09 -4.64714559E-08
  6.82021289E-08 -2.66563709E-08  9.88635771E-08  8.27796121E-09  1.31387348E-09
 -4.64714559E-08  6.82021289E-08 -2.66563709E-08  9.88635771E-08  8.27796121E-09
 -1.12537392E-09  1.12639027E-08 -2.43428324E-09  1.01827241E-08  8.77397374E-03
  2.17140000E-08  7.64837721E-09  5.37736259E-08  6.08100271E-02 -8.04596102E-08
  7.76778661E-08  5.80045836E-09 -5.20349360E-08  6.35224960E-02  3.34167777E-01
  2.50390005E-09  4.21232239E-09  2.79874720E-08  2.56488575E-08 -4.35543425E-02
 -2.18133225E-07  2.87107941E-07  1.83585112E-07 -3.01864335E-01 -6.63714759E-08
  1.41273077E-08  1.57743877E-08 -3.02961254E-08  5.35106430E-01  1.85826946E-01
 -2.55630302E-09 -1.03936259E-08 -5.75305402E-09 -2.01337788E-08  3.47803151E-02
  1.97610687E-07  5.31667946E-09 -3.14446133E-07  2.41054238E-01 -3.44679177E-08
  8.38744919E-08 -1.81006496E-08 -6.26142628E-08  2.14537725E-01 -4.44257893E-01
 -1.12537392E-09  1.12639027E-08  2.43428324E-09 -1.01827241E-08  8.77397374E-03
  2.17140000E-08 -7.64837721E-09 -5.37736259E-08  6.08100271E-02 -8.04596102E-08
  7.76778661E-08  5.80045836E-09 -5.20349360E-08 -6.35224960E-02 -3.34167777E-01
  2.50390005E-09  4.21232239E-09 -2.79874720E-08 -2.56488575E-08 -4.35543425E-02
 -2.18133225E-07 -2.87107941E-07 -1.83585112E-07 -3.01864335E-01 -6.63714759E-08
  1.41273077E-08  1.57743877E-08 -3.02961254E-08 -5.35106430E-01 -1.85826946E-01
 -2.55630302E-09 -1.03936259E-08  5.75305402E-09  2.01337788E-08  3.47803151E-02
  1.97610687E-07 -5.31667946E-09  3.14446133E-07  2.41054238E-01 -3.44679177E-08
  8.38744919E-08 -1.81006496E-08 -6.26142628E-08 -2.14537725E-01  4.44257893E-01
 -5.95550361E-10  9.99838195E-09 -9.99700943E-08 -9.16510154E-08  6.46651413E-08
  9.49780625E-08 -5.95550361E-10  9.99838195E-09 -9.99700943E-08 -9.16510154E-08
  6.46651413E-08  9.49780625E-08  2.57629104E-02  3.60642028E-01 -2.29495226E-01
 -1.49793295E-01 -8.91203647E-10 -5.11979884E-01  3.03156303E-01 -3.77602230E-01
 -4.30902623E-08 -8.09908969E-02 -2.02717278E-01  3.60097479E-01 -1.80296419E-01
  5.53293382E-08  3.94311517E-08 -1.27503756E-02 -1.78484820E-01  2.06347815E-01
 -2.34813986E-01 -2.20038927E-08  2.53383856E-01 -8.34626757E-02 -3.02176933E-01
 -4.39527818E-09  5.67542347E-02  8.36564230E-02 -1.78216644E-01 -1.00344189E-01
  1.79790401E-08  1.67110541E-09 -3.85135695E-02 -5.39129994E-01  6.20557648E-02
  1.85147996E-01  7.88130344E-09  7.65396767E-01  4.45275792E-02 -6.74732571E-01
 -5.74570150E-08  4.59697508E-01 -3.55788838E-02 -5.38314143E-01  7.43406784E-03
  1.03738254E-07 -2.03812388E-09 -2.57629104E-02 -3.60642028E-01 -2.29495226E-01
 -1.49793295E-01  8.91203647E-10  5.11979884E-01  3.03156303E-01 -3.77602230E-01
  4.30902623E-08  8.09908969E-02  2.02717278E-01 -3.60097479E-01  1.80296419E-01
  5.53293382E-08  3.94311517E-08  1.27503756E-02  1.78484820E-01  2.06347815E-01
 -2.34813986E-01  2.20038927E-08 -2.53383856E-01 -8.34626757E-02 -3.02176933E-01
  4.39527818E-09 -5.67542347E-02 -8.36564230E-02  1.78216644E-01  1.00344189E-01
  1.79790401E-08  1.67110541E-09  3.85135695E-02  5.39129994E-01  6.20557648E-02
  1.85147996E-01 -7.88130344E-09 -7.65396767E-01  4.45275792E-02 -6.74732571E-01
  5.74570150E-08 -4.59697508E-01  3.55788838E-02  5.38314143E-01 -7.43406784E-03
  1.03738254E-07 -2.03812388E-09 -4.21950275E-02 -1.34332665E-01  2.08816078E-02
  6.64812144E-02  6.30785277E-02  2.00818549E-01  4.21950275E-02  1.34332665E-01
 -2.08816078E-02 -6.64812144E-02 -6.30785277E-02 -2.00818549E-01 -2.95974596E-02
 -4.14318877E-01  1.68200428E-02 -2.55435837E-01  9.65861682E-10  5.88217892E-01
 -5.25420895E-01  1.27026865E-01  5.01607546E-08  4.86918213E-02  2.77238504E-01
 -4.13688032E-01  1.77561949E-01 -1.36702757E-09  6.30469259E-08 -3.71099116E-02
 -5.19479873E-01  1.01839811E-01  1.80408243E-01  1.11353463E-08  7.37460871E-01
 -6.00809485E-01 -2.59610101E-01 -5.86400758E-08  7.55595507E-02  3.33102757E-01
 -5.18697140E-01 -2.32308495E-01 -5.66956787E-08  8.93507656E-08 -7.51302378E-03
 -1.05170689E-01 -3.18121387E-01  3.61162290E-02 -2.33896693E-08  1.49329051E-01
 -2.28278092E-01 -1.31640362E-01  4.40870788E-09  8.96744032E-02 -6.94224172E-03
 -1.05007984E-01 -3.81075991E-02 -2.18987536E-08  1.66662561E-08  2.95974596E-02
  4.14318877E-01  1.68200428E-02 -2.55435837E-01 -9.65861682E-10 -5.88217892E-01
 -5.25420895E-01  1.27026865E-01 -5.01607546E-08 -4.86918213E-02 -2.77238504E-01
  4.13688032E-01 -1.77561949E-01 -1.36702757E-09  6.30469259E-08  3.71099116E-02
  5.19479873E-01  1.01839811E-01  1.80408243E-01 -1.11353463E-08 -7.37460871E-01
 -6.00809485E-01 -2.59610101E-01  5.86400758E-08 -7.55595507E-02 -3.33102757E-01
  5.18697140E-01  2.32308495E-01 -5.66956787E-08  8.93507656E-08  7.51302378E-03
  1.05170689E-01 -3.18121387E-01  3.61162290E-02  2.33896693E-08 -1.49329051E-01
 -2.28278092E-01 -1.31640362E-01 -4.40870788E-09 -8.96744032E-02  6.94224172E-03
  1.05007984E-01  3.81075991E-02 -2.18987536E-08  1.66662561E-08  4.84778828E-02
  1.54331038E-01  6.07818304E-02  1.93494797E-01  1.23087826E-02  3.91784664E-02
 -4.84778828E-02 -1.54331038E-01 -6.07818304E-02 -1.93494797E-01 -1.23087826E-02
 -3.91784664E-02 -7.73690261E-10  2.18185183E-08  1.88932487E-08  1.78551711E-08
 -8.08183403E-02 -5.05323484E-07  2.80440394E-07 -1.73919618E-07 -6.88023031E-02
  2.87974924E-08  3.04656004E-08 -8.80474911E-08  2.81649512E-08  3.32974946E-01
  2.70555586E-01 -3.77459539E-09 -6.69981204E-08 -2.32230645E-08  5.26588549E-08
 -9.06864012E-02  6.30594431E-07 -3.40800644E-07 -1.64005962E-07 -7.71698414E-02
 -5.65048329E-09  1.20544152E-08  1.31083048E-08  3.01165527E-10  2.90117412E-01
 -1.59022485E-01  7.68414218E-09  1.21372470E-07 -1.39503988E-08 -1.91864193E-08
 -9.87119878E-03 -6.67025286E-07 -4.56468343E-08  4.63459515E-07 -8.41724844E-03
 -9.63112271E-08  2.55674402E-08  6.38287402E-08 -7.08860767E-09  6.83571648E-01
  1.87159427E-02  7.73690261E-10 -2.18185183E-08  1.88932487E-08  1.78551711E-08
  8.08183403E-02  5.05323484E-07  2.80440394E-07 -1.73919618E-07  6.88023031E-02
 -2.87974924E-08 -3.04656004E-08  8.80474911E-08 -2.81649512E-08  3.32974946E-01
  2.70555586E-01  3.77459539E-09  6.69981204E-08 -2.32230645E-08  5.26588549E-08
  9.06864012E-02 -6.30594431E-07 -3.40800644E-07 -1.64005962E-07  7.71698414E-02
  5.65048329E-09 -1.20544152E-08 -1.31083048E-08 -3.01165527E-10  2.90117412E-01
 -1.59022485E-01 -7.68414218E-09 -1.21372470E-07 -1.39503988E-08 -1.91864193E-08
  9.87119878E-03  6.67025286E-07 -4.56468343E-08  4.63459515E-07  8.41724844E-03
  9.63112271E-08 -2.55674402E-08 -6.38287402E-08  7.08860767E-09  6.83571648E-01
  1.87159427E-02 -2.45602116E-08 -7.50470355E-08  7.88777229E-09  9.25655915E-08
 -4.80170137E-08 -1.08863322E-07  2.45602116E-08  7.50470355E-08 -7.88777229E-09
 -9.25655915E-08  4.80170137E-08  1.08863322E-07  5.33424356E-10 -1.60848726E-08
  1.26768808E-08  3.25133981E-08  5.80576317E-02  3.67105151E-07 -2.14644745E-07
  1.07298363E-07  4.94205568E-02  5.44133638E-10 -4.30664918E-08  6.32762503E-08
 -6.32590683E-09  1.83726102E-01  5.38157816E-01  6.86017672E-09  1.05916607E-07
 -1.79151704E-08 -5.36843932E-09 -4.09619859E-02 -4.95526661E-07  3.35042656E-07
  1.48986927E-07 -3.48699368E-02 -1.66282945E-09 -7.08819576E-08  7.17427368E-08
  6.05906357E-08 -2.45836346E-01  5.80978057E-01 -1.42388358E-09 -3.02499505E-08
  5.56769292E-08  2.42150685E-11 -9.90178356E-02  4.44695928E-07  1.45641346E-08
 -2.44873305E-07 -8.42703310E-02 -2.44330430E-08  7.45475076E-09  3.53450117E-08
  7.05028101E-09 -6.81387670E-02  1.87529472E-01 -5.33424356E-10  1.60848726E-08
  1.26768808E-08  3.25133981E-08 -5.80576317E-02 -3.67105151E-07 -2.14644745E-07
  1.07298363E-07 -4.94205568E-02 -5.44133638E-10  4.30664918E-08 -6.32762503E-08
  6.32590683E-09  1.83726102E-01  5.38157816E-01 -6.86017672E-09 -1.05916607E-07
 -1.79151704E-08 -5.36843932E-09  4.09619859E-02  4.95526661E-07  3.35042656E-07
  1.48986927E-07  3.48699368E-02  1.66282945E-09  7.08819576E-08 -7.17427368E-08
 -6.05906357E-08 -2.45836346E-01  5.80978057E-01  1.42388358E-09  3.02499505E-08
  5.56769292E-08  2.42150685E-11  9.90178356E-02 -4.44695928E-07  1.45641346E-08
 -2.44873305E-07  8.42703310E-02  2.44330430E-08 -7.45475076E-09 -3.53450117E-08
 -7.05028101E-09 -6.81387670E-02  1.87529472E-01  1.76812861E-08  5.45400178E-08
 -4.81050543E-08 -8.43194708E-08 -7.25826420E-09  6.16134588E-08 -1.76812861E-08
 -5.45400178E-08  4.81050543E-08  8.43194708E-08  7.25826420E-09 -6.16134588E-08
  1.31313525E-08  2.01124812E-07 -3.65328965E-08  2.02580074E-08 -2.83531739E-02
 -1.67552566E-06  8.67399255E-07 -4.98354030E-07 -3.77211167E-01 -4.91290650E-08
  1.77570713E-08  8.42134018E-09  6.76803580E-08  4.25884267E-01 -2.45893163E-01
 -8.06415667E-09 -1.41054966E-07 -3.79617661E-08  2.01035669E-08  2.83611430E-02
  1.45851627E-06 -8.40465349E-07 -6.06172380E-07  3.77218010E-01  4.40654182E-08
 -4.92717928E-09  3.43523695E-09 -1.11605540E-08 -4.25913195E-01 -2.45873864E-01
  8.12484531E-09  1.41109377E-07 -3.71140250E-08  2.21742887E-08 -2.83589792E-02
 -1.46228093E-06  1.06839931E-07  1.02943518E-06 -3.77216174E-01 -1.44402902E-08
 -2.52336387E-08 -2.65003094E-09  3.04745790E-08 -3.19253276E-05  4.91784762E-01
 -1.31313525E-08 -2.01124812E-07 -3.65328965E-08  2.02580074E-08  2.83531739E-02
  1.67552566E-06  8.67399255E-07 -4.98354030E-07  3.77211167E-01  4.91290650E-08
 -1.77570713E-08 -8.42134018E-09 -6.76803580E-08  4.25884267E-01 -2.45893163E-01
  8.06415667E-09  1.41054966E-07 -3.79617661E-08  2.01035669E-08 -2.83611430E-02
 -1.45851627E-06 -8.40465349E-07 -6.06172380E-07 -3.77218010E-01 -4.40654182E-08
  4.92717928E-09 -3.43523695E-09  1.11605540E-08 -4.25913195E-01 -2.45873864E-01
 -8.12484531E-09 -1.41109377E-07 -3.71140250E-08  2.21742887E-08  2.83589792E-02
  1.46228093E-06  1.06839931E-07  1.02943518E-06  3.77216174E-01  1.44402902E-08
  2.52336387E-08  2.65003094E-09 -3.04745790E-08 -3.19253276E-05  4.91784762E-01
  2.26771479E-08 -2.54199818E-07  1.40645492E-07  2.08102754E-07 -1.37436408E-07
 -2.08539935E-07 -2.26771479E-08  2.54199818E-07 -1.40645492E-07 -2.08102754E-07
  1.37436408E-07  2.08539935E-07 -8.22047443E-02 -2.57198192E-01 -8.65322619E-02
  1.33831050E-01  4.95599461E-09  2.92837583E+00 -1.12163937E+00  8.43537488E-01
  6.08695224E-08  3.06682266E-01  3.79307787E-01 -6.71756313E-01 -1.19721979E-01
 -3.91580233E-08  1.53796637E-08  6.17823062E-02  1.93301613E-01  2.21507683E-03
  2.09390324E-01 -3.78105385E-09 -2.20086673E+00  6.96212096E-01  8.88191219E-01
  6.17971997E-08 -1.05724902E-01 -4.09842998E-01  5.04869931E-01 -1.73156968E-01
 -3.88737684E-08 -5.62894830E-08  2.04225402E-02  6.38983603E-02  2.52863929E-01
  3.52404194E-02 -4.92973405E-10 -7.27507362E-01  5.90787114E-01  3.46108441E-01
  2.15708100E-08 -6.74140593E-02 -1.03009161E-01  1.66887400E-01 -3.34811281E-01
 -1.64852635E-08 -1.78613800E-08 -8.22047443E-02 -2.57198192E-01  8.65322619E-02
 -1.33831050E-01  4.95599461E-09  2.92837583E+00  1.12163937E+00 -8.43537488E-01
  6.08695224E-08  3.06682266E-01  3.79307787E-01 -6.71756313E-01 -1.19721979E-01
  3.91580233E-08 -1.53796637E-08  6.17823062E-02  1.93301613E-01 -2.21507683E-03
 -2.09390324E-01 -3.78105385E-09 -2.20086673E+00 -6.96212096E-01 -8.88191219E-01
  6.17971997E-08 -1.05724902E-01 -4.09842998E-01  5.04869931E-01 -1.73156968E-01
  3.88737684E-08  5.62894830E-08  2.04225402E-02  6.38983603E-02 -2.52863929E-01
 -3.52404194E-02 -4.92973405E-10 -7.27507362E-01 -5.90787114E-01 -3.46108441E-01
  2.15708100E-08 -6.74140593E-02 -1.03009161E-01  1.66887400E-01 -3.34811281E-01
  1.64852635E-08  1.78613800E-08 -2.48326895E-01  4.03330226E-01  1.86634194E-01
 -3.03128732E-01  6.16927565E-02 -1.00204349E-01 -2.48326895E-01  4.03330226E-01
  1.86634194E-01 -3.03128732E-01  6.16927565E-02 -1.00204349E-01  2.38793314E-02
  7.47111350E-02  1.60711001E-01  1.95945986E-01 -1.47832157E-09 -8.50647944E-01
  6.42571132E-01  3.03596137E-01 -1.79262173E-08 -3.58347236E-01  1.59078772E-01
  1.95134761E-01 -1.44733867E-01  4.17805533E-10 -2.42064755E-08  5.92520437E-02
  1.85382493E-01  1.82514149E-01 -1.11628048E-01 -4.98885482E-09 -2.11072936E+00
  1.08915684E+00  1.21827153E-01  5.63306768E-08 -4.59662315E-01 -3.47883620E-02
  4.84192296E-01  7.27845489E-02 -4.67573315E-08 -4.49756398E-08 -8.31314038E-02
 -2.60096151E-01  6.21215467E-02 -1.43453569E-01  5.97296647E-09  2.96137699E+00
  1.45139348E-01 -1.40883941E+00 -7.99082884E-08  2.74423640E-01  4.19297227E-01
 -6.79328256E-01 -8.22518660E-02  2.86041488E-08  8.54400765E-08  2.38793314E-02
  7.47111350E-02 -1.60711001E-01 -1.95945986E-01 -1.47832157E-09 -8.50647944E-01
 -6.42571132E-01 -3.03596137E-01 -1.79262173E-08 -3.58347236E-01  1.59078772E-01
  1.95134761E-01 -1.44733867E-01 -4.17805533E-10  2.42064755E-08  5.92520437E-02
  1.85382493E-01 -1.82514149E-01  1.11628048E-01 -4.98885482E-09 -2.11072936E+00
 -1.08915684E+00 -1.21827153E-01  5.63306768E-08 -4.59662315E-01 -3.47883620E-02
  4.84192296E-01  7.27845489E-02  4.67573315E-08  4.49756398E-08 -8.31314038E-02
 -2.60096151E-01 -6.21215467E-02  1.43453569E-01  5.97296647E-09  2.96137699E+00
 -1.45139348E-01  1.40883941E+00 -7.99082884E-08  2.74423640E-01  4.19297227E-01
 -6.79328256E-01 -8.22518660E-02 -2.86041488E-08 -8.54400765E-08  7.21333970E-02
 -1.17160525E-01  1.78988406E-01 -2.90713010E-01 -2.51122086E-01  4.07875059E-01
  7.21333970E-02 -1.17160525E-01  1.78988406E-01 -2.90713010E-01 -2.51122086E-01
  4.07875059E-01  2.43424882E-11 -1.29241292E-11  8.17236931E-08  1.41415144E-07
 -3.84226647E-07 -6.44454557E-10  1.00401656E-08  1.66340972E-08 -3.11823703E-07
  1.14993557E-08 -1.16373388E-08  1.63512034E-10  7.41447633E-09 -2.76981440E-01
 -4.79747872E-01  1.13894687E-08  8.57961634E-09  5.40779428E-08 -5.55957031E-08
  1.63319729E-07 -2.99848277E-07  1.97122364E-07  1.47915818E-07  1.95403654E-07
  1.08872224E-07 -1.31840888E-07  4.53929019E-08  2.04131673E-07  2.76982087E-01
 -4.79747939E-01 -1.14135477E-08 -8.56787046E-09  7.49103398E-08 -1.91024435E-08
  2.09632870E-07  3.00492165E-07 -2.96897942E-08 -2.45048592E-07  1.13671541E-07
  2.25054284E-07 -2.01945575E-07 -4.55555608E-08  1.83970847E-08  5.53964044E-01
  2.53714856E-07  2.43424882E-11 -1.29241292E-11 -8.17236931E-08 -1.41415144E-07
 -3.84226647E-07 -6.44454557E-10 -1.00401656E-08 -1.66340972E-08 -3.11823703E-07
  1.14993557E-08 -1.16373388E-08  1.63512034E-10  7.41447633E-09  2.76981440E-01
  4.79747872E-01  1.13894687E-08  8.57961634E-09 -5.40779428E-08  5.55957031E-08
  1.63319729E-07 -2.99848277E-07 -1.97122364E-07 -1.47915818E-07  1.95403654E-07
  1.08872224E-07 -1.31840888E-07  4.53929019E-08  2.04131673E-07 -2.76982087E-01
  4.79747939E-01 -1.14135477E-08 -8.56787046E-09 -7.49103398E-08  1.91024435E-08
  2.09632870E-07  3.00492165E-07  2.96897942E-08  2.45048592E-07  1.13671541E-07
  2.25054284E-07 -2.01945575E-07 -4.55555608E-08  1.83970847E-08 -5.53964044E-01
 -2.53714856E-07 -9.21351709E-11 -5.68868556E-11 -1.24773695E-07 -1.83686830E-08
  1.24865055E-07  1.84258208E-08 -9.21351709E-11 -5.68868556E-11 -1.24773695E-07
 -1.83686830E-08  1.24865055E-07  1.84258208E-08  1.74002622E-02 -2.83754424E-02
 -1.36192375E-01 -3.21292536E-01 -5.20109668E-09 -3.77463839E-01  1.90466510E-01
 -1.48440177E-01 -4.06965876E-09  7.56997798E-02 -1.42606488E-01  1.07855755E-01
 -3.10984948E-01 -1.15875458E-07 -1.89200521E-07 -3.99222890E-02  6.51022686E-02
 -9.90467288E-02 -2.43821098E-02 -3.24230903E-09  8.66028642E-01 -4.76579866E-01
 -2.72007619E-01 -3.68867078E-08 -2.56281042E-01  4.09786437E-01 -2.47458162E-01
 -6.58456590E-01  1.94097357E-08 -1.77817390E-07  2.25219243E-02 -3.67276322E-02
 -3.17932368E-01  5.52679470E-02 -1.05025538E-08 -4.88564813E-01 -3.05752552E-02
  3.09564118E-01  1.82104758E-08 -4.15842622E-01  3.29243985E-01  1.39601890E-01
 -4.25405122E-02  1.85451212E-07  5.71479040E-08  1.74002622E-02 -2.83754424E-02
  1.36192375E-01  3.21292536E-01 -5.20109668E-09 -3.77463839E-01 -1.90466510E-01
  1.48440177E-01 -4.06965876E-09  7.56997798E-02 -1.42606488E-01  1.07855755E-01
 -3.10984948E-01  1.15875458E-07  1.89200521E-07 -3.99222890E-02  6.51022686E-02
  9.90467288E-02  2.43821098E-02 -3.24230903E-09  8.66028642E-01  4.76579866E-01
  2.72007619E-01 -3.68867078E-08 -2.56281042E-01  4.09786437E-01 -2.47458162E-01
 -6.58456590E-01 -1.94097357E-08  1.77817390E-07  2.25219243E-02 -3.67276322E-02
  3.17932368E-01 -5.52679470E-02 -1.05025538E-08 -4.88564813E-01  3.05752552E-02
 -3.09564118E-01  1.82104758E-08 -4.15842622E-01  3.29243985E-01  1.39601890E-01
 -4.25405122E-02 -1.85451212E-07 -5.71479040E-08 -1.40431138E-01  2.35222381E-03
  3.22204506E-01 -5.40063170E-03 -1.81772309E-01  3.04863952E-03 -1.40431138E-01
  2.35222381E-03  3.22204506E-01 -5.40063170E-03 -1.81772309E-01  3.04863952E-03
 -3.60527732E-02  5.87893543E-02 -1.60195435E-01 -1.00524710E-01  1.06092707E-08
  7.82093418E-01 -4.37200538E-01  2.33846736E-01  8.73705894E-09 -2.45635706E-01
  3.84262380E-01 -2.23472732E-01  5.85162743E-01 -4.29417263E-08 -9.89965895E-08
  2.95790951E-03 -4.82273172E-03 -1.85473630E-01  3.35767430E-01  1.58579455E-08
 -6.41705395E-02  1.67669623E-02  5.22691127E-02  5.82287257E-09 -1.97154104E-02
  8.34099102E-03  1.83347658E-02  7.45751838E-02  3.93437408E-08 -1.00961742E-07
  3.30948852E-02 -5.39685666E-02  2.16364900E-01  8.12139331E-02  1.23793107E-08
 -7.17921858E-01  2.08228570E-02  4.54894670E-01  3.20016923E-08 -6.11054137E-01
  4.83802501E-01  2.05137311E-01  2.89458404E-02  6.18679404E-08  4.51213796E-08
 -3.60527732E-02  5.87893543E-02  1.60195435E-01  1.00524710E-01  1.06092707E-08
  7.82093418E-01  4.37200538E-01 -2.33846736E-01  8.73705894E-09 -2.45635706E-01
  3.84262380E-01 -2.23472732E-01  5.85162743E-01  4.29417263E-08  9.89965895E-08
  2.95790951E-03 -4.82273172E-03  1.85473630E-01 -3.35767430E-01  1.58579455E-08
 -6.41705395E-02 -1.67669623E-02 -5.22691127E-02  5.82287257E-09 -1.97154104E-02
  8.34099102E-03  1.83347658E-02  7.45751838E-02 -3.93437408E-08  1.00961742E-07
  3.30948852E-02 -5.39685666E-02 -2.16364900E-01 -8.12139331E-02  1.23793107E-08
 -7.17921858E-01 -2.08228570E-02 -4.54894670E-01  3.20016923E-08 -6.11054137E-01
  4.83802501E-01  2.05137311E-01  2.89458404E-02 -6.18679404E-08 -4.51213796E-08
  2.90970968E-01 -4.87470787E-03 -2.38664082E-02  3.98578738E-04 -2.67104637E-01
  4.47628017E-03  2.90970968E-01 -4.87470787E-03 -2.38664082E-02  3.98578738E-04
 -2.67104637E-01  4.47628017E-03  2.17851038E-02 -1.54141754E-01  2.95497717E-01
  7.88999387E-02 -1.42795455E-08 -1.02248209E+00  4.17021969E-01  5.50963524E-01
 -3.44703231E-08 -4.53866707E-01  2.04857200E-01  1.37127039E-01 -2.68706407E-01
  4.44238448E-08  3.14399115E-09  2.27709951E-02 -1.61105939E-01  2.90537765E-01
 -5.07311668E-02  1.40826478E-09 -1.06878582E+00  3.77767992E-01 -4.75145166E-01
  1.20884482E-08 -4.15409042E-01  1.55134940E-01  1.43332518E-01  2.41530600E-01
 -2.40429970E-08 -1.50277823E-08  9.84454686E-04 -6.97100756E-03  4.05280791E-01
  9.78473167E-03  4.27443300E-09 -4.61919392E-02  1.28603033E+00  3.85453727E-03
  1.32818275E-08 -7.29151811E-03 -3.96267539E-03  6.19666930E-03 -8.69753099E-01
 -1.82590332E-08 -1.13984581E-09 -2.17851038E-02  1.54141754E-01  2.95497717E-01
  7.88999387E-02  1.42795455E-08  1.02248209E+00  4.17021969E-01  5.50963524E-01
  3.44703231E-08  4.53866707E-01 -2.04857200E-01 -1.37127039E-01  2.68706407E-01
  4.44238448E-08  3.14399115E-09 -2.27709951E-02  1.61105939E-01  2.90537765E-01
 -5.07311668E-02 -1.40826478E-09  1.06878582E+00  3.77767992E-01 -4.75145166E-01
 -1.20884482E-08  4.15409042E-01 -1.55134940E-01 -1.43332518E-01 -2.41530600E-01
 -2.40429970E-08 -1.50277823E-08 -9.84454686E-04  6.97100756E-03  4.05280791E-01
  9.78473167E-03 -4.27443300E-09  4.61919392E-02  1.28603033E+00  3.85453727E-03
 -1.32818275E-08  7.29151811E-03  3.96267539E-03 -6.19666930E-03  8.69753099E-01
 -1.82590332E-08 -1.13984581E-09  7.79204037E-02 -4.76850171E-02  8.14451000E-02
 -4.98497674E-02  3.52404989E-03 -2.15252795E-03 -7.79204037E-02  4.76850171E-02
 -8.14451000E-02  4.98497674E-02 -3.52404989E-03  2.15252795E-03  1.37163446E-02
 -9.70321252E-02 -5.35946662E-02 -3.65379383E-01 -8.95595481E-09 -6.43818346E-01
 -4.97797714E-01 -9.70200003E-01 -2.16881874E-08  4.85642969E-01 -6.42417673E-01
  8.63374550E-02  3.45094559E-01  1.37597470E-10 -4.59291397E-08 -1.20103051E-02
  8.49620660E-02  7.60329587E-02 -3.70342994E-01 -5.44691548E-09  5.63746892E-01
  5.28229776E-01 -1.00948676E+00 -2.05443388E-08 -5.18926007E-01  6.56201052E-01
 -7.55985519E-02  3.64630518E-01  2.70205412E-09  2.53407066E-08 -2.57234811E-02
  1.82015548E-01  1.55183211E-02 -2.55595228E-01 -3.63489815E-09  1.20731244E+00
  4.92396111E-02 -1.01137153E-01 -1.97198234E-08  1.90524620E-01  1.03503353E-01
 -1.61917951E-01 -3.33004216E-02  9.84764762E-09  3.15114819E-08 -1.37163446E-02
  9.70321252E-02 -5.35946662E-02 -3.65379383E-01  8.95595481E-09  6.43818346E-01
 -4.97797714E-01 -9.70200003E-01  2.16881874E-08 -4.85642969E-01  6.42417673E-01
 -8.63374550E-02 -3.45094559E-01  1.37597470E-10 -4.59291397E-08  1.20103051E-02
 -8.49620660E-02  7.60329587E-02 -3.70342994E-01  5.44691548E-09 -5.63746892E-01
  5.28229776E-01 -1.00948676E+00  2.05443388E-08  5.18926007E-01 -6.56201052E-01
  7.55985519E-02 -3.64630518E-01  2.70205412E-09  2.53407066E-08  2.57234811E-02
 -1.82015548E-01  1.55183211E-02 -2.55595228E-01  3.63489815E-09 -1.20731244E+00
  4.92396111E-02 -1.01137153E-01  1.97198234E-08 -1.90524620E-01 -1.03503353E-01
  1.61917951E-01  3.33004216E-02  9.84764762E-09  3.15114819E-08  4.90573346E-02
 -3.00339396E-02 -4.29557885E-02  2.62992370E-02 -9.20084446E-02  5.63005348E-02
 -4.90573346E-02  3.00339396E-02  4.29557885E-02 -2.62992370E-02  9.20084446E-02
 -5.63005348E-02 -9.86783109E-02 -6.18721175E-01 -1.10762758E-01  6.39428397E-02
  1.04530239E-08  7.38053132E+00 -3.56300031E+00  2.05707395E+00  8.27881989E-08
  3.65421066E-01  2.19859317E-01 -5.29430969E-01 -1.45538690E-01 -2.19947099E-08
  1.25487599E-08  9.86781202E-02  6.18722794E-01  1.10760076E-01  6.39438524E-02
 -1.86360111E-08 -7.38052056E+00  3.56299991E+00  2.05708415E+00  2.69238686E-07
 -3.65417784E-01 -2.19860689E-01  5.29430149E-01 -1.45542382E-01 -4.94399709E-08
 -2.27142605E-08 -9.86788776E-02 -6.18719213E-01 -7.63016154E-07 -1.27898464E-01
  1.80308411E-08  7.38054792E+00 -6.33527551E-06 -4.11419361E+00 -2.67194826E-07
  1.47097139E-01  4.38187716E-01 -5.29434413E-01  4.22794198E-06 -5.17752281E-09
  5.45672534E-08  9.86783109E-02  6.18721175E-01 -1.10762758E-01  6.39428397E-02
 -1.04530239E-08 -7.38053132E+00 -3.56300031E+00  2.05707395E+00 -8.27881989E-08
 -3.65421066E-01 -2.19859317E-01  5.29430969E-01  1.45538690E-01 -2.19947099E-08
  1.25487599E-08 -9.86781202E-02 -6.18722794E-01  1.10760076E-01  6.39438524E-02
  1.86360111E-08  7.38052056E+00  3.56299991E+00  2.05708415E+00 -2.69238686E-07
  3.65417784E-01  2.19860689E-01 -5.29430149E-01  1.45542382E-01 -4.94399709E-08
 -2.27142605E-08  9.86788776E-02  6.18719213E-01 -7.63016154E-07 -1.27898464E-01
 -1.80308411E-08 -7.38054792E+00 -6.33527551E-06 -4.11419361E+00  2.67194826E-07
 -1.47097139E-01 -4.38187716E-01  5.29434413E-01 -4.22794198E-06 -5.17752281E-09
  5.45672534E-08 -1.15981531E-01  9.50668610E-01  1.15980932E-01 -9.50671225E-01
 -1.15983150E-01  9.50673018E-01  1.15981531E-01 -9.50668610E-01 -1.15980932E-01
  9.50671225E-01  1.15983150E-01 -9.50673018E-01 -1.22173069E-07 -8.40887693E-07
 -2.03811182E-01 -3.53013428E-01 -2.95992959E-12 -2.04044221E-06 -8.88407091E-01
 -1.53876876E+00 -8.34705280E-12  5.37436029E-01 -5.37436597E-01 -3.01959936E-07
  3.58292334E-01 -2.01383190E-08 -3.49001163E-08  9.95514307E-08 -8.47953114E-07
  2.03813187E-01 -3.53014614E-01 -5.84021400E-09  2.67125512E-06  8.88407117E-01
 -1.53876717E+00 -6.13902524E-08 -5.37436271E-01  5.37436277E-01  5.25728295E-07
  3.58293632E-01  1.32715441E-08  2.13519273E-08  7.56898658E-08  1.05307753E-06
  4.07625353E-01 -7.18680584E-07  5.84304416E-09 -2.52772411E-07  1.77681375E+00
  1.90775769E-06  6.13985672E-08  3.46206800E-06 -2.63615741E-06  3.95790564E-08
 -7.16582593E-01 -1.18837923E-08 -2.21791172E-08 -1.22173069E-07 -8.40887693E-07
  2.03811182E-01  3.53013428E-01 -2.95992959E-12 -2.04044221E-06  8.88407091E-01
  1.53876876E+00 -8.34705280E-12  5.37436029E-01 -5.37436597E-01 -3.01959936E-07
  3.58292334E-01  2.01383190E-08  3.49001163E-08  9.95514307E-08 -8.47953114E-07
 -2.03813187E-01  3.53014614E-01 -5.84021400E-09  2.67125512E-06 -8.88407117E-01
  1.53876717E+00 -6.13902524E-08 -5.37436271E-01  5.37436277E-01  5.25728295E-07
  3.58293632E-01 -1.32715441E-08 -2.13519273E-08  7.56898658E-08  1.05307753E-06
 -4.07625353E-01  7.18680584E-07  5.84304416E-09 -2.52772411E-07 -1.77681375E+00
 -1.90775769E-06  6.13985672E-08  3.46206800E-06 -2.63615741E-06  3.95790564E-08
 -7.16582593E-01  1.18837923E-08  2.21791172E-08 -1.21899054E-07  8.63110908E-08
 -7.79077221E-07  3.02018744E-07  1.78399103E-06 -1.15352522E-06 -1.21899054E-07
  8.63110908E-08 -7.79077221E-07  3.02018744E-07  1.78399103E-06 -1.15352522E-06
 -7.57456720E-02 -7.30421805E-02 -9.15643365E-02  5.28661169E-02  2.44893564E-08
  4.16672031E+00 -2.02168496E+00  1.16721466E+00  2.13678607E-08 -1.85358585E-01
  3.96703726E-01 -3.15056065E-01  5.82058919E-01 -1.69331833E-09  9.11069874E-10
  7.57452882E-02  7.30423367E-02  9.15646164E-02  5.28663281E-02 -6.41639043E-09
 -4.16671118E+00  2.02168477E+00  1.16722085E+00  1.81681024E-07  1.85357426E-01
 -3.96703785E-01  3.15054585E-01  5.82058694E-01  4.39314354E-08 -7.97078640E-09
 -7.57453188E-02 -7.30436115E-02  7.68860944E-07 -1.05730501E-01  6.29211222E-09
  4.16671444E+00 -4.26988700E-06 -2.33444018E+00 -1.80414939E-07  6.87731887E-01
 -4.76385977E-01 -3.15054189E-01  1.35029332E-06  2.88107073E-08 -3.31232291E-08
  7.57456720E-02  7.30421805E-02 -9.15643365E-02  5.28661169E-02 -2.44893564E-08
 -4.16672031E+00 -2.02168496E+00  1.16721466E+00 -2.13678607E-08  1.85358585E-01
 -3.96703726E-01  3.15056065E-01 -5.82058919E-01 -1.69331833E-09  9.11069874E-10
 -7.57452882E-02 -7.30423367E-02  9.15646164E-02  5.28663281E-02  6.41639043E-09
  4.16671118E+00  2.02168477E+00  1.16722085E+00 -1.81681024E-07 -1.85357426E-01
  3.96703785E-01 -3.15054585E-01 -5.82058694E-01  4.39314354E-08 -7.97078640E-09
  7.57453188E-02  7.30436115E-02  7.68860944E-07 -1.05730501E-01 -6.29211222E-09
 -4.16671444E+00 -4.26988700E-06 -2.33444018E+00  1.80414939E-07 -6.87731887E-01
  4.76385977E-01  3.15054189E-01 -1.35029332E-06  2.88107073E-08 -3.31232291E-08
  2.63582773E-01  3.96980352E-01 -2.63583487E-01 -3.96982434E-01  2.63583353E-01
  3.96982182E-01 -2.63582773E-01 -3.96980352E-01  2.63583487E-01  3.96982434E-01
 -2.63583353E-01 -3.96982182E-01 -1.90063790E-01  1.30377077E+00 -4.74337440E-02
  2.73854108E-02  1.67239577E-09  3.66321366E-01  5.31167328E-02 -3.06657117E-02
 -1.70665705E-09 -7.25618792E-01 -6.86642542E-01 -7.35645740E-01  3.89771507E-02
  1.53600723E-09 -9.13243296E-10 -1.90063719E-01  1.30377041E+00 -4.74338876E-02
 -2.73856246E-02 -5.16259861E-09  3.66320960E-01  5.31163362E-02  3.06664529E-02
  9.17005317E-09 -7.25618560E-01 -6.86642126E-01 -7.35645436E-01 -3.89767596E-02
 -3.32604355E-09  3.35713272E-10 -1.90064885E-01  1.30377666E+00  1.14901416E-07
 -5.47711581E-02 -5.07190658E-09  3.66329705E-01 -3.06877589E-07  6.13310067E-02
  8.80304356E-09 -6.67158857E-01 -7.45111307E-01 -7.35649909E-01  8.81277604E-08
  1.93163671E-09 -2.53213300E-09 -1.90063790E-01  1.30377077E+00  4.74337440E-02
 -2.73854108E-02  1.67239577E-09  3.66321366E-01 -5.31167328E-02  3.06657117E-02
 -1.70665705E-09 -7.25618792E-01 -6.86642542E-01 -7.35645740E-01  3.89771507E-02
 -1.53600723E-09  9.13243296E-10 -1.90063719E-01  1.30377041E+00  4.74338876E-02
  2.73856246E-02 -5.16259861E-09  3.66320960E-01 -5.31163362E-02 -3.06664529E-02
  9.17005317E-09 -7.25618560E-01 -6.86642126E-01 -7.35645436E-01 -3.89767596E-02
  3.32604355E-09 -3.35713272E-10 -1.90064885E-01  1.30377666E+00 -1.14901416E-07
  5.47711581E-02 -5.07190658E-09  3.66329705E-01  3.06877589E-07 -6.13310067E-02
  8.80304356E-09 -6.67158857E-01 -7.45111307E-01 -7.35649909E-01  8.81277604E-08
 -1.93163671E-09  2.53213300E-09  8.79777577E-02 -1.73251994E-01  8.79775741E-02
 -1.73251703E-01  8.79780420E-02 -1.73252324E-01  8.79777577E-02 -1.73251994E-01
  8.79775741E-02 -1.73251703E-01  8.79780420E-02 -1.73252324E-01  2.17190003E-01
 -1.33431591E+00  3.60128889E-02  1.16778272E-01  2.05203455E-09 -6.31364532E-01
  2.21249383E-02 -1.06093818E-01 -8.66011361E-09  7.49484653E-01  8.83662758E-01
  8.44391412E-01 -4.98710379E-02  1.17752823E-09  6.62438578E-09 -4.55003398E-02
  2.79533515E-01 -8.78203158E-02  1.63506201E-01 -7.69886251E-10  1.32267496E-01
  4.98198258E-02 -1.16543141E-01  9.53754072E-09 -6.40051215E-02 -2.78132279E-01
 -1.76896257E-01 -7.24533630E-02 -1.82536333E-09 -7.12444672E-09 -2.62690592E-01
  1.61385096E+00 -6.63711664E-02  3.28992875E-02 -4.03426855E-09  7.63636150E-01
  4.50220499E-02 -8.73353051E-02  9.90214922E-10 -9.82975495E-01 -9.92311069E-01
 -1.02128860E+00  5.12657296E-02  2.71816674E-09 -5.63212824E-09 -2.17190003E-01
  1.33431591E+00  3.60128889E-02  1.16778272E-01 -2.05203455E-09  6.31364532E-01
  2.21249383E-02 -1.06093818E-01  8.66011361E-09 -7.49484653E-01 -8.83662758E-01
 -8.44391412E-01  4.98710379E-02  1.17752823E-09  6.62438578E-09  4.55003398E-02
 -2.79533515E-01 -8.78203158E-02  1.63506201E-01  7.69886251E-10 -1.32267496E-01
  4.98198258E-02 -1.16543141E-01 -9.53754072E-09  6.40051215E-02  2.78132279E-01
  1.76896257E-01  7.24533630E-02 -1.82536333E-09 -7.12444672E-09  2.62690592E-01
 -1.61385096E+00 -6.63711664E-02  3.28992875E-02  4.03426855E-09 -7.63636150E-01
  4.50220499E-02 -8.73353051E-02 -9.90214922E-10  9.82975495E-01  9.92311069E-01
  1.02128860E+00 -5.12657296E-02  2.71816674E-09 -5.63212824E-09 -8.87079867E-02
  1.37711547E-01  1.85838104E-02 -2.88501788E-02  1.07292322E-01 -1.66561949E-01
  8.87079867E-02 -1.37711547E-01 -1.85838104E-02  2.88501788E-02 -1.07292322E-01
  1.66561949E-01 -1.77934069E-01  1.09314623E+00  9.20106404E-02  1.14798662E-01
 -1.71614969E-09  5.17246353E-01 -1.00553193E-01 -5.58538464E-02  7.08991304E-09
 -7.54808072E-01 -5.83156978E-01 -6.91772315E-01 -5.30021689E-02  5.53124757E-09
  5.71521557E-09 -2.77059254E-01  1.70212502E+00  4.52830056E-02 -9.03470325E-03
 -4.36514124E-09  8.05408076E-01 -9.01062178E-02 -2.81597412E-02  3.16019624E-09
 -1.06177569E+00 -1.02155480E+00 -1.07715107E+00  6.84317477E-03 -6.89651182E-09
 -1.99667998E-09 -9.91249631E-02  6.08979667E-01  1.75889354E-01  1.24142924E-02
 -1.60726496E-09  2.88150194E-01 -1.19313274E-01 -3.29530446E-02  9.88145640E-09
 -3.70921144E-01 -3.74443859E-01 -3.85378221E-01 -1.35858998E-01 -4.82382752E-09
 -6.29691452E-09  1.77934069E-01 -1.09314623E+00  9.20106404E-02  1.14798662E-01
  1.71614969E-09 -5.17246353E-01 -1.00553193E-01 -5.58538464E-02 -7.08991304E-09
  7.54808072E-01  5.83156978E-01  6.91772315E-01  5.30021689E-02  5.53124757E-09
  5.71521557E-09  2.77059254E-01 -1.70212502E+00  4.52830056E-02 -9.03470325E-03
  4.36514124E-09 -8.05408076E-01 -9.01062178E-02 -2.81597412E-02 -3.16019624E-09
  1.06177569E+00  1.02155480E+00  1.07715107E+00 -6.84317477E-03 -6.89651182E-09
 -1.99667998E-09  9.91249631E-02 -6.08979667E-01  1.75889354E-01  1.24142924E-02
  1.60726496E-09 -2.88150194E-01 -1.19313274E-01 -3.29530446E-02 -9.88145640E-09
  3.70921144E-01  3.74443859E-01  3.85378221E-01  1.35858998E-01 -4.82382752E-09
 -6.29691452E-09  7.26743479E-02 -1.12821268E-01  1.13160728E-01 -1.75671861E-01
  4.04860726E-02 -6.28519912E-02 -7.26743479E-02  1.12821268E-01 -1.13160728E-01
  1.75671861E-01 -4.04860726E-02  6.28519912E-02  1.41309106E-01 -8.27373035E-01
  1.39650496E-02  1.83258631E-01  5.46816916E-09 -8.98252139E-01  7.39184035E-02
 -2.35195212E-01 -1.05638484E-08  4.94935460E-01  7.45017350E-01  5.26924747E-01
 -5.29955835E-03  5.55338127E-09  1.34104764E-08 -2.81480358E-01  1.64808505E+00
  1.36980061E-01  7.96022766E-02  1.83675457E-09  1.78926619E+00 -3.13068541E-01
 -1.81270831E-01  3.59043357E-09 -1.17639194E+00 -1.29352821E+00 -1.04960681E+00
  1.16446814E-01 -6.45104343E-09 -7.72958818E-09  1.40170419E-01 -8.20706509E-01
  1.66136707E-01 -7.88941192E-02  4.22661342E-09 -8.91012839E-01 -1.67175085E-01
  1.80147539E-01 -8.35000672E-09  6.73054227E-01  5.56907101E-01  5.22678787E-01
 -1.28035605E-01 -6.67253514E-09  6.72555531E-09  1.41309106E-01 -8.27373035E-01
 -1.39650496E-02 -1.83258631E-01  5.46816916E-09 -8.98252139E-01 -7.39184035E-02
  2.35195212E-01 -1.05638484E-08  4.94935460E-01  7.45017350E-01  5.26924747E-01
 -5.29955835E-03 -5.55338127E-09 -1.34104764E-08 -2.81480358E-01  1.64808505E+00
 -1.36980061E-01 -7.96022766E-02  1.83675457E-09  1.78926619E+00  3.13068541E-01
  1.81270831E-01  3.59043357E-09 -1.17639194E+00 -1.29352821E+00 -1.04960681E+00
  1.16446814E-01  6.45104343E-09  7.72958818E-09  1.40170419E-01 -8.20706509E-01
 -1.66136707E-01  7.88941192E-02  4.22661342E-09 -8.91012839E-01  1.67175085E-01
 -1.80147539E-01 -8.35000672E-09  6.73054227E-01  5.56907101E-01  5.22678787E-01
 -1.28035605E-01  6.67253514E-09 -6.72555531E-09 -4.58356092E-02  8.61509439E-02
  9.13022915E-02 -1.71608655E-01 -4.54663716E-02  8.54575021E-02 -4.58356092E-02
  8.61509439E-02  9.13022915E-02 -1.71608655E-01 -4.54663716E-02  8.54575021E-02
  2.43440543E-01 -1.42536077E+00 -1.66749657E-01 -1.47824984E-02  9.42846255E-09
 -1.54745880E+00  3.19343470E-01 -7.26223460E-02 -1.81121266E-08  1.07322566E+00
  1.06290462E+00  9.07761054E-01  1.37919247E-01 -7.07459247E-09 -5.57289455E-09
  6.57782975E-04 -3.85217948E-03 -9.61102280E-02  1.65727947E-01  5.97453635E-09
 -4.17949348E-03  9.71198405E-02 -1.66527720E-01 -7.67146782E-09  1.13482398E-01
 -1.07710874E-01  2.45292815E-03 -7.40935623E-02  6.87978643E-09 -7.16375265E-09
 -2.44097146E-01  1.42920440E+00  9.54017635E-02  1.37388589E-01  4.63752668E-09
  1.55163604E+00 -9.59982174E-02 -3.13716119E-01 -9.35003128E-10 -1.17207735E+00
 -9.69815305E-01 -9.10209276E-01 -7.35234677E-02 -7.79502692E-09 -6.91000496E-09
  2.43440543E-01 -1.42536077E+00  1.66749657E-01  1.47824984E-02  9.42846255E-09
 -1.54745880E+00 -3.19343470E-01  7.26223460E-02 -1.81121266E-08  1.07322566E+00
  1.06290462E+00  9.07761054E-01  1.37919247E-01  7.07459247E-09  5.57289455E-09
  6.57782975E-04 -3.85217948E-03  9.61102280E-02 -1.65727947E-01  5.97453635E-09
 -4.17949348E-03 -9.71198405E-02  1.66527720E-01 -7.67146782E-09  1.13482398E-01
 -1.07710874E-01  2.45292815E-03 -7.40935623E-02 -6.87978643E-09  7.16375265E-09
 -2.44097146E-01  1.42920440E+00 -9.54017635E-02 -1.37388589E-01  4.63752668E-09
  1.55163604E+00  9.59982174E-02  3.13716119E-01 -9.35003128E-10 -1.17207735E+00
 -9.69815305E-01 -9.10209276E-01 -7.35234677E-02  7.79502692E-09  6.91000496E-09
 -7.89635122E-02  1.48417102E-01 -2.13543877E-04  4.01318826E-04  7.91765753E-02
 -1.48817453E-01 -7.89635122E-02  1.48417102E-01 -2.13543877E-04  4.01318826E-04
  7.91765753E-02 -1.48817453E-01 -2.15630973E-01  1.01043654E+00  1.40907720E-01
 -8.13538957E-02 -7.18132434E-09  3.55518412E+00 -1.28707180E+00  7.43089108E-01
  3.84841551E-08 -8.83106530E-01 -1.04908870E+00 -7.35830902E-01 -1.65981387E-01
  1.36379324E-09 -8.10627965E-10  2.15630912E-01 -1.01043550E+00 -1.40908303E-01
 -8.13537459E-02 -9.25631654E-09 -3.55518362E+00  1.28707307E+00  7.43091375E-01
  7.66379329E-08  8.83106585E-01  1.04908824E+00  7.35830461E-01 -1.65981660E-01
 -1.13449426E-09  1.91694254E-08 -2.15630808E-01  1.01043551E+00 -4.48542562E-07
  1.62706681E-01  9.21327545E-09  3.55518301E+00  1.49929285E-07 -1.48618308E+00
 -7.62293675E-08 -1.13207816E+00 -8.00115753E-01 -7.35830218E-01 -2.09398675E-07
 -1.71885149E-08 -8.34385835E-09  2.15630973E-01 -1.01043654E+00  1.40907720E-01
 -8.13538957E-02  7.18132434E-09 -3.55518412E+00 -1.28707180E+00  7.43089108E-01
 -3.84841551E-08  8.83106530E-01  1.04908870E+00  7.35830902E-01  1.65981387E-01
  1.36379324E-09 -8.10627965E-10 -2.15630912E-01  1.01043550E+00 -1.40908303E-01
 -8.13537459E-02  9.25631654E-09  3.55518362E+00  1.28707307E+00  7.43091375E-01
 -7.66379329E-08 -8.83106585E-01 -1.04908824E+00 -7.35830461E-01  1.65981660E-01
 -1.13449426E-09  1.91694254E-08  2.15630808E-01 -1.01043551E+00 -4.48542562E-07
  1.62706681E-01 -9.21327545E-09 -3.55518301E+00  1.49929285E-07 -1.48618308E+00
  7.62293675E-08  1.13207816E+00  8.00115753E-01  7.35830218E-01  2.09398675E-07
 -1.71885149E-08 -8.34385835E-09  8.53256994E-02  1.27616285E-01 -8.53258868E-02
 -1.27617312E-01  8.53258472E-02  1.27617138E-01 -8.53256994E-02 -1.27616285E-01
  8.53258868E-02  1.27617312E-01 -8.53258472E-02 -1.27617138E-01
Orthonormal basis                          R   N=       10404
  1.06059658E-02  5.79103867E-02 -2.05702294E-02  1.18764035E-02  1.14800972E-09
  8.12864924E-02 -5.18019762E-02  2.99045539E-02  2.58515381E-09  4.86553308E-02
  4.91017117E-02  3.91796271E-02  7.17453311E-04 -6.27653926E-10  3.63715867E-10
  1.06059683E-02  5.79103936E-02 -2.05702352E-02 -1.18764076E-02 -7.91907575E-12
  8.12864819E-02 -5.18019455E-02 -2.99045760E-02 -4.41350903E-11  4.86553420E-02
  4.91017093E-02  3.91796323E-02 -7.17445467E-04  2.94840410E-10  5.63838429E-10
  1.06098775E-02  5.79290536E-02  3.64812366E-08 -2.37567648E-02 -1.39082943E-11
  8.12950879E-02  5.45408441E-08 -5.98063701E-02 -5.16087383E-11  4.93501138E-02
  4.84379935E-02  3.91911641E-02 -1.91423549E-10  3.42429666E-10  5.32359750E-10
  1.06059658E-02  5.79103867E-02  2.05702294E-02 -1.18764035E-02  1.14800972E-09
  8.12864924E-02  5.18019762E-02 -2.99045539E-02  2.58515381E-09  4.86553308E-02
  4.91017117E-02  3.91796271E-02  7.17453311E-04  6.27653926E-10 -3.63715867E-10
  1.06059683E-02  5.79103936E-02  2.05702352E-02  1.18764076E-02 -7.91907575E-12
  8.12864819E-02  5.18019455E-02  2.99045760E-02 -4.41350903E-11  4.86553420E-02
  4.91017093E-02  3.91796323E-02 -7.17445467E-04 -2.94840410E-10 -5.63838429E-10
  1.06098775E-02  5.79290536E-02 -3.64812366E-08  2.37567648E-02 -1.39082943E-11
  8.12950879E-02 -5.45408441E-08  5.98063701E-02 -5.16087383E-11  4.93501138E-02
  4.84379935E-02  3.91911641E-02 -1.91423549E-10 -3.42429666E-10 -5.32359750E-10
  1.22122975E-02  3.27594751E-02  1.22122976E-02  3.27594712E-02  1.22268831E-02
  3.27693254E-02  1.22122975E-02  3.27594751E-02  1.22122976E-02  3.27594712E-02
  1.22268831E-02  3.27693254E-02 -2.04109409E-02 -8.29755135E-02 -4.98981483E-03
  4.76657482E-02  3.29618959E-09 -6.45271984E-02 -2.41041415E-02  8.76211329E-02
  7.90331224E-09 -6.97727458E-02 -5.41105689E-02 -6.38391501E-02  1.43501360E-03
  3.81217673E-10  1.33460532E-09  2.03930468E-02  8.29028794E-02  4.91814648E-03
  4.77417984E-02  5.25501005E-09  6.44705549E-02  2.39718008E-02  8.77398196E-02
  9.99725347E-09  6.97304269E-02  5.40445671E-02  6.37831542E-02  1.41203364E-03
  1.16128438E-09 -1.07396045E-11  1.80150826E-05  7.32827170E-05  7.70606475E-02
  2.56415642E-05  3.99726507E-09  5.70192877E-05  1.27768094E-01  5.82333130E-05
  8.42583728E-09  5.10993265E-05  5.83569118E-05  5.63471144E-05 -2.31837177E-02
 -7.95725071E-10 -1.10944721E-09 -2.04109409E-02 -8.29755135E-02  4.98981483E-03
 -4.76657482E-02  3.29618959E-09 -6.45271984E-02  2.41041415E-02 -8.76211329E-02
  7.90331224E-09 -6.97727458E-02 -5.41105689E-02 -6.38391501E-02  1.43501360E-03
 -3.81217673E-10 -1.33460532E-09  2.03930468E-02  8.29028794E-02 -4.91814648E-03
 -4.77417984E-02  5.25501005E-09  6.44705549E-02 -2.39718008E-02 -8.77398196E-02
  9.99725347E-09  6.97304269E-02  5.40445671E-02  6.37831542E-02  1.41203364E-03
 -1.16128438E-09  1.07396045E-11  1.80150826E-05  7.32827170E-05 -7.70606475E-02
 -2.56415642E-05  3.99726507E-09  5.70192877E-05 -1.27768094E-01 -5.82333130E-05
  8.42583728E-09  5.10993265E-05  5.83569118E-05  5.63471144E-05 -2.31837177E-02
  7.95725071E-10  1.10944721E-09 -6.02020466E-02 -7.54734101E-02  6.01489842E-02
  7.54075830E-02  5.35618831E-05  6.72687280E-05 -6.02020466E-02 -7.54734101E-02
  6.01489842E-02  7.54075830E-02  5.35618831E-05  6.72687280E-05 -1.17132108E-02
 -4.75460572E-02 -4.70558234E-02 -4.97967838E-02  1.89198449E-09 -3.70836180E-02
 -8.68905307E-02 -7.76664597E-02  4.50785948E-09 -2.76773100E-02 -4.32320795E-02
 -3.66507478E-02  1.50157316E-02 -1.29542828E-09 -1.87350206E-09 -1.17443842E-02
 -4.76727712E-02 -4.70634579E-02  4.97238877E-02  1.55668214E-09 -3.71821428E-02
 -8.69273538E-02  7.75325046E-02  3.89990462E-09 -2.77838513E-02 -4.33147143E-02
 -3.67482424E-02 -1.50179243E-02 -1.33994072E-09 -1.43221863E-09  2.35911666E-02
  9.59474986E-02 -5.88891994E-05  3.33517495E-02  3.69073099E-09  7.46411155E-02
 -9.76686037E-05  7.58343629E-02  6.58609137E-09  6.68466956E-02  7.64454596E-02
  7.37854055E-02  1.77639643E-05 -1.85596004E-10  1.77518687E-09 -1.17132108E-02
 -4.75460572E-02  4.70558234E-02  4.97967838E-02  1.89198449E-09 -3.70836180E-02
  8.68905307E-02  7.76664597E-02  4.50785948E-09 -2.76773100E-02 -4.32320795E-02
 -3.66507478E-02  1.50157316E-02  1.29542828E-09  1.87350206E-09 -1.17443842E-02
 -4.76727712E-02  4.70634579E-02 -4.97238877E-02  1.55668214E-09 -3.71821428E-02
  8.69273538E-02 -7.75325046E-02  3.89990462E-09 -2.77838513E-02 -4.33147143E-02
 -3.67482424E-02 -1.50179243E-02  1.33994072E-09  1.43221863E-09  2.35911666E-02
  9.59474986E-02  5.88891994E-05 -3.33517495E-02  3.69073099E-09  7.46411155E-02
  9.76686037E-05 -7.58343629E-02  6.58609137E-09  6.68466956E-02  7.64454596E-02
  7.37854055E-02  1.77639643E-05  1.85596004E-10 -1.77518687E-09 -3.48153210E-02
 -4.32021385E-02 -3.49072794E-02 -4.33173990E-02  6.98790311E-02  8.77096716E-02
 -3.48153210E-02 -4.32021385E-02 -3.49072794E-02 -4.33173990E-02  6.98790311E-02
  8.77096716E-02  3.69117272E-03  2.22570111E-02  7.99692506E-02 -4.47922843E-02
  1.15962646E-08  3.49167845E-02  1.22235173E-01 -6.86548104E-02  2.44138001E-08
  1.24728136E-02  2.62961847E-02  1.33228372E-02  2.41803737E-02 -3.12871036E-09
  1.87691459E-09  3.69108099E-03  2.22566708E-02  7.99691124E-02  4.47921176E-02
  1.67616046E-08  3.49165811E-02  1.22234884E-01  6.86545488E-02  2.93926471E-08
  1.24725222E-02  2.62959859E-02  1.33225709E-02 -2.41804619E-02 -1.30944491E-09
  7.57512275E-10  3.45128201E-03  2.14769597E-02 -1.75193965E-07  9.04607672E-02
  1.66417963E-08  3.37630416E-02 -2.76992081E-07  1.38951232E-01  2.92913385E-08
  3.34152145E-02  4.41343738E-03  1.24922872E-02  1.57771679E-07  1.36241076E-09
 -8.04259547E-10  3.69117272E-03  2.22570111E-02 -7.99692506E-02  4.47922843E-02
  1.15962646E-08  3.49167845E-02 -1.22235173E-01  6.86548104E-02  2.44138001E-08
  1.24728136E-02  2.62961847E-02  1.33228372E-02  2.41803737E-02  3.12871036E-09
 -1.87691459E-09  3.69108099E-03  2.22566708E-02 -7.99691124E-02 -4.47921176E-02
  1.67616046E-08  3.49165811E-02 -1.22234884E-01 -6.86545488E-02  2.93926471E-08
  1.24725222E-02  2.62959859E-02  1.33225709E-02 -2.41804619E-02  1.30944491E-09
 -7.57512275E-10  3.45128201E-03  2.14769597E-02  1.75193965E-07 -9.04607672E-02
  1.66417963E-08  3.37630416E-02  2.76992081E-07 -1.38951232E-01  2.92913385E-08
  3.34152145E-02  4.41343738E-03  1.24922872E-02  1.57771679E-07 -1.36241076E-09
  8.04259547E-10  7.54844533E-02  9.44410859E-02  7.54841118E-02  9.44407413E-02
  7.49879005E-02  9.30699325E-02  7.54844533E-02  9.44410859E-02  7.54841118E-02
  9.44407413E-02  7.49879005E-02  9.30699325E-02  8.57778211E-10  9.32617255E-10
 -1.18388119E-08  6.22202670E-09  1.10763610E-01 -4.33786529E-09 -1.36013692E-08
  7.27069270E-09  1.95899202E-01  4.90777184E-10 -2.62358433E-09  3.54203292E-09
 -5.40682067E-09 -2.86020309E-02  1.65134129E-02 -2.05949537E-09 -9.33715851E-09
 -1.01716005E-08 -1.83019735E-08  1.10763626E-01 -9.49752762E-09 -1.78429451E-08
 -2.56377545E-08  1.95899178E-01 -6.54147409E-09 -7.29329773E-09 -7.35484849E-09
  8.51777531E-09 -2.86020645E-02 -1.65134186E-02 -1.97980123E-09 -9.08799553E-09
 -1.12218453E-08 -1.78606899E-08  1.10763564E-01 -9.21109083E-09 -1.37783888E-08
 -2.81150091E-08  1.95899114E-01 -1.07391593E-08 -2.79846149E-09 -7.09556544E-09
  3.45471930E-09  6.05687128E-08 -3.30268207E-02  8.57778211E-10  9.32617255E-10
  1.18388119E-08 -6.22202670E-09  1.10763610E-01 -4.33786529E-09  1.36013692E-08
 -7.27069270E-09  1.95899202E-01  4.90777184E-10 -2.62358433E-09  3.54203292E-09
 -5.40682067E-09  2.86020309E-02 -1.65134129E-02 -2.05949537E-09 -9.33715851E-09
  1.01716005E-08  1.83019735E-08  1.10763626E-01 -9.49752762E-09  1.78429451E-08
  2.56377545E-08  1.95899178E-01 -6.54147409E-09 -7.29329773E-09 -7.35484849E-09
  8.51777531E-09  2.86020645E-02  1.65134186E-02 -1.97980123E-09 -9.08799553E-09
  1.12218453E-08  1.78606899E-08  1.10763564E-01 -9.21109083E-09  1.37783888E-08
  2.81150091E-08  1.95899114E-01 -1.07391593E-08 -2.79846149E-09 -7.09556544E-09
  3.45471930E-09 -6.05687128E-08  3.30268207E-02 -1.27370442E-08 -1.56821387E-08
 -5.40859000E-09 -6.88525982E-09 -5.76358391E-09 -6.95048061E-09 -1.27370442E-08
 -1.56821387E-08 -5.40859000E-09 -6.88525982E-09 -5.76358391E-09 -6.95048061E-09
 -1.30104281E-02 -3.57909926E-02  1.78659010E-01  1.50241400E-02  3.22213645E-09
  6.91593970E-03  9.68121742E-02 -1.67638453E-02  6.09626011E-09 -2.68276354E-02
 -1.84550588E-02 -2.93886890E-02 -1.24435429E-01 -1.01942658E-08  3.42647297E-09
  1.30105045E-02  3.57911406E-02 -1.78659038E-01  1.50227840E-02 -6.96853974E-09
 -6.91605712E-03 -9.68121708E-02 -1.67645243E-02 -3.17605228E-09  2.68274864E-02
  1.84553723E-02  2.93888085E-02 -1.24435510E-01 -2.26895741E-08 -1.06264812E-08
 -8.93774945E-09 -6.57642338E-08  2.03524600E-01  5.34553536E-07  1.84117825E-08
 -5.34451752E-08  6.76701131E-02  3.51986838E-07  1.62925504E-08 -8.03640237E-08
 -1.02254365E-08 -6.86530877E-08 -1.38856690E-01 -7.95316048E-09 -9.07016242E-09
 -1.30104281E-02 -3.57909926E-02 -1.78659010E-01 -1.50241400E-02  3.22213645E-09
  6.91593970E-03 -9.68121742E-02  1.67638453E-02  6.09626011E-09 -2.68276354E-02
 -1.84550588E-02 -2.93886890E-02 -1.24435429E-01  1.01942658E-08 -3.42647297E-09
  1.30105045E-02  3.57911406E-02  1.78659038E-01 -1.50227840E-02 -6.96853974E-09
 -6.91605712E-03  9.68121708E-02  1.67645243E-02 -3.17605228E-09  2.68274864E-02
  1.84553723E-02  2.93888085E-02 -1.24435510E-01  2.26895741E-08  1.06264812E-08
 -8.93774945E-09 -6.57642338E-08 -2.03524600E-01 -5.34553536E-07  1.84117825E-08
 -5.34451752E-08 -6.76701131E-02 -3.51986838E-07  1.62925504E-08 -8.03640237E-08
 -1.02254365E-08 -6.86530877E-08 -1.38856690E-01  7.95316048E-09  9.07016242E-09
  1.60467598E-01  9.95237127E-02 -1.60468280E-01 -9.95242083E-02  4.81560134E-07
  2.63281310E-07  1.60467598E-01  9.95237127E-02 -1.60468280E-01 -9.95242083E-02
  4.81560134E-07  2.63281310E-07  8.43187069E-03  2.12408032E-02  2.20033280E-02
  2.15969243E-01 -1.04194720E-09 -3.85044365E-03 -1.03362177E-02  9.34064262E-02
 -2.32824047E-09 -5.13639138E-02  7.65714623E-02  1.87559157E-02  1.77130000E-02
  2.53335757E-09 -1.28305235E-08  8.43162552E-03  2.12401436E-02  2.20044933E-02
 -2.15969229E-01 -3.15724255E-08 -3.85045719E-03 -1.03357947E-02 -9.34061392E-02
 -2.46644437E-08 -5.13646746E-02  7.65713932E-02  1.87553811E-02 -1.77124324E-02
 -1.16796716E-08  8.46033004E-09 -1.60583803E-02 -3.92818825E-02 -4.82568500E-07
  1.77361958E-01  2.47206673E-08  5.75629655E-03  9.95012427E-09  1.13164893E-01
  1.77488694E-08 -8.95716097E-02  4.44689532E-02 -3.59840983E-02  8.69451760E-07
 -1.01859786E-08  2.85353378E-08  8.43187069E-03  2.12408032E-02 -2.20033280E-02
 -2.15969243E-01 -1.04194720E-09 -3.85044365E-03  1.03362177E-02 -9.34064262E-02
 -2.32824047E-09 -5.13639138E-02  7.65714623E-02  1.87559157E-02  1.77130000E-02
 -2.53335757E-09  1.28305235E-08  8.43162552E-03  2.12401436E-02 -2.20044933E-02
  2.15969229E-01 -3.15724255E-08 -3.85045719E-03  1.03357947E-02  9.34061392E-02
 -2.46644437E-08 -5.13646746E-02  7.65713932E-02  1.87553811E-02 -1.77124324E-02
  1.16796716E-08 -8.46033004E-09 -1.60583803E-02 -3.92818825E-02  4.82568500E-07
 -1.77361958E-01  2.47206673E-08  5.75629655E-03 -9.95012427E-09 -1.13164893E-01
  1.77488694E-08 -8.95716097E-02  4.44689532E-02 -3.59840983E-02  8.69451760E-07
  1.01859786E-08 -2.85353378E-08 -1.04440567E-01 -6.31135022E-02 -1.04439857E-01
 -6.31129888E-02  1.98760792E-01  1.21472868E-01 -1.04440567E-01 -6.31135022E-02
 -1.04439857E-01 -6.31129888E-02  1.98760792E-01  1.21472868E-01  4.03141219E-03
  1.99750866E-02  3.95529646E-02  1.77671139E-02  2.90394652E-08 -1.65895090E-02
  5.45610564E-02  1.79926482E-02  2.00640292E-08 -3.33642217E-03  4.02977295E-02
  6.81836549E-03  3.25931369E-01  2.16972751E-09  5.15439261E-09  4.03152396E-03
  1.99753063E-02  3.95529838E-02 -1.77671876E-02 -6.99919493E-09 -1.65894355E-02
  5.45610008E-02 -1.79927164E-02 -4.35536772E-09 -3.33616551E-03  4.02976892E-02
  6.81857797E-03 -3.25931300E-01 -2.43781829E-08 -2.46786496E-08  2.27436947E-02
  7.35165045E-02 -9.35734937E-08 -4.37210728E-02 -1.41941725E-08 -2.58027164E-02
 -7.10249911E-08  9.70637877E-03 -7.57690802E-09  1.71739016E-01 -6.04455932E-02
  4.15091992E-02  3.98337172E-07 -1.37758288E-09 -2.75680202E-08  4.03141219E-03
  1.99750866E-02 -3.95529646E-02 -1.77671139E-02  2.90394652E-08 -1.65895090E-02
 -5.45610564E-02 -1.79926482E-02  2.00640292E-08 -3.33642217E-03  4.02977295E-02
  6.81836549E-03  3.25931369E-01 -2.16972751E-09 -5.15439261E-09  4.03152396E-03
  1.99753063E-02 -3.95529838E-02  1.77671876E-02 -6.99919493E-09 -1.65894355E-02
 -5.45610008E-02  1.79927164E-02 -4.35536772E-09 -3.33616551E-03  4.02976892E-02
  6.81857797E-03 -3.25931300E-01  2.43781829E-08  2.46786496E-08  2.27436947E-02
  7.35165045E-02  9.35734937E-08  4.37210728E-02 -1.41941725E-08 -2.58027164E-02
  7.10249911E-08 -9.70637877E-03 -7.57690802E-09  1.71739016E-01 -6.04455932E-02
  4.15091992E-02  3.98337172E-07  1.37758288E-09  2.75680202E-08 -1.08273205E-01
 -3.77986169E-02 -1.08273176E-01 -3.77986450E-02 -1.03727231E-01 -6.71500825E-02
 -1.08273205E-01 -3.77986169E-02 -1.08273176E-01 -3.77986450E-02 -1.03727231E-01
 -6.71500825E-02  2.01699751E-09  5.01448787E-09 -4.40571787E-09 -2.98087871E-09
 -1.60949946E-01 -1.40341878E-09  3.74611554E-09  7.28071767E-09 -9.31882686E-02
  1.16135401E-08 -8.64154513E-10 -7.63450479E-10  2.00123011E-08 -1.08762809E-01
 -2.63370060E-01 -2.19761461E-09 -5.70947972E-09  3.82889242E-09  2.45017796E-08
 -6.56971810E-02 -6.80549832E-11  3.81552097E-09  8.21323177E-09 -3.80379434E-02
 -1.60922866E-09 -1.17954435E-08  1.75073923E-09 -1.05244662E-08 -1.73996547E-01
  3.31979436E-01  3.60289583E-10  2.60206426E-09 -1.80258735E-09 -2.48185828E-08
  2.26647145E-01 -5.16752648E-09  6.36021966E-09 -1.32350952E-08  1.31226332E-01
  1.46985515E-08 -7.27854439E-09 -1.92665850E-09  1.78335537E-08  9.20343456E-02
 -5.27979085E-02  2.01699751E-09  5.01448787E-09  4.40571787E-09  2.98087871E-09
 -1.60949946E-01 -1.40341878E-09 -3.74611554E-09 -7.28071767E-09 -9.31882686E-02
  1.16135401E-08 -8.64154513E-10 -7.63450479E-10  2.00123011E-08  1.08762809E-01
  2.63370060E-01 -2.19761461E-09 -5.70947972E-09 -3.82889242E-09 -2.45017796E-08
 -6.56971810E-02 -6.80549832E-11 -3.81552097E-09 -8.21323177E-09 -3.80379434E-02
 -1.60922866E-09 -1.17954435E-08  1.75073923E-09 -1.05244662E-08  1.73996547E-01
 -3.31979436E-01  3.60289583E-10  2.60206426E-09  1.80258735E-09  2.48185828E-08
  2.26647145E-01 -5.16752648E-09 -6.36021966E-09  1.32350952E-08  1.31226332E-01
  1.46985515E-08 -7.27854439E-09 -1.92665850E-09  1.78335537E-08 -9.20343456E-02
  5.27979085E-02  1.27133542E-10  2.66580763E-10  8.53270524E-10  1.48752522E-09
 -8.17239267E-09 -2.76616016E-09  1.27133542E-10  2.66580763E-10  8.53270524E-10
  1.48752522E-09 -8.17239267E-09 -2.76616016E-09  1.42729254E-09  2.67155172E-09
  8.81895739E-10  1.13314551E-08 -1.68785158E-01 -8.44443962E-10 -4.07371613E-09
 -3.25952026E-10 -9.77249169E-02 -2.29219525E-09  9.30698198E-09 -1.87438539E-09
  1.04121893E-08  1.68727780E-01  2.13608551E-01 -1.13426820E-09 -9.60046661E-10
 -1.08659557E-08 -2.13869075E-08  2.23779444E-01 -4.62274855E-09 -8.56781857E-09
 -7.96141929E-09  1.29565744E-01 -3.22232746E-09  5.85869378E-09 -4.32346542E-09
 -1.53213139E-08 -1.00118876E-01  6.91512097E-02 -8.26892285E-10 -2.14452321E-09
  1.26899804E-08  1.21590847E-08 -5.49941448E-02 -5.34460146E-10  1.76366094E-09
  6.09480245E-09 -3.18411646E-02 -9.31494719E-09  8.06740911E-10  3.95301417E-09
 -1.52480027E-08  3.79300431E-01  1.28111296E-02  1.42729254E-09  2.67155172E-09
 -8.81895739E-10 -1.13314551E-08 -1.68785158E-01 -8.44443962E-10  4.07371613E-09
  3.25952026E-10 -9.77249169E-02 -2.29219525E-09  9.30698198E-09 -1.87438539E-09
  1.04121893E-08 -1.68727780E-01 -2.13608551E-01 -1.13426820E-09 -9.60046661E-10
  1.08659557E-08  2.13869075E-08  2.23779444E-01 -4.62274855E-09  8.56781857E-09
  7.96141929E-09  1.29565744E-01 -3.22232746E-09  5.85869378E-09 -4.32346542E-09
 -1.53213139E-08  1.00118876E-01 -6.91512097E-02 -8.26892285E-10 -2.14452321E-09
 -1.26899804E-08 -1.21590847E-08 -5.49941448E-02 -5.34460146E-10 -1.76366094E-09
 -6.09480245E-09 -3.18411646E-02 -9.31494719E-09  8.06740911E-10  3.95301417E-09
 -1.52480027E-08 -3.79300431E-01 -1.28111296E-02 -4.74198937E-09 -1.62796796E-09
 -3.62509591E-09  8.75149658E-10  7.09375167E-09  2.50853077E-09 -4.74198937E-09
 -1.62796796E-09 -3.62509591E-09  8.75149658E-10  7.09375167E-09  2.50853077E-09
  4.96442479E-02  9.34684876E-02 -1.39779145E-02  8.63968816E-02  5.76685924E-09
 -6.42565728E-03  2.48681056E-02  7.22787378E-02 -1.99563911E-09  1.71636473E-01
 -6.47249132E-02  7.41122673E-02 -4.74439833E-02 -1.95779097E-08  3.06990267E-08
 -4.96440579E-02 -9.34682403E-02  1.39772182E-02  8.63988413E-02  4.92903250E-09
  6.42565900E-03 -2.48684554E-02  7.22789715E-02  2.76115417E-10 -1.71636180E-01
  6.47247372E-02 -7.41119117E-02 -4.74444834E-02 -1.70586414E-08 -2.87980237E-08
 -3.79842096E-07 -5.12640303E-07  2.13253590E-01 -5.89462811E-07 -6.22919178E-10
 -2.72900428E-07  1.56594801E-01 -4.19629717E-07 -3.53824868E-10 -4.05306830E-08
 -2.49809873E-07 -6.58761551E-07  4.20151821E-01  2.25863471E-09 -5.25030571E-09
  4.96442479E-02  9.34684876E-02  1.39779145E-02 -8.63968816E-02  5.76685924E-09
 -6.42565728E-03 -2.48681056E-02 -7.22787378E-02 -1.99563911E-09  1.71636473E-01
 -6.47249132E-02  7.41122673E-02 -4.74439833E-02  1.95779097E-08 -3.06990267E-08
 -4.96440579E-02 -9.34682403E-02 -1.39772182E-02 -8.63988413E-02  4.92903250E-09
  6.42565900E-03  2.48684554E-02 -7.22789715E-02  2.76115417E-10 -1.71636180E-01
  6.47247372E-02 -7.41119117E-02 -4.74444834E-02  1.70586414E-08  2.87980237E-08
 -3.79842096E-07 -5.12640303E-07 -2.13253590E-01  5.89462811E-07 -6.22919178E-10
 -2.72900428E-07 -1.56594801E-01  4.19629717E-07 -3.53824868E-10 -4.05306830E-08
 -2.49809873E-07 -6.58761551E-07  4.20151821E-01 -2.25863471E-09  5.25030571E-09
  4.56595595E-02 -1.43943781E-02 -4.56593884E-02  1.43943314E-02  5.24467876E-07
  4.60168674E-08  4.56595595E-02 -1.43943781E-02 -4.56593884E-02  1.43943314E-02
  5.24467876E-07  4.60168674E-08 -6.68328249E-09 -2.21368044E-08  5.60820385E-08
  5.15867290E-08  1.33001131E-02  5.37499402E-09  2.74511827E-08  4.91941552E-08
  5.46316108E-02  7.21615342E-08 -1.00517489E-07 -1.78979673E-08  4.07029265E-08
  3.19266313E-01 -1.84328031E-01 -4.98140125E-08 -6.29298280E-08  1.24159875E-08
 -2.76694605E-08  1.33008969E-02 -5.73268467E-09  1.61228771E-08 -4.97457909E-08
  5.46321304E-02  4.93667593E-08 -1.02682641E-07 -6.26721945E-08 -9.29106852E-08
  3.19266693E-01  1.84328659E-01  3.12937639E-08  4.07095034E-08  4.68840549E-08
 -7.38090304E-08  1.33007679E-02 -7.76671600E-09  5.54358301E-09 -4.21682096E-08
  5.46320078E-02 -4.43981254E-08  8.13698969E-08  3.74672930E-08 -4.49147828E-09
 -1.88935816E-07  3.68657108E-01 -6.68328249E-09 -2.21368044E-08 -5.60820385E-08
 -5.15867290E-08  1.33001131E-02  5.37499402E-09 -2.74511827E-08 -4.91941552E-08
  5.46316108E-02  7.21615342E-08 -1.00517489E-07 -1.78979673E-08  4.07029265E-08
 -3.19266313E-01  1.84328031E-01 -4.98140125E-08 -6.29298280E-08 -1.24159875E-08
  2.76694605E-08  1.33008969E-02 -5.73268467E-09 -1.61228771E-08  4.97457909E-08
  5.46321304E-02  4.93667593E-08 -1.02682641E-07 -6.26721945E-08 -9.29106852E-08
 -3.19266693E-01 -1.84328659E-01  3.12937639E-08  4.07095034E-08 -4.68840549E-08
  7.38090304E-08  1.33007679E-02 -7.76671600E-09 -5.54358301E-09  4.21682096E-08
  5.46320078E-02 -4.43981254E-08  8.13698969E-08  3.74672930E-08 -4.49147828E-09
  1.88935816E-07 -3.68657108E-01  1.79308079E-08  1.58139668E-08  5.55461574E-08
  2.75501154E-08  5.19398193E-08 -1.03082689E-08  1.79308079E-08  1.58139668E-08
  5.55461574E-08  2.75501154E-08  5.19398193E-08 -1.03082689E-08  7.78618275E-02
  1.03450017E-01 -1.06364429E-01 -1.26050935E-01  4.51917952E-08 -1.36275273E-02
 -5.10272906E-02 -1.04454318E-01  4.60950648E-08 -1.22900933E-01  2.27445837E-01
  8.85594439E-02 -7.65109649E-02  1.79995233E-07 -1.03604233E-07  7.78620715E-02
  1.03450279E-01 -1.06364474E-01  1.26050758E-01 -9.32119047E-09 -1.36275461E-02
 -5.10273053E-02  1.04454104E-01  1.76631829E-08 -1.22900505E-01  2.27445654E-01
  8.85596487E-02  7.65107164E-02  1.07631888E-07  8.69545706E-08 -1.12234342E-01
 -1.12509848E-01 -3.90019686E-07  9.99791637E-02 -5.25352906E-09 -1.20807964E-02
 -2.96028889E-07  6.66098742E-02  1.80692468E-08  1.52937964E-01 -2.20927700E-01
 -1.27938423E-01 -3.13110840E-07  2.18394370E-08  1.33181541E-07  7.78618275E-02
  1.03450017E-01  1.06364429E-01  1.26050935E-01  4.51917952E-08 -1.36275273E-02
  5.10272906E-02  1.04454318E-01  4.60950648E-08 -1.22900933E-01  2.27445837E-01
  8.85594439E-02 -7.65109649E-02 -1.79995233E-07  1.03604233E-07  7.78620715E-02
  1.03450279E-01  1.06364474E-01 -1.26050758E-01 -9.32119047E-09 -1.36275461E-02
  5.10273053E-02 -1.04454104E-01  1.76631829E-08 -1.22900505E-01  2.27445654E-01
  8.85596487E-02  7.65107164E-02 -1.07631888E-07 -8.69545706E-08 -1.12234342E-01
 -1.12509848E-01  3.90019686E-07 -9.99791637E-02 -5.25352906E-09 -1.20807964E-02
  2.96028889E-07 -6.66098742E-02  1.80692468E-08  1.52937964E-01 -2.20927700E-01
 -1.27938423E-01 -3.13110840E-07 -2.18394370E-08 -1.33181541E-07 -7.48885652E-02
 -5.63842158E-02 -7.48883904E-02 -5.63842439E-02 -6.79773313E-02  1.60729866E-02
 -7.48885652E-02 -5.63842158E-02 -7.48883904E-02 -5.63842439E-02 -6.79773313E-02
  1.60729866E-02 -4.30622304E-08 -1.59122118E-08 -6.37055101E-08 -1.09627158E-07
 -1.82994200E-01 -5.11952741E-09  1.19987014E-08  1.60770904E-08 -9.22972179E-02
  5.28415818E-08 -5.21923507E-08 -2.05525547E-08  7.46495127E-08 -1.55350832E-01
  2.47302881E-01  2.03220527E-07  5.49418889E-08  8.11699907E-09  6.46690021E-08
 -1.13853720E-01  1.32679720E-08  2.99163578E-09 -1.02253909E-08 -5.74246435E-02
  1.52178252E-08 -5.62521802E-08  8.91439871E-08 -2.66830122E-08 -5.93794610E-02
 -2.18427199E-01 -2.02481917E-07 -5.23979601E-08 -6.51862421E-08 -8.70329080E-08
  2.96848026E-01 -2.65062503E-08  5.23456487E-09 -2.01663585E-08  1.49721849E-01
  3.28793712E-08  2.38348218E-08 -1.00469023E-07  4.78424290E-08 -2.29790904E-02
  4.18826259E-01 -4.30622304E-08 -1.59122118E-08  6.37055101E-08  1.09627158E-07
 -1.82994200E-01 -5.11952741E-09 -1.19987014E-08 -1.60770904E-08 -9.22972179E-02
  5.28415818E-08 -5.21923507E-08 -2.05525547E-08  7.46495127E-08  1.55350832E-01
 -2.47302881E-01  2.03220527E-07  5.49418889E-08 -8.11699907E-09 -6.46690021E-08
 -1.13853720E-01  1.32679720E-08 -2.99163578E-09  1.02253909E-08 -5.74246435E-02
  1.52178252E-08 -5.62521802E-08  8.91439871E-08 -2.66830122E-08  5.93794610E-02
  2.18427199E-01 -2.02481917E-07 -5.23979601E-08  6.51862421E-08  8.70329080E-08
  2.96848026E-01 -2.65062503E-08 -5.23456487E-09  2.01663585E-08  1.49721849E-01
  3.28793712E-08  2.38348218E-08 -1.00469023E-07  4.78424290E-08  2.29790904E-02
 -4.18826259E-01  2.55058718E-08  1.18880157E-08 -7.74507150E-08 -2.60178511E-08
  1.11526753E-07  2.14406514E-08  2.55058718E-08  1.18880157E-08 -7.74507150E-08
 -2.60178511E-08  1.11526753E-07  2.14406514E-08  1.26050814E-07  4.66697772E-08
  2.42074291E-08  6.21897802E-08 -2.37118645E-01 -2.88367364E-09 -2.14191139E-08
 -1.82055267E-08 -1.19595921E-01 -6.60789561E-08  6.28684089E-08  6.06562700E-08
 -1.11937476E-08 -3.42402117E-01  7.60507074E-02 -1.74225193E-07 -3.68617392E-08
 -6.51408225E-08 -1.65165343E-08  2.77036919E-01 -3.00650630E-08 -9.59170293E-09
  7.00206833E-09  1.39729587E-01 -2.85248146E-09  7.19187137E-08 -8.90241221E-08
 -3.82771041E-08  3.71276932E-01  1.38679106E-01  3.01134843E-08  6.87059020E-09
  6.66854673E-08  3.34826541E-08 -3.99184531E-02 -4.16569926E-09 -1.30628397E-08
  1.57148327E-08 -2.01336903E-02  3.82652567E-08 -3.94062458E-08  5.14891462E-09
 -7.78372674E-08 -1.70877979E-01 -5.63218149E-02  1.26050814E-07  4.66697772E-08
 -2.42074291E-08 -6.21897802E-08 -2.37118645E-01 -2.88367364E-09  2.14191139E-08
  1.82055267E-08 -1.19595921E-01 -6.60789561E-08  6.28684089E-08  6.06562700E-08
 -1.11937476E-08  3.42402117E-01 -7.60507074E-02 -1.74225193E-07 -3.68617392E-08
  6.51408225E-08  1.65165343E-08  2.77036919E-01 -3.00650630E-08  9.59170293E-09
 -7.00206833E-09  1.39729587E-01 -2.85248146E-09  7.19187137E-08 -8.90241221E-08
 -3.82771041E-08 -3.71276932E-01 -1.38679106E-01  3.01134843E-08  6.87059020E-09
 -6.66854673E-08 -3.34826541E-08 -3.99184531E-02 -4.16569926E-09  1.30628397E-08
 -1.57148327E-08 -2.01336903E-02  3.82652567E-08 -3.94062458E-08  5.14891462E-09
 -7.78372674E-08  1.70877979E-01  5.63218149E-02 -4.93181073E-08 -3.06462998E-08
  9.00295951E-08  1.48906550E-08 -3.57812478E-08 -9.23497722E-09 -4.93181073E-08
 -3.06462998E-08  9.00295951E-08  1.48906550E-08 -3.57812478E-08 -9.23497722E-09
  4.27506250E-01  7.17320565E-02  5.22974127E-02  5.41108966E-02  3.30840085E-08
  1.97603906E-02 -2.52458639E-02  1.82258987E-04  1.09451342E-08 -7.58274686E-02
 -2.21982133E-02  1.16073645E-01 -2.19211776E-02  6.88453764E-08  6.74413021E-08
 -4.27506420E-01 -7.17320315E-02 -5.22972939E-02  5.41103892E-02 -1.64080316E-07
 -1.97604552E-02  2.52458997E-02  1.82558835E-04 -8.52581034E-08  7.58270515E-02
  2.21988549E-02 -1.16073770E-01 -2.19209268E-02 -2.02906322E-07 -1.49433186E-07
  1.98064763E-06  2.64150749E-07  1.02638124E-01  4.58170447E-07  1.24243187E-07
  6.29414301E-08 -2.83093315E-02  8.30532938E-08  5.21228798E-08  9.24988860E-08
 -5.93128562E-07  4.14816678E-07 -1.59641782E-01  5.22172628E-08  1.21008730E-07
  4.27506250E-01  7.17320565E-02 -5.22974127E-02 -5.41108966E-02  3.30840085E-08
  1.97603906E-02  2.52458639E-02 -1.82258987E-04  1.09451342E-08 -7.58274686E-02
 -2.21982133E-02  1.16073645E-01 -2.19211776E-02 -6.88453764E-08 -6.74413021E-08
 -4.27506420E-01 -7.17320315E-02  5.22972939E-02 -5.41103892E-02 -1.64080316E-07
 -1.97604552E-02 -2.52458997E-02 -1.82558835E-04 -8.52581034E-08  7.58270515E-02
  2.21988549E-02 -1.16073770E-01 -2.19209268E-02  2.02906322E-07  1.49433186E-07
  1.98064763E-06  2.64150749E-07 -1.02638124E-01 -4.58170447E-07  1.24243187E-07
  6.29414301E-08  2.83093315E-02 -8.30532938E-08  5.21228798E-08  9.24988860E-08
 -5.93128562E-07  4.14816678E-07 -1.59641782E-01 -5.22172628E-08 -1.21008730E-07
 -1.09980566E-01 -4.42002611E-02  1.09980564E-01  4.42002609E-02 -6.87222227E-07
 -1.25529392E-07 -1.09980566E-01 -4.42002611E-02  1.09980564E-01  4.42002609E-02
 -6.87222227E-07 -1.25529392E-07 -1.96179906E-01 -3.95846615E-03  2.01267633E-02
  6.50513340E-02 -4.84801060E-08 -1.32147985E-02 -1.07785292E-02 -4.22208287E-02
 -1.94303592E-08 -5.61495522E-02  1.32029366E-01 -2.45412914E-02 -6.69310777E-02
 -3.57264047E-09  9.96778720E-08 -1.96177306E-01 -3.95827379E-03  2.01271291E-02
 -6.50510269E-02 -1.00446957E-07 -1.32146023E-02 -1.07787928E-02  4.22210499E-02
 -4.10854080E-08 -5.61506363E-02  1.32029653E-01 -2.45408314E-02  6.69307868E-02
 -5.57587532E-08 -9.40692234E-08  5.58720632E-01  4.67567113E-02 -1.89890221E-07
  6.82188568E-02  1.56996007E-07  1.88828940E-02  2.38598862E-07  4.28218288E-03
  7.66369475E-08 -1.00389473E-02 -1.30686711E-01  7.21259163E-02  1.16970354E-06
  1.16919686E-08  2.14851891E-07 -1.96179906E-01 -3.95846615E-03 -2.01267633E-02
 -6.50513340E-02 -4.84801060E-08 -1.32147985E-02  1.07785292E-02  4.22208287E-02
 -1.94303592E-08 -5.61495522E-02  1.32029366E-01 -2.45412914E-02 -6.69310777E-02
  3.57264047E-09 -9.96778720E-08 -1.96177306E-01 -3.95827379E-03 -2.01271291E-02
  6.50510269E-02 -1.00446957E-07 -1.32146023E-02  1.07787928E-02 -4.22210499E-02
 -4.10854080E-08 -5.61506363E-02  1.32029653E-01 -2.45408314E-02  6.69307868E-02
  5.57587532E-08  9.40692234E-08  5.58720632E-01  4.67567113E-02  1.89890221E-07
 -6.82188568E-02  1.56996007E-07  1.88828940E-02 -2.38598862E-07 -4.28218288E-03
  7.66369475E-08 -1.00389473E-02 -1.30686711E-01  7.21259163E-02  1.16970354E-06
 -1.16919686E-08 -2.14851891E-07  2.27858864E-02 -1.14420447E-03  2.27851556E-02
 -1.14436939E-03 -1.30477069E-01 -3.67822847E-02  2.27858864E-02 -1.14420447E-03
  2.27851556E-02 -1.14436939E-03 -1.30477069E-01 -3.67822847E-02  4.32681691E-01
  1.35013750E-03  3.00224501E-02 -2.04434297E-02 -1.58424632E-08  2.02405342E-02
 -3.24456240E-03  1.19822621E-02 -4.82988379E-09 -4.00477653E-02 -8.07614462E-02
 -1.29591162E-03  8.42850134E-06 -7.45257480E-09 -5.04771100E-09  4.32682776E-01
  1.35018421E-03  3.00226466E-02  2.04434057E-02  2.07388342E-08  2.02405817E-02
 -3.24460845E-03 -1.19822344E-02  8.97700169E-09 -4.00479976E-02 -8.07614609E-02
 -1.29586668E-03 -8.46184455E-06  2.01597641E-08  6.03389338E-09  3.30175426E-01
  2.95285190E-03 -8.86419300E-08  2.26178027E-02 -4.27609975E-09  1.63576301E-02
  6.96901451E-08 -9.64355022E-03 -2.07246817E-09 -6.30962627E-02 -2.40899549E-02
 -1.77412443E-03  1.21394969E-07 -1.06634086E-08 -7.86649156E-09  4.32681691E-01
  1.35013750E-03 -3.00224501E-02  2.04434297E-02 -1.58424632E-08  2.02405342E-02
  3.24456240E-03 -1.19822621E-02 -4.82988379E-09 -4.00477653E-02 -8.07614462E-02
 -1.29591162E-03  8.42850134E-06  7.45257480E-09  5.04771100E-09  4.32682776E-01
  1.35018421E-03 -3.00226466E-02 -2.04434057E-02  2.07388342E-08  2.02405817E-02
  3.24460845E-03  1.19822344E-02  8.97700169E-09 -4.00479976E-02 -8.07614609E-02
 -1.29586668E-03 -8.46184455E-06 -2.01597641E-08 -6.03389338E-09  3.30175426E-01
  2.95285190E-03  8.86419300E-08 -2.26178027E-02 -4.27609975E-09  1.63576301E-02
 -6.96901451E-08  9.64355022E-03 -2.07246817E-09 -6.30962627E-02 -2.40899549E-02
 -1.77412443E-03  1.21394969E-07  1.06634086E-08  7.86649156E-09 -2.03772362E-02
 -2.65098519E-03 -2.03774097E-02 -2.65102863E-03 -2.22585780E-03 -6.69563109E-04
 -2.03772362E-02 -2.65098519E-03 -2.03774097E-02 -2.65102863E-03 -2.22585780E-03
 -6.69563109E-04  2.52399978E-01 -1.27087592E-01 -8.08889121E-02 -8.54302332E-02
  7.34745818E-10 -2.33404637E-02  3.56890436E-02 -6.51715164E-03  6.19214450E-09
  3.87885094E-02  6.82677209E-03 -3.56145865E-01  3.69576078E-02 -2.25454375E-08
 -2.73724705E-08 -2.52399654E-01  1.27087324E-01  8.08898872E-02 -8.54304119E-02
  5.34425712E-08  2.33408080E-02 -3.56893444E-02 -6.51707688E-03  2.66235136E-08
 -3.87897706E-02 -6.82694340E-03  3.56146715E-01  3.69582236E-02  6.41559624E-08
  4.74842736E-08 -4.49552555E-07  1.54514078E-07 -1.61032397E-01  2.02256333E-07
 -4.92112199E-08  2.96656550E-07  2.93928404E-02 -1.72592364E-07 -8.63969884E-09
 -7.04826722E-07 -4.46410752E-07  1.57982717E-06  1.68160658E-01  1.84943517E-09
  9.20974108E-09  2.52399978E-01 -1.27087592E-01  8.08889121E-02  8.54302332E-02
  7.34745818E-10 -2.33404637E-02 -3.56890436E-02  6.51715164E-03  6.19214450E-09
  3.87885094E-02  6.82677209E-03 -3.56145865E-01  3.69576078E-02  2.25454375E-08
  2.73724705E-08 -2.52399654E-01  1.27087324E-01 -8.08898872E-02  8.54304119E-02
  5.34425712E-08  2.33408080E-02  3.56893444E-02  6.51707688E-03  2.66235136E-08
 -3.87897706E-02 -6.82694340E-03  3.56146715E-01  3.69582236E-02 -6.41559624E-08
 -4.74842736E-08 -4.49552555E-07  1.54514078E-07  1.61032397E-01 -2.02256333E-07
 -4.92112199E-08  2.96656550E-07 -2.93928404E-02  1.72592364E-07 -8.63969884E-09
 -7.04826722E-07 -4.46410752E-07  1.57982717E-06  1.68160658E-01 -1.84943517E-09
 -9.20974108E-09  1.64704025E-01  7.03754873E-02 -1.64704164E-01 -7.03754339E-02
 -4.70645109E-07 -1.43024518E-07  1.64704025E-01  7.03754873E-02 -1.64704164E-01
 -7.03754339E-02 -4.70645109E-07 -1.43024518E-07 -4.66206623E-02 -1.74843860E-02
  1.14536382E-01 -4.13520387E-02 -7.55069029E-08  7.48395981E-02 -3.08608401E-02
  1.44589958E-02 -1.95271736E-08 -1.65607311E-01 -1.53279171E-01  2.93038701E-01
 -1.45100486E-02  4.07928812E-08 -1.50957436E-08 -4.66191222E-02 -1.74851722E-02
  1.14536193E-01  4.13532252E-02  2.92816861E-08  7.48395484E-02 -3.08607132E-02
 -1.44588343E-02  1.43545466E-08 -1.65607755E-01 -1.53278668E-01  2.93036782E-01
  1.45093455E-02  2.20792224E-08 -3.93517921E-08 -9.44943927E-02  8.12068207E-03
  2.61500553E-07  1.32077712E-01  4.93275884E-08  8.02656485E-02  4.84039172E-08
 -3.88954348E-02  2.10082033E-08 -1.68484305E-01 -1.64501703E-01  3.68526471E-01
 -4.17038685E-07 -4.38679026E-08  1.16610755E-08 -4.66206623E-02 -1.74843860E-02
 -1.14536382E-01  4.13520387E-02 -7.55069029E-08  7.48395981E-02  3.08608401E-02
 -1.44589958E-02 -1.95271736E-08 -1.65607311E-01 -1.53279171E-01  2.93038701E-01
 -1.45100486E-02 -4.07928812E-08  1.50957436E-08 -4.66191222E-02 -1.74851722E-02
 -1.14536193E-01 -4.13532252E-02  2.92816861E-08  7.48395484E-02  3.08607132E-02
  1.44588343E-02  1.43545466E-08 -1.65607755E-01 -1.53278668E-01  2.93036782E-01
  1.45093455E-02 -2.20792224E-08  3.93517921E-08 -9.44943927E-02  8.12068207E-03
 -2.61500553E-07 -1.32077712E-01  4.93275884E-08  8.02656485E-02 -4.84039172E-08
  3.88954348E-02  2.10082033E-08 -1.68484305E-01 -1.64501703E-01  3.68526471E-01
 -4.17038685E-07  4.38679026E-08 -1.16610755E-08 -8.21692489E-02  1.22855345E-02
 -8.21685424E-02  1.22859451E-02 -1.16836406E-01 -1.60308855E-04 -8.21692489E-02
  1.22855345E-02 -8.21685424E-02  1.22859451E-02 -1.16836406E-01 -1.60308855E-04
  1.23023497E-01 -5.14540762E-02  4.46533140E-02  1.68785627E-01  4.60221464E-09
 -3.12137666E-02  1.59121007E-03 -4.82743619E-02  4.67616915E-09 -4.12012191E-02
  1.54933620E-01 -2.40112286E-01 -7.39026441E-02  1.64072767E-08  6.66055674E-08
  1.23024417E-01 -5.14547108E-02  4.46529495E-02 -1.68784010E-01 -8.99201294E-08
 -3.12137033E-02  1.59112199E-03  4.82747265E-02 -2.41084961E-08 -4.12024396E-02
  1.54934568E-01 -2.40113438E-01  7.39023741E-02 -1.64415279E-08 -7.60817395E-09
 -2.34110417E-01  1.42635038E-01  2.32593642E-07  7.53627686E-02  9.21446715E-08
  1.69003632E-02  1.66813355E-07 -1.13917999E-02  3.51367301E-08  2.14425645E-02
 -6.61547874E-02  3.78463157E-01  5.93840383E-07  1.31957241E-08  8.69925686E-08
  1.23023497E-01 -5.14540762E-02 -4.46533140E-02 -1.68785627E-01  4.60221464E-09
 -3.12137666E-02 -1.59121007E-03  4.82743619E-02  4.67616915E-09 -4.12012191E-02
  1.54933620E-01 -2.40112286E-01 -7.39026441E-02 -1.64072767E-08 -6.66055674E-08
  1.23024417E-01 -5.14547108E-02 -4.46529495E-02  1.68784010E-01 -8.99201294E-08
 -3.12137033E-02 -1.59112199E-03 -4.82747265E-02 -2.41084961E-08 -4.12024396E-02
  1.54934568E-01 -2.40113438E-01  7.39023741E-02  1.64415279E-08  7.60817395E-09
 -2.34110417E-01  1.42635038E-01 -2.32593642E-07 -7.53627686E-02  9.21446715E-08
  1.69003632E-02 -1.66813355E-07  1.13917999E-02  3.51367301E-08  2.14425645E-02
 -6.61547874E-02  3.78463157E-01  5.93840383E-07 -1.31957241E-08 -8.69925686E-08
  9.26322993E-02  1.97757006E-02  9.26325306E-02  1.97759858E-02 -2.13497334E-01
 -8.11054563E-02  9.26322993E-02  1.97757006E-02  9.26325306E-02  1.97759858E-02
 -2.13497334E-01 -8.11054563E-02 -3.30047630E-03 -1.71112041E-02 -2.09497993E-01
 -2.90110006E-01 -3.31856290E-08  5.17286532E-03 -3.76451643E-02 -4.41421248E-02
 -9.13270335E-09 -2.30260003E-01  1.74972394E-01  2.05120543E-02 -2.73715274E-01
  5.36707790E-08  3.16715132E-08  3.30057600E-03  1.71111239E-02  2.09498640E-01
 -2.90109976E-01 -5.25914899E-08 -5.17297485E-03  3.76450853E-02 -4.41421517E-02
 -1.12758490E-08  2.30260039E-01 -1.74972003E-01 -2.05126069E-02 -2.73714835E-01
  4.36225827E-08 -1.92710093E-08 -1.52425575E-07  2.18332516E-07  2.94071744E-01
  4.37302408E-07  8.61402571E-08 -3.26136285E-08 -4.79847790E-02 -3.03744787E-07
  1.02089683E-08 -2.40491832E-07 -3.50106121E-07  9.65759566E-07  1.82982458E-01
 -1.72311839E-09 -7.75496075E-08 -3.30047630E-03 -1.71112041E-02  2.09497993E-01
  2.90110006E-01 -3.31856290E-08  5.17286532E-03  3.76451643E-02  4.41421248E-02
 -9.13270335E-09 -2.30260003E-01  1.74972394E-01  2.05120543E-02 -2.73715274E-01
 -5.36707790E-08 -3.16715132E-08  3.30057600E-03  1.71111239E-02 -2.09498640E-01
  2.90109976E-01 -5.25914899E-08 -5.17297485E-03 -3.76450853E-02  4.41421517E-02
 -1.12758490E-08  2.30260039E-01 -1.74972003E-01 -2.05126069E-02 -2.73714835E-01
 -4.36225827E-08  1.92710093E-08 -1.52425575E-07  2.18332516E-07 -2.94071744E-01
 -4.37302408E-07  8.61402571E-08 -3.26136285E-08  4.79847790E-02  3.03744787E-07
  1.02089683E-08 -2.40491832E-07 -3.50106121E-07  9.65759566E-07  1.82982458E-01
  1.72311839E-09  7.75496075E-08 -4.06145069E-02 -1.49206317E-02  4.06147684E-02
  1.49204472E-02  3.31882735E-07 -4.63330225E-07 -4.06145069E-02 -1.49206317E-02
  4.06147684E-02  1.49204472E-02  3.31882735E-07 -4.63330225E-07  6.84353461E-09
 -1.82024770E-08 -5.78658754E-08  8.49660029E-08 -3.89822948E-01 -9.02649556E-10
  1.58865885E-08 -3.47830602E-09 -6.82223164E-02  5.23274617E-08 -1.76854245E-08
 -7.03315778E-08  2.75450442E-08  4.28178905E-01 -1.17874283E-01 -1.47380348E-09
  2.32765049E-09 -3.36539062E-08  2.77585130E-08  7.53873288E-02 -1.60735491E-09
  2.27145077E-09  7.20881381E-09  1.31930095E-02 -2.36869454E-08  5.98446411E-08
 -3.25727180E-08  1.23009535E-08  9.30138830E-02 -3.27321284E-01  1.91960497E-09
 -8.21890308E-09 -6.26046715E-08 -3.35151548E-08  3.14436979E-01 -1.07450879E-09
 -1.42204267E-10  1.38791939E-08  5.50285204E-02  2.95209753E-08  1.29741872E-08
 -5.94204364E-08 -1.41861050E-08 -2.17972866E-01 -3.46643217E-01  6.84353461E-09
 -1.82024770E-08  5.78658754E-08 -8.49660029E-08 -3.89822948E-01 -9.02649556E-10
 -1.58865885E-08  3.47830602E-09 -6.82223164E-02  5.23274617E-08 -1.76854245E-08
 -7.03315778E-08  2.75450442E-08 -4.28178905E-01  1.17874283E-01 -1.47380348E-09
  2.32765049E-09  3.36539062E-08 -2.77585130E-08  7.53873288E-02 -1.60735491E-09
 -2.27145077E-09 -7.20881381E-09  1.31930095E-02 -2.36869454E-08  5.98446411E-08
 -3.25727180E-08  1.23009535E-08 -9.30138830E-02  3.27321284E-01  1.91960497E-09
 -8.21890308E-09  6.26046715E-08  3.35151548E-08  3.14436979E-01 -1.07450879E-09
  1.42204267E-10 -1.38791939E-08  5.50285204E-02  2.95209753E-08  1.29741872E-08
 -5.94204364E-08 -1.41861050E-08  2.17972866E-01  3.46643217E-01  2.97384207E-08
  3.82574536E-08 -1.41601514E-08  7.95447557E-09 -6.83250159E-09  2.69108273E-08
  2.97384207E-08  3.82574536E-08 -1.41601514E-08  7.95447557E-09 -6.83250159E-09
  2.69108273E-08 -1.81519667E-09  2.62881755E-09  3.90788792E-08  1.06359948E-08
  1.38015785E-01  4.00750729E-09  3.50789586E-10  4.91541096E-09  2.41536858E-02
  2.71559914E-08 -4.36381103E-08  2.15862836E-08  5.67800052E-08  2.64114246E-02
  3.50050070E-01 -4.77494092E-09  7.67827664E-09 -2.08834750E-08  5.69168043E-08
 -4.06604902E-01  4.44896024E-09 -1.86571497E-08  2.83923755E-09 -7.11588481E-02
 -3.76343385E-08 -1.38365503E-09  5.38686201E-08  1.78985648E-08  4.18787158E-01
  1.71142305E-01  4.54473156E-09 -2.46103599E-08 -4.01501597E-08 -4.07592448E-08
  2.68589356E-01  6.78081739E-09  5.88117590E-09  9.25373067E-09  4.70050070E-02
 -3.30209829E-08  4.45610599E-09 -1.95942769E-08 -1.08171834E-08  2.55179466E-01
 -2.96099664E-01 -1.81519667E-09  2.62881755E-09 -3.90788792E-08 -1.06359948E-08
  1.38015785E-01  4.00750729E-09 -3.50789586E-10 -4.91541096E-09  2.41536858E-02
  2.71559914E-08 -4.36381103E-08  2.15862836E-08  5.67800052E-08 -2.64114246E-02
 -3.50050070E-01 -4.77494092E-09  7.67827664E-09  2.08834750E-08 -5.69168043E-08
 -4.06604902E-01  4.44896024E-09  1.86571497E-08 -2.83923755E-09 -7.11588481E-02
 -3.76343385E-08 -1.38365503E-09  5.38686201E-08  1.78985648E-08 -4.18787158E-01
 -1.71142305E-01  4.54473156E-09 -2.46103599E-08  4.01501597E-08  4.07592448E-08
  2.68589356E-01  6.78081739E-09 -5.88117590E-09 -9.25373067E-09  4.70050070E-02
 -3.30209829E-08  4.45610599E-09 -1.95942769E-08 -1.08171834E-08 -2.55179466E-01
  2.96099664E-01 -1.75063932E-09  1.24216173E-09 -2.79602476E-09 -2.08725276E-08
  1.29923146E-08  3.31596350E-08 -1.75063932E-09  1.24216173E-09 -2.79602476E-09
 -2.08725276E-08  1.29923146E-08  3.31596350E-08 -4.13235757E-03  1.09808540E-01
  3.15063536E-01 -1.79592366E-01 -2.64522188E-10 -7.58669570E-02 -6.57042986E-02
  5.95621705E-02 -1.63980097E-08  1.60139403E-01  5.26029117E-02  3.37501330E-03
 -7.48763056E-02  2.96676935E-08 -4.21079235E-09 -4.13231061E-03  1.09809373E-01
  3.15065851E-01  1.79595256E-01  6.84406663E-08 -7.58671805E-02 -6.57045612E-02
 -5.95628523E-02 -2.28950559E-08  1.60139559E-01  5.26048509E-02  3.37463658E-03
  7.48756052E-02  3.57472216E-08 -1.50743112E-08 -2.83130640E-03  1.25335831E-01
 -2.18155099E-07  3.59911203E-01  9.61688409E-08 -8.10754697E-02 -3.99924081E-07
 -9.15152877E-02 -1.79824900E-08  6.49662127E-02  1.97365956E-01 -1.48633464E-02
 -3.24435359E-07 -5.71477141E-09 -1.86823414E-08 -4.13235757E-03  1.09808540E-01
 -3.15063536E-01  1.79592366E-01 -2.64522188E-10 -7.58669570E-02  6.57042986E-02
 -5.95621705E-02 -1.63980097E-08  1.60139403E-01  5.26029117E-02  3.37501330E-03
 -7.48763056E-02 -2.96676935E-08  4.21079235E-09 -4.13231061E-03  1.09809373E-01
 -3.15065851E-01 -1.79595256E-01  6.84406663E-08 -7.58671805E-02  6.57045612E-02
  5.95628523E-02 -2.28950559E-08  1.60139559E-01  5.26048509E-02  3.37463658E-03
  7.48756052E-02 -3.57472216E-08  1.50743112E-08 -2.83130640E-03  1.25335831E-01
  2.18155099E-07 -3.59911203E-01  9.61688409E-08 -8.10754697E-02  3.99924081E-07
  9.15152877E-02 -1.79824900E-08  6.49662127E-02  1.97365956E-01 -1.48633464E-02
 -3.24435359E-07  5.71477141E-09  1.86823414E-08  3.84626187E-03 -2.47861318E-01
  3.84584854E-03 -2.47862608E-01  2.80632597E-02 -2.52918610E-01  3.84626187E-03
 -2.47861318E-01  3.84584854E-03 -2.47862608E-01  2.80632597E-02 -2.52918610E-01
  5.44972229E-03  9.91021999E-02  3.91975845E-01 -3.21303700E-01 -1.05814878E-07
 -3.42715626E-02 -3.19878721E-02  8.48575924E-02  3.00677324E-08  5.59248979E-02
  2.10769010E-01 -6.63223869E-02  1.70731630E-01  1.59072330E-08 -3.20189278E-08
 -5.44941860E-03 -9.90962462E-02 -3.91954456E-01 -3.21297770E-01 -9.09114883E-08
  3.42688414E-02  3.19796436E-02  8.48619419E-02  4.01054759E-08 -5.59193130E-02
 -2.10759126E-01  6.63189347E-02  1.70731528E-01 -4.32923213E-09 -7.16805628E-08
 -1.61683040E-07 -4.22214909E-06  2.63636977E-02 -1.65906097E-05 -4.02226205E-08
  1.17596931E-06  1.26326000E-01  3.54140329E-06  3.73366178E-08 -8.80587593E-06
 -4.39252965E-06  4.68790386E-06  1.14347986E-01  4.81909004E-09 -2.33470458E-08
  5.44972229E-03  9.91021999E-02 -3.91975845E-01  3.21303700E-01 -1.05814878E-07
 -3.42715626E-02  3.19878721E-02 -8.48575924E-02  3.00677324E-08  5.59248979E-02
  2.10769010E-01 -6.63223869E-02  1.70731630E-01 -1.59072330E-08  3.20189278E-08
 -5.44941860E-03 -9.90962462E-02  3.91954456E-01  3.21297770E-01 -9.09114883E-08
  3.42688414E-02 -3.19796436E-02 -8.48619419E-02  4.01054759E-08 -5.59193130E-02
 -2.10759126E-01  6.63189347E-02  1.70731528E-01  4.32923213E-09  7.16805628E-08
 -1.61683040E-07 -4.22214909E-06 -2.63636977E-02  1.65906097E-05 -4.02226205E-08
  1.17596931E-06 -1.26326000E-01 -3.54140329E-06  3.73366178E-08 -8.80587593E-06
 -4.39252965E-06  4.68790386E-06  1.14347986E-01 -4.81909004E-09  2.33470458E-08
 -8.74847723E-02 -1.72035552E-01  8.74824906E-02  1.72024193E-01  3.30267846E-06
  7.53091395E-06 -8.74847723E-02 -1.72035552E-01  8.74824906E-02  1.72024193E-01
  3.30267846E-06  7.53091395E-06 -3.17941487E-03 -7.71370000E-02 -2.82318029E-01
  6.96668418E-02  7.32060569E-08  2.82297258E-02  1.21174320E-01  6.97282901E-02
 -2.64937100E-08 -8.28779104E-02 -1.32774622E-01  6.04075637E-02 -1.56289563E-02
 -2.68973670E-08 -2.64854217E-08 -3.17979040E-03 -7.71440643E-02 -2.82344304E-01
 -6.96885268E-02  4.60502498E-09  2.82322802E-02  1.21177078E-01 -6.97222371E-02
 -2.58332612E-08 -8.28833300E-02 -1.32788974E-01  6.04130882E-02  1.56386035E-02
  3.49966527E-08 -4.17600259E-08  6.89811941E-03  1.51000522E-01  5.25180169E-07
  5.28145605E-01  1.05231275E-07 -5.28475445E-02  4.32574312E-06 -1.24840874E-01
 -3.45084605E-08  2.65350934E-01  1.56868631E-01 -1.17824796E-01  4.06888592E-06
  8.08312912E-08  2.94315642E-08 -3.17941487E-03 -7.71370000E-02  2.82318029E-01
 -6.96668418E-02  7.32060569E-08  2.82297258E-02 -1.21174320E-01 -6.97282901E-02
 -2.64937100E-08 -8.28779104E-02 -1.32774622E-01  6.04075637E-02 -1.56289563E-02
  2.68973670E-08  2.64854217E-08 -3.17979040E-03 -7.71440643E-02  2.82344304E-01
  6.96885268E-02  4.60502498E-09  2.82322802E-02 -1.21177078E-01  6.97222371E-02
 -2.58332612E-08 -8.28833300E-02 -1.32788974E-01  6.04130882E-02  1.56386035E-02
 -3.49966527E-08  4.17600259E-08  6.89811941E-03  1.51000522E-01 -5.25180169E-07
 -5.28145605E-01  1.05231275E-07 -5.28475445E-02 -4.32574312E-06  1.24840874E-01
 -3.45084605E-08  2.65350934E-01  1.56868631E-01 -1.17824796E-01  4.06888592E-06
 -8.08312912E-08 -2.94315642E-08  3.71871062E-02  1.41038000E-01  3.71931828E-02
  1.41050627E-01 -8.77998481E-02 -2.64747289E-01  3.71871062E-02  1.41038000E-01
  3.71931828E-02  1.41050627E-01 -8.77998481E-02 -2.64747289E-01  2.95981186E-09
 -1.60513089E-08  7.52574629E-08 -4.39012887E-08  4.69443981E-01  1.17623527E-08
  8.16987912E-09 -2.09296276E-08 -2.61744732E-01 -6.67507101E-08  2.75692440E-08
  9.52117056E-09  1.27943200E-07  1.89234149E-02 -1.09258259E-02  2.25422169E-10
  1.03547666E-08 -7.65909974E-08 -7.97687438E-08  4.69443451E-01  3.78679453E-09
 -2.06264677E-08  2.17679378E-08 -2.61744678E-01  4.00357910E-08 -6.57120668E-09
 -1.16122908E-08  1.06237155E-07  1.89239484E-02  1.09261496E-02 -3.14931065E-10
 -2.93402259E-08  4.40696117E-08 -1.25133272E-07  4.69443041E-01  1.77752964E-08
  1.93754048E-08  3.74214569E-08 -2.61744618E-01 -4.17910125E-08 -3.78873191E-08
  2.28430631E-08  7.61401380E-08 -1.85931190E-08  2.18519480E-02  2.95981186E-09
 -1.60513089E-08 -7.52574629E-08  4.39012887E-08  4.69443981E-01  1.17623527E-08
 -8.16987912E-09  2.09296276E-08 -2.61744732E-01 -6.67507101E-08  2.75692440E-08
  9.52117056E-09  1.27943200E-07 -1.89234149E-02  1.09258259E-02  2.25422169E-10
  1.03547666E-08  7.65909974E-08  7.97687438E-08  4.69443451E-01  3.78679453E-09
  2.06264677E-08 -2.17679378E-08 -2.61744678E-01  4.00357910E-08 -6.57120668E-09
 -1.16122908E-08  1.06237155E-07 -1.89239484E-02 -1.09261496E-02 -3.14931065E-10
 -2.93402259E-08 -4.40696117E-08  1.25133272E-07  4.69443041E-01  1.77752964E-08
 -1.93754048E-08 -3.74214569E-08 -2.61744618E-01 -4.17910125E-08 -3.78873191E-08
  2.28430631E-08  7.61401380E-08  1.85931190E-08 -2.18519480E-02 -2.79846995E-08
  4.34962179E-08  3.06624076E-08 -3.02402817E-08  2.46316440E-08  4.32812126E-08
 -2.79846995E-08  4.34962179E-08  3.06624076E-08 -3.02402817E-08  2.46316440E-08
  4.32812126E-08 -1.08035756E-04 -1.23599304E-01  2.54930792E-02 -3.39779809E-03
 -1.12853099E-07  4.30352692E-02  1.18034466E-01 -1.00319620E-01  6.12666369E-08
 -2.87906920E-01 -5.59793170E-02  1.01500531E-01  4.26723651E-01  1.66002648E-08
 -1.43234748E-08  1.08185734E-04  1.23598966E-01 -2.54946679E-02 -3.39803910E-03
 -8.58232835E-08 -4.30354003E-02 -1.18033172E-01 -1.00319554E-01  5.64841326E-08
  2.87904490E-01  5.59799917E-02 -1.01499312E-01  4.26724319E-01  1.39582719E-08
 -1.38532389E-10  1.08579173E-07  7.46326403E-07  2.51590802E-01  5.04953208E-07
 -1.08159369E-07 -3.38807556E-07 -4.30223722E-02 -4.26830316E-07  7.02439559E-08
 -1.92666487E-07  1.16008074E-06  5.83130784E-07  2.69797599E-01 -1.91793855E-09
 -1.56071951E-09 -1.08035756E-04 -1.23599304E-01 -2.54930792E-02  3.39779809E-03
 -1.12853099E-07  4.30352692E-02 -1.18034466E-01  1.00319620E-01  6.12666369E-08
 -2.87906920E-01 -5.59793170E-02  1.01500531E-01  4.26723651E-01 -1.66002648E-08
  1.43234748E-08  1.08185734E-04  1.23598966E-01  2.54946679E-02  3.39803910E-03
 -8.58232835E-08 -4.30354003E-02  1.18033172E-01  1.00319554E-01  5.64841326E-08
  2.87904490E-01  5.59799917E-02 -1.01499312E-01  4.26724319E-01 -1.39582719E-08
  1.38532389E-10  1.08579173E-07  7.46326403E-07 -2.51590802E-01 -5.04953208E-07
 -1.08159369E-07 -3.38807556E-07  4.30223722E-02  4.26830316E-07  7.02439559E-08
 -1.92666487E-07  1.16008074E-06  5.83130784E-07  2.69797599E-01  1.91793855E-09
  1.56071951E-09 -2.88874998E-02  2.43264775E-01  2.88875994E-02 -2.43263907E-01
  6.37681672E-07 -1.56186099E-06 -2.88874998E-02  2.43264775E-01  2.88875994E-02
 -2.43263907E-01  6.37681672E-07 -1.56186099E-06  8.59056329E-11  6.45823920E-09
  1.26606330E-08  3.40999774E-08 -1.62233205E-06 -2.11848782E-09 -9.96878349E-09
 -7.25382924E-09 -2.63756734E-07  6.01218506E-09  1.03863603E-08 -3.78955406E-09
 -2.83349661E-08 -2.76980607E-01 -4.79748137E-01  3.37745923E-09  7.40198529E-09
  5.53163348E-08  3.51389119E-09  6.41635415E-07 -5.60607165E-09 -1.37281859E-08
 -2.21644754E-10  9.39618514E-08  2.19781849E-08  2.52709065E-08 -2.98674415E-08
 -7.49829045E-09  2.76982285E-01 -4.79748675E-01 -3.10777344E-09 -1.20028124E-08
  1.17664126E-08 -5.20825361E-08  9.80686686E-07  7.37188578E-09 -4.56648793E-09
  2.45222693E-08  1.69800332E-07 -1.73230405E-08 -4.48172506E-08  3.58954308E-08
 -1.83141095E-08  5.53963494E-01 -3.68223645E-07  8.59056329E-11  6.45823920E-09
 -1.26606330E-08 -3.40999774E-08 -1.62233205E-06 -2.11848782E-09  9.96878349E-09
  7.25382924E-09 -2.63756734E-07  6.01218506E-09  1.03863603E-08 -3.78955406E-09
 -2.83349661E-08  2.76980607E-01  4.79748137E-01  3.37745923E-09  7.40198529E-09
 -5.53163348E-08 -3.51389119E-09  6.41635415E-07 -5.60607165E-09  1.37281859E-08
  2.21644754E-10  9.39618514E-08  2.19781849E-08  2.52709065E-08 -2.98674415E-08
 -7.49829045E-09 -2.76982285E-01  4.79748675E-01 -3.10777344E-09 -1.20028124E-08
 -1.17664126E-08  5.20825361E-08  9.80686686E-07  7.37188578E-09  4.56648793E-09
 -2.45222693E-08  1.69800332E-07 -1.73230405E-08 -4.48172506E-08  3.58954308E-08
 -1.83141095E-08 -5.53963494E-01  3.68223645E-07 -1.04029655E-09 -1.07756668E-08
 -3.23040354E-09 -2.58724272E-08 -4.16580552E-09  3.99122627E-08 -1.04029655E-09
 -1.07756668E-08 -3.23040354E-09 -2.58724272E-08 -4.16580552E-09  3.99122627E-08
 -2.95506713E-03 -7.78757689E-02  5.51677836E-02 -1.48787693E-01 -7.94261220E-09
  2.96047106E-02  2.81632555E-02 -3.92022328E-02 -4.21031716E-10 -4.13016725E-01
  2.71304487E-01 -1.51985854E-03  8.85338208E-02 -3.03974810E-09 -3.61938074E-08
 -2.95508104E-03 -7.78759190E-02  5.51679831E-02  1.48788625E-01 -1.30875583E-08
  2.96048297E-02  2.81638705E-02  3.92024788E-02  2.45792203E-08 -4.13017476E-01
  2.71305083E-01 -1.51996828E-03 -8.85369341E-02  3.42055988E-09 -2.41780657E-08
 -3.59808132E-03  9.32596965E-02 -6.78110276E-07 -1.70883030E-01 -2.87625677E-11
 -2.27867314E-02  6.50313849E-08 -1.92872388E-01 -1.26456921E-08 -3.16067373E-01
  5.34261295E-01 -5.12503303E-02 -1.27486311E-06  1.48103584E-08  3.05640200E-10
 -2.95506713E-03 -7.78757689E-02 -5.51677836E-02  1.48787693E-01 -7.94261220E-09
  2.96047106E-02 -2.81632555E-02  3.92022328E-02 -4.21031716E-10 -4.13016725E-01
  2.71304487E-01 -1.51985854E-03  8.85338208E-02  3.03974810E-09  3.61938074E-08
 -2.95508104E-03 -7.78759190E-02 -5.51679831E-02 -1.48788625E-01 -1.30875583E-08
  2.96048297E-02 -2.81638705E-02 -3.92024788E-02  2.45792203E-08 -4.13017476E-01
  2.71305083E-01 -1.51996828E-03 -8.85369341E-02 -3.42055988E-09  2.41780657E-08
 -3.59808132E-03  9.32596965E-02  6.78110276E-07  1.70883030E-01 -2.87625677E-11
 -2.27867314E-02 -6.50313849E-08  1.92872388E-01 -1.26456921E-08 -3.16067373E-01
  5.34261295E-01 -5.12503303E-02 -1.27486311E-06 -1.48103584E-08 -3.05640200E-10
 -2.49097443E-02  1.30012100E-01 -2.49100037E-02  1.30013057E-01  1.51282933E-01
 -2.52138770E-01 -2.49097443E-02  1.30012100E-01 -2.49100037E-02  1.30013057E-01
  1.51282933E-01 -2.52138770E-01 -4.43413406E-02 -2.16895583E-01  1.91714127E-01
 -1.02249457E-01  4.31596863E-08  1.92000361E-01 -2.98382058E-01  1.21215738E-01
 -5.05455849E-08 -1.38179182E-01 -2.65702963E-02 -2.57382700E-01  1.88459606E-01
  1.30670319E-09 -5.51640347E-09 -4.43413242E-02 -2.16894667E-01  1.91712470E-01
  1.02249095E-01 -1.67759869E-08  1.91999878E-01 -2.98381868E-01 -1.21216437E-01
  8.84096546E-09 -1.38178049E-01 -2.65701774E-02 -2.57382441E-01 -1.88458360E-01
 -2.26009641E-08 -1.45989234E-08 -4.84023612E-02 -2.79180031E-01  1.69748919E-07
  3.15759483E-01 -6.65810956E-09  2.08503755E-01 -2.39406451E-07 -2.81871491E-01
  4.67876395E-09  4.12278458E-02 -3.05223737E-01 -2.70064030E-01  3.07939581E-07
 -1.41439855E-09 -8.83552839E-09 -4.43413406E-02 -2.16895583E-01 -1.91714127E-01
  1.02249457E-01  4.31596863E-08  1.92000361E-01  2.98382058E-01 -1.21215738E-01
 -5.05455849E-08 -1.38179182E-01 -2.65702963E-02 -2.57382700E-01  1.88459606E-01
 -1.30670319E-09  5.51640347E-09 -4.43413242E-02 -2.16894667E-01 -1.91712470E-01
 -1.02249095E-01 -1.67759869E-08  1.91999878E-01  2.98381868E-01  1.21216437E-01
  8.84096546E-09 -1.38178049E-01 -2.65701774E-02 -2.57382441E-01 -1.88458360E-01
  2.26009641E-08  1.45989234E-08 -4.84023612E-02 -2.79180031E-01 -1.69748919E-07
 -3.15759483E-01 -6.65810956E-09  2.08503755E-01  2.39406451E-07  2.81871491E-01
  4.67876395E-09  4.12278458E-02 -3.05223737E-01 -2.70064030E-01  3.07939581E-07
  1.41439855E-09  8.83552839E-09  1.54271916E-01  1.10033905E-01  1.54272797E-01
  1.10033043E-01  4.38557858E-02  1.57263324E-01  1.54271916E-01  1.10033905E-01
  1.54272797E-01  1.10033043E-01  4.38557858E-02  1.57263324E-01  3.87817353E-02
  4.87694310E-02 -1.08916018E-01  1.20501913E-01  2.64723984E-08 -1.70318244E-01
 -1.30788053E-01 -3.97326107E-02 -3.10299973E-08 -1.10054228E-01  1.63353626E-02
  2.40270292E-01  1.92314655E-01  3.16424904E-08 -2.57352946E-08  3.87816752E-02
  4.87695640E-02 -1.08915740E-01 -1.20501235E-01 -5.20802578E-08 -1.70318286E-01
 -1.30788144E-01  3.97326798E-02  2.79241555E-08 -1.10053842E-01  1.63353579E-02
  2.40269942E-01 -1.92315640E-01 -6.87029841E-08 -4.74289817E-08  1.95920341E-02
 -1.05772066E-02 -1.25801621E-06 -7.19192126E-02 -2.41126069E-08 -1.37595496E-01
  3.28946310E-07 -4.55202764E-02  3.37006795E-09  4.13282906E-02 -1.51189542E-01
  1.27127042E-01 -6.73636887E-07 -7.05706108E-09 -4.39189484E-08  3.87817353E-02
  4.87694310E-02  1.08916018E-01 -1.20501913E-01  2.64723984E-08 -1.70318244E-01
  1.30788053E-01  3.97326107E-02 -3.10299973E-08 -1.10054228E-01  1.63353626E-02
  2.40270292E-01  1.92314655E-01 -3.16424904E-08  2.57352946E-08  3.87816752E-02
  4.87695640E-02  1.08915740E-01  1.20501235E-01 -5.20802578E-08 -1.70318286E-01
  1.30788144E-01 -3.97326798E-02  2.79241555E-08 -1.10053842E-01  1.63353579E-02
  2.40269942E-01 -1.92315640E-01  6.87029841E-08  4.74289817E-08  1.95920341E-02
 -1.05772066E-02  1.25801621E-06  7.19192126E-02 -2.41126069E-08 -1.37595496E-01
 -3.28946310E-07  4.55202764E-02  3.37006795E-09  4.13282906E-02 -1.51189542E-01
  1.27127042E-01 -6.73636887E-07  7.05706108E-09  4.39189484E-08  6.12868558E-01
 -2.16753594E-01  6.12868339E-01 -2.16753570E-01  3.92884619E-01 -1.65005308E-01
  6.12868558E-01 -2.16753594E-01  6.12868339E-01 -2.16753570E-01  3.92884619E-01
 -1.65005308E-01 -6.10852899E-02 -2.00568487E-02  1.44875309E-01  2.02705559E-01
 -3.69408298E-09  7.92165667E-02 -1.31560898E-02 -2.42343901E-01 -5.07786428E-09
  1.93668869E-01  4.79616609E-02 -3.90345998E-01 -1.09497403E-01 -1.88881155E-08
  7.29110772E-09  6.10870322E-02  2.00579856E-02 -1.44865638E-01  2.02689732E-01
 -3.31155040E-08 -7.92179918E-02  1.31457358E-02 -2.42327347E-01  2.01150460E-08
 -1.93670770E-01 -4.79655946E-02  3.90356917E-01 -1.09499960E-01 -6.31115034E-08
 -4.18601420E-08 -1.85707545E-06 -8.16985301E-08  3.60607335E-01 -5.53027414E-07
  2.91649423E-08  3.07996919E-06 -4.35362672E-01  4.46488521E-06 -4.32252269E-08
 -1.36677641E-06  9.88460348E-06 -1.21705555E-05  1.02580474E-01 -5.61333232E-09
  1.14296040E-08 -6.10852899E-02 -2.00568487E-02 -1.44875309E-01 -2.02705559E-01
 -3.69408298E-09  7.92165667E-02  1.31560898E-02  2.42343901E-01 -5.07786428E-09
  1.93668869E-01  4.79616609E-02 -3.90345998E-01 -1.09497403E-01  1.88881155E-08
 -7.29110772E-09  6.10870322E-02  2.00579856E-02  1.44865638E-01 -2.02689732E-01
 -3.31155040E-08 -7.92179918E-02 -1.31457358E-02  2.42327347E-01  2.01150460E-08
 -1.93670770E-01 -4.79655946E-02  3.90356917E-01 -1.09499960E-01  6.31115034E-08
  4.18601420E-08 -1.85707545E-06 -8.16985301E-08 -3.60607335E-01  5.53027414E-07
  2.91649423E-08  3.07996919E-06  4.35362672E-01 -4.46488521E-06 -4.32252269E-08
 -1.36677641E-06  9.88460348E-06 -1.21705555E-05  1.02580474E-01  5.61333232E-09
 -1.14296040E-08 -4.98414007E-01  1.24012048E-01  4.98421672E-01 -1.24013474E-01
 -1.63736557E-05  3.29969173E-06 -4.98414007E-01  1.24012048E-01  4.98421672E-01
 -1.24013474E-01 -1.63736557E-05  3.29969173E-06 -3.15570605E-02 -7.77048707E-03
 -1.98586493E-01 -2.98784823E-01  8.31187340E-09  2.33019907E-02  1.97897561E-01
  3.05819481E-01 -1.59893402E-08  5.13763711E-02  7.80285230E-02 -2.01916257E-01
 -3.90144785E-02  3.86571637E-10  8.65814757E-09 -3.15538137E-02 -7.76988285E-03
 -1.98593970E-01  2.98797021E-01  4.36024068E-08  2.32976931E-02  1.97898267E-01
 -3.05832172E-01 -5.74702181E-08  5.13663153E-02  7.80250468E-02 -2.01895566E-01
  3.90086018E-02  3.55312130E-08  1.25180717E-08  7.45332072E-02 -1.82051667E-02
  7.95806543E-06  4.13032107E-03 -6.25322046E-08 -1.05966454E-01 -1.07486804E-05
 -1.45422445E-01  5.37717961E-08  1.08999256E-02 -3.76372878E-01  4.81854992E-01
  1.49783633E-06 -3.51471097E-09 -1.02561409E-07 -3.15570605E-02 -7.77048707E-03
  1.98586493E-01  2.98784823E-01  8.31187340E-09  2.33019907E-02 -1.97897561E-01
 -3.05819481E-01 -1.59893402E-08  5.13763711E-02  7.80285230E-02 -2.01916257E-01
 -3.90144785E-02 -3.86571637E-10 -8.65814757E-09 -3.15538137E-02 -7.76988285E-03
  1.98593970E-01 -2.98797021E-01  4.36024068E-08  2.32976931E-02 -1.97898267E-01
  3.05832172E-01 -5.74702181E-08  5.13663153E-02  7.80250468E-02 -2.01895566E-01
  3.90086018E-02 -3.55312130E-08 -1.25180717E-08  7.45332072E-02 -1.82051667E-02
 -7.95806543E-06 -4.13032107E-03 -6.25322046E-08 -1.05966454E-01  1.07486804E-05
  1.45422445E-01  5.37717961E-08  1.08999256E-02 -3.76372878E-01  4.81854992E-01
  1.49783633E-06  3.51471097E-09  1.02561409E-07 -1.44697573E-01  2.43723267E-02
 -1.44671260E-01  2.43653751E-02  6.58828840E-01 -1.49364558E-01 -1.44697573E-01
  2.43723267E-02 -1.44671260E-01  2.43653751E-02  6.58828840E-01 -1.49364558E-01
 -2.67634062E-02  3.36286233E-01 -3.68469779E-01  1.56730881E-01  2.23545798E-08
 -1.48578344E-02  9.07117301E-03  7.80812162E-02  9.51280419E-09  1.38609112E-01
  4.38030721E-01 -2.04191834E-01  3.56873052E-01 -2.81817588E-09  1.80151512E-08
  2.67626341E-02 -3.36275541E-01  3.68452248E-01  1.56739378E-01  3.93628237E-08
  1.48569360E-02 -9.07507414E-03  7.80885348E-02 -3.70253139E-08 -1.38596161E-01
 -4.38026262E-01  2.04186290E-01  3.56855906E-01  2.64901350E-08 -5.15871610E-09
  7.74371279E-07 -9.40653075E-06  6.11310077E-01  1.21734721E-05 -2.26017955E-11
  3.65353883E-07  1.36701735E-01  1.14495135E-06  3.64992157E-08 -2.01842100E-05
  4.44047708E-06  5.45044433E-06 -4.90421645E-01 -2.01651134E-08 -1.70708959E-08
 -2.67634062E-02  3.36286233E-01  3.68469779E-01 -1.56730881E-01  2.23545798E-08
 -1.48578344E-02 -9.07117301E-03 -7.80812162E-02  9.51280419E-09  1.38609112E-01
  4.38030721E-01 -2.04191834E-01  3.56873052E-01  2.81817588E-09 -1.80151512E-08
  2.67626341E-02 -3.36275541E-01 -3.68452248E-01 -1.56739378E-01  3.93628237E-08
  1.48569360E-02  9.07507414E-03 -7.80885348E-02 -3.70253139E-08 -1.38596161E-01
 -4.38026262E-01  2.04186290E-01  3.56855906E-01 -2.64901350E-08  5.15871610E-09
  7.74371279E-07 -9.40653075E-06 -6.11310077E-01 -1.21734721E-05 -2.26017955E-11
  3.65353883E-07 -1.36701735E-01 -1.14495135E-06  3.64992157E-08 -2.01842100E-05
  4.44047708E-06  5.45044433E-06 -4.90421645E-01  2.01651134E-08  1.70708959E-08
  1.83329748E-01 -4.41882700E-02 -1.83325720E-01  4.41878608E-02 -7.57502821E-06
  1.15865198E-06  1.83329748E-01 -4.41882700E-02 -1.83325720E-01  4.41878608E-02
 -7.57502821E-06  1.15865198E-06  1.37966047E-02 -2.24402418E-01  3.63887683E-01
  1.63399090E-01  2.55498819E-09  1.51562624E-02  6.91765377E-02  1.42963090E-01
 -4.06321871E-08 -2.86836352E-01 -7.10564057E-02  1.10533446E-01 -3.27112781E-01
  3.63226210E-08  3.87143408E-08  1.37980827E-02 -2.24421804E-01  3.63904661E-01
 -1.63382358E-01  4.16914932E-08  1.51568612E-02  6.91762506E-02 -1.42959380E-01
 -9.50679658E-08 -2.86838806E-01 -7.10864912E-02  1.10545157E-01  3.27128265E-01
  2.15631377E-08  9.77199938E-09 -2.94027993E-02  3.91499258E-01  1.33498322E-05
 -4.66165744E-01 -8.33897917E-08 -1.81256481E-02  3.85632661E-06 -5.57151882E-02
  1.25467528E-07  8.25398199E-01 -1.82474912E-01 -2.23550454E-01 -9.56861422E-06
  1.76312624E-08 -4.23803409E-08  1.37966047E-02 -2.24402418E-01 -3.63887683E-01
 -1.63399090E-01  2.55498819E-09  1.51562624E-02 -6.91765377E-02 -1.42963090E-01
 -4.06321871E-08 -2.86836352E-01 -7.10564057E-02  1.10533446E-01 -3.27112781E-01
 -3.63226210E-08 -3.87143408E-08  1.37980827E-02 -2.24421804E-01 -3.63904661E-01
  1.63382358E-01  4.16914932E-08  1.51568612E-02 -6.91762506E-02  1.42959380E-01
 -9.50679658E-08 -2.86838806E-01 -7.10864912E-02  1.10545157E-01  3.27128265E-01
 -2.15631377E-08 -9.77199938E-09 -2.94027993E-02  3.91499258E-01 -1.33498322E-05
  4.66165744E-01 -8.33897917E-08 -1.81256481E-02 -3.85632661E-06  5.57151882E-02
  1.25467528E-07  8.25398199E-01 -1.82474912E-01 -2.23550454E-01 -9.56861422E-06
 -1.76312624E-08  4.23803409E-08 -6.24609405E-02  8.38305499E-03 -6.24704000E-02
  8.38538796E-03  2.88895984E-01 -4.11721880E-02 -6.24609405E-02  8.38305499E-03
 -6.24704000E-02  8.38538796E-03  2.88895984E-01 -4.11721880E-02  2.74135795E-09
  4.41766353E-08 -3.83662817E-08 -3.67240424E-08  2.93345757E-01 -2.37022411E-08
  5.67054842E-08  4.85043732E-08 -7.24446945E-01  1.03867224E-08  5.05837990E-08
 -4.53608104E-09 -1.10024163E-08  1.30950595E-01  5.33517901E-02  4.32561043E-09
  9.46065506E-09 -6.57404835E-08  1.81627757E-08  1.77857302E-01 -2.06985173E-08
  6.01618887E-09  3.48819495E-08 -4.39236853E-01 -1.99555153E-09  2.05406239E-09
  2.41346801E-08 -7.64483272E-08  1.11315581E-01 -8.76333845E-02  3.05987431E-09
  2.20947024E-08 -5.69919800E-08  8.24180577E-08 -4.71203396E-01 -4.94416542E-08
  4.31583825E-08 -4.17110407E-08  1.16368426E+00 -9.71747827E-08  1.27546150E-07
 -1.06875814E-09  7.27609446E-09 -1.98710236E-02 -1.39316411E-01  2.74135795E-09
  4.41766353E-08  3.83662817E-08  3.67240424E-08  2.93345757E-01 -2.37022411E-08
 -5.67054842E-08 -4.85043732E-08 -7.24446945E-01  1.03867224E-08  5.05837990E-08
 -4.53608104E-09 -1.10024163E-08 -1.30950595E-01 -5.33517901E-02  4.32561043E-09
  9.46065506E-09  6.57404835E-08 -1.81627757E-08  1.77857302E-01 -2.06985173E-08
 -6.01618887E-09 -3.48819495E-08 -4.39236853E-01 -1.99555153E-09  2.05406239E-09
  2.41346801E-08 -7.64483272E-08 -1.11315581E-01  8.76333845E-02  3.05987431E-09
  2.20947024E-08  5.69919800E-08 -8.24180577E-08 -4.71203396E-01 -4.94416542E-08
 -4.31583825E-08  4.17110407E-08  1.16368426E+00 -9.71747827E-08  1.27546150E-07
 -1.06875814E-09  7.27609446E-09  1.98710236E-02  1.39316411E-01 -5.37747461E-08
  4.46549647E-08  1.38545160E-07 -1.31501859E-07 -2.00995466E-07  1.46524523E-07
 -5.37747461E-08  4.46549647E-08  1.38545160E-07 -1.31501859E-07 -2.00995466E-07
  1.46524523E-07  4.53535106E-09  2.53310102E-08  1.51557837E-08  1.41923018E-08
  3.74735230E-01 -2.77022052E-08 -8.63009340E-09 -6.19392421E-08 -9.25447401E-01
  6.23351541E-08 -2.59767852E-08  4.39845335E-09 -9.89723809E-09  5.22390601E-02
 -1.31108242E-01  2.96836754E-09  4.62256412E-08  7.71273939E-08 -3.11965830E-08
 -4.41412503E-01 -5.82830619E-08 -5.04491352E-08  3.73470666E-09  1.09011379E+00
  4.92698475E-08  1.14903685E-08 -4.83654728E-09  7.29725691E-08 -8.65209472E-02
 -1.11158287E-01  5.20392878E-09  1.66939779E-08  2.79732729E-08 -3.08627567E-08
  6.66770607E-02 -3.38996340E-08  1.19412320E-08  1.28824190E-08 -1.64666179E-01
  5.20349991E-08 -4.20694847E-08  2.37529863E-08 -2.60462570E-08 -1.40428901E-01
  1.97136702E-02  4.53535106E-09  2.53310102E-08 -1.51557837E-08 -1.41923018E-08
  3.74735230E-01 -2.77022052E-08  8.63009340E-09  6.19392421E-08 -9.25447401E-01
  6.23351541E-08 -2.59767852E-08  4.39845335E-09 -9.89723809E-09 -5.22390601E-02
  1.31108242E-01  2.96836754E-09  4.62256412E-08 -7.71273939E-08  3.11965830E-08
 -4.41412503E-01 -5.82830619E-08  5.04491352E-08 -3.73470666E-09  1.09011379E+00
  4.92698475E-08  1.14903685E-08 -4.83654728E-09  7.29725691E-08  8.65209472E-02
  1.11158287E-01  5.20392878E-09  1.66939779E-08 -2.79732729E-08  3.08627567E-08
  6.66770607E-02 -3.38996340E-08 -1.19412320E-08 -1.28824190E-08 -1.64666179E-01
  5.20349991E-08 -4.20694847E-08  2.37529863E-08 -2.60462570E-08  1.40428901E-01
 -1.97136702E-02 -6.69286973E-08  4.19151099E-08 -1.55915782E-07  1.23094184E-07
  9.62067883E-08 -9.02888727E-08 -6.69286973E-08  4.19151099E-08 -1.55915782E-07
  1.23094184E-07  9.62067883E-08 -9.02888727E-08 -7.56640550E-03  1.20972375E-01
  2.13588845E-01  6.24390510E-01  1.55037305E-08 -9.60062535E-03 -2.57316813E-02
  2.30693665E-03 -1.59418100E-08 -4.66965094E-01  6.23759184E-01 -5.16387518E-02
 -1.56177629E-01  1.30647565E-08  2.36870433E-08  7.56629461E-03 -1.20968624E-01
 -2.13593531E-01  6.24391320E-01  2.16206730E-09  9.60061105E-03  2.57298064E-02
  2.31151900E-03  4.91491150E-08  4.66970324E-01 -6.23759202E-01  5.16373211E-02
 -1.56181926E-01  1.51179318E-09 -2.14382879E-08  2.22402004E-08 -3.36560385E-06
 -4.56229832E-01  3.47307576E-06  4.58359694E-09  2.56415157E-07  5.75306850E-02
 -9.23217238E-08 -3.08411095E-08 -6.48224435E-06  1.80322522E-06  9.49703175E-07
  4.47530349E-01  3.59115674E-09  1.31324848E-08 -7.56640550E-03  1.20972375E-01
 -2.13588845E-01 -6.24390510E-01  1.55037305E-08 -9.60062535E-03  2.57316813E-02
 -2.30693665E-03 -1.59418100E-08 -4.66965094E-01  6.23759184E-01 -5.16387518E-02
 -1.56177629E-01 -1.30647565E-08 -2.36870433E-08  7.56629461E-03 -1.20968624E-01
  2.13593531E-01 -6.24391320E-01  2.16206730E-09  9.60061105E-03 -2.57298064E-02
 -2.31151900E-03  4.91491150E-08  4.66970324E-01 -6.23759202E-01  5.16373211E-02
 -1.56181926E-01 -1.51179318E-09  2.14382879E-08  2.22402004E-08 -3.36560385E-06
  4.56229832E-01 -3.47307576E-06  4.58359694E-09  2.56415157E-07 -5.75306850E-02
  9.23217238E-08 -3.08411095E-08 -6.48224435E-06  1.80322522E-06  9.49703175E-07
  4.47530349E-01 -3.59115674E-09 -1.31324848E-08  1.08118319E-01 -4.50018593E-02
 -1.08118619E-01  4.50028849E-02 -2.24574239E-06 -2.76425140E-07  1.08118319E-01
 -4.50018593E-02 -1.08118619E-01  4.50028849E-02 -2.24574239E-06 -2.76425140E-07
  1.18021882E-02  2.01813481E-01 -1.27465214E-01 -1.17007997E-01 -3.23617304E-08
 -3.66620977E-02  4.44460192E-01  2.30251868E-01  8.57669879E-08  5.66029073E-02
  1.61283074E-01  2.23434210E-03 -1.36766294E-01 -1.69293065E-08 -2.45264803E-09
 -1.18024732E-02 -2.01816673E-01  1.27461138E-01 -1.16999086E-01 -5.68299611E-08
  3.66626485E-02 -4.44453856E-01  2.30232215E-01  1.21195748E-07 -5.66093639E-02
 -1.61280139E-01 -2.23469606E-03 -1.36766021E-01 -5.16623480E-08 -1.50536657E-08
  8.39719299E-08  3.63330466E-06 -3.98384354E-01 -4.95557162E-07  4.74132847E-08
 -1.16475960E-06  8.48178302E-01  3.95981728E-06 -1.50719339E-07 -3.99415931E-07
  4.24829954E-06 -4.46210540E-07 -1.68661450E-01 -7.80941707E-09  2.45166411E-08
  1.18021882E-02  2.01813481E-01  1.27465214E-01  1.17007997E-01 -3.23617304E-08
 -3.66620977E-02 -4.44460192E-01 -2.30251868E-01  8.57669879E-08  5.66029073E-02
  1.61283074E-01  2.23434210E-03 -1.36766294E-01  1.69293065E-08  2.45264803E-09
 -1.18024732E-02 -2.01816673E-01 -1.27461138E-01  1.16999086E-01 -5.68299611E-08
  3.66626485E-02  4.44453856E-01 -2.30232215E-01  1.21195748E-07 -5.66093639E-02
 -1.61280139E-01 -2.23469606E-03 -1.36766021E-01  5.16623480E-08  1.50536657E-08
  8.39719299E-08  3.63330466E-06  3.98384354E-01  4.95557162E-07  4.74132847E-08
 -1.16475960E-06 -8.48178302E-01 -3.95981728E-06 -1.50719339E-07 -3.99415931E-07
  4.24829954E-06 -4.46210540E-07 -1.68661450E-01  7.80941707E-09 -2.45166411E-08
 -5.26791191E-01  6.55113064E-01  5.26800177E-01 -6.55123824E-01 -1.05126071E-05
  1.18543408E-05 -5.26791191E-01  6.55113064E-01  5.26800177E-01 -6.55123824E-01
 -1.05126071E-05  1.18543408E-05 -6.95828548E-03 -1.13497328E-01 -1.44535549E-01
 -3.05102064E-01  1.80763025E-08  2.15800693E-02  2.27725842E-01  7.04413311E-01
 -4.77529566E-08 -2.25021374E-01  1.03739492E-01 -2.57032397E-03 -2.27584785E-02
 -2.39004860E-09 -2.04689878E-08 -6.95780764E-03 -1.13491572E-01 -1.44540279E-01
  3.05107289E-01 -7.94742248E-08  2.15788900E-02  2.27739361E-01 -7.04420675E-01
  2.20832457E-07 -2.25017956E-01  1.03742338E-01 -2.56974590E-03  2.27616356E-02
 -5.58375492E-08 -1.48894059E-08  1.38430639E-02  2.24943200E-01  5.69600306E-06
 -5.48229221E-02  8.53289707E-08 -4.22666777E-02 -1.34162547E-05  3.08044540E-01
 -2.04036410E-07 -6.02691285E-03  2.46763546E-01  4.93299382E-03  4.10555359E-06
 -1.85828549E-08  7.13383441E-08 -6.95828548E-03 -1.13497328E-01  1.44535549E-01
  3.05102064E-01  1.80763025E-08  2.15800693E-02 -2.27725842E-01 -7.04413311E-01
 -4.77529566E-08 -2.25021374E-01  1.03739492E-01 -2.57032397E-03 -2.27584785E-02
  2.39004860E-09  2.04689878E-08 -6.95780764E-03 -1.13491572E-01  1.44540279E-01
 -3.05107289E-01 -7.94742248E-08  2.15788900E-02 -2.27739361E-01  7.04420675E-01
  2.20832457E-07 -2.25017956E-01  1.03742338E-01 -2.56974590E-03  2.27616356E-02
  5.58375492E-08  1.48894059E-08  1.38430639E-02  2.24943200E-01 -5.69600306E-06
  5.48229221E-02  8.53289707E-08 -4.22666777E-02  1.34162547E-05 -3.08044540E-01
 -2.04036410E-07 -6.02691285E-03  2.46763546E-01  4.93299382E-03  4.10555359E-06
  1.85828549E-08 -7.13383441E-08  3.10027395E-01 -3.74843015E-01  3.10012192E-01
 -3.74823924E-01 -6.15961965E-01  7.48870734E-01  3.10027395E-01 -3.74843015E-01
  3.10012192E-01 -3.74823924E-01 -6.15961965E-01  7.48870734E-01  4.39854068E-02
 -9.39849265E-01 -1.46265218E-01  8.43079613E-02  2.06368800E-08  1.00336342E+00
  4.61660116E-01 -2.66827484E-01 -1.26740527E-07  2.73047751E-01  2.18469682E-01
  1.52965184E-01 -5.31309220E-02  1.09580396E-08 -6.56271967E-09  4.39853729E-02
 -9.39852532E-01 -1.46264774E-01 -8.43084380E-02 -2.69445954E-08  1.00336657E+00
  4.61658519E-01  2.66829321E-01  1.24618803E-07  2.73048368E-01  2.18470213E-01
  1.52965049E-01  5.31306816E-02  1.66858181E-08 -2.79316304E-09  4.50506772E-02
 -9.49648313E-01 -3.22342606E-07 -1.68092084E-01 -2.61574412E-08  1.00405893E+00
  4.37463031E-07  5.33642884E-01  1.20892501E-07  1.93775111E-01  3.05142495E-01
  1.56870286E-01 -6.51504591E-08 -1.09440693E-08  1.32203274E-08  4.39854068E-02
 -9.39849265E-01  1.46265218E-01 -8.43079613E-02  2.06368800E-08  1.00336342E+00
 -4.61660116E-01  2.66827484E-01 -1.26740527E-07  2.73047751E-01  2.18469682E-01
  1.52965184E-01 -5.31309220E-02 -1.09580396E-08  6.56271967E-09  4.39853729E-02
 -9.39852532E-01  1.46264774E-01  8.43084380E-02 -2.69445954E-08  1.00336657E+00
 -4.61658519E-01 -2.66829321E-01  1.24618803E-07  2.73048368E-01  2.18470213E-01
  1.52965049E-01  5.31306816E-02 -1.66858181E-08  2.79316304E-09  4.50506772E-02
 -9.49648313E-01  3.22342606E-07  1.68092084E-01 -2.61574412E-08  1.00405893E+00
 -4.37463031E-07 -5.33642884E-01  1.20892501E-07  1.93775111E-01  3.05142495E-01
  1.56870286E-01 -6.51504591E-08  1.09440693E-08 -1.32203274E-08  5.07717281E-02
 -9.24412698E-01  5.07714414E-02 -9.24412929E-01  4.93062783E-02 -9.24698978E-01
  5.07717281E-02 -9.24412698E-01  5.07714414E-02 -9.24412929E-01  4.93062783E-02
 -9.24698978E-01 -1.99436319E-01  1.13183869E+00 -1.21878995E-01  7.03585039E-02
  1.25961430E-08  7.43671702E-01  2.77518923E-01 -1.60229895E-01 -6.68296364E-08
 -6.38697275E-01 -6.38077843E-01 -6.98195466E-01  6.18982213E-04  7.06133979E-09
 -4.19525403E-09 -1.99435867E-01  1.13183359E+00 -1.21878989E-01 -7.03591128E-02
 -1.83265125E-08  7.43673642E-01  2.77517912E-01  1.60230364E-01  7.00817618E-08
 -6.38695232E-01 -6.38075216E-01 -6.98193911E-01 -6.18902049E-04  4.64689952E-09
 -2.52279514E-09 -1.99467167E-01  1.13209356E+00 -2.29882803E-07 -1.40722855E-01
 -1.78604811E-08  7.43663857E-01 -4.99328875E-08  3.20433317E-01  6.78245449E-08
 -6.37881175E-01 -6.39147839E-01 -6.98304191E-01  1.97008166E-07 -4.61072098E-09
  2.91672277E-09 -1.99436319E-01  1.13183869E+00  1.21878995E-01 -7.03585039E-02
  1.25961430E-08  7.43671702E-01 -2.77518923E-01  1.60229895E-01 -6.68296364E-08
 -6.38697275E-01 -6.38077843E-01 -6.98195466E-01  6.18982213E-04 -7.06133979E-09
  4.19525403E-09 -1.99435867E-01  1.13183359E+00  1.21878989E-01  7.03591128E-02
 -1.83265125E-08  7.43673642E-01 -2.77517912E-01 -1.60230364E-01  7.00817618E-08
 -6.38695232E-01 -6.38075216E-01 -6.98193911E-01 -6.18902049E-04 -4.64689952E-09
  2.52279514E-09 -1.99467167E-01  1.13209356E+00  2.29882803E-07  1.40722855E-01
 -1.78604811E-08  7.43663857E-01  4.99328875E-08 -3.20433317E-01  6.78245449E-08
 -6.37881175E-01 -6.39147839E-01 -6.98304191E-01  1.97008166E-07  4.61072098E-09
 -2.91672277E-09  1.07094222E-01 -5.98327987E-01  1.07093695E-01 -5.98327468E-01
  1.07118873E-01 -5.98318330E-01  1.07094222E-01 -5.98327987E-01  1.07093695E-01
 -5.98327468E-01  1.07118873E-01 -5.98318330E-01  2.26891083E-01 -1.76488680E+00
 -8.34717748E-02  1.53080423E-01  6.94130803E-09  4.74532066E-03  1.71033593E-01
 -1.45784025E-02  8.29461888E-09  9.06761168E-01  1.10485700E+00  7.83914244E-01
  4.19842004E-02 -5.17008797E-09  1.18025416E-08 -2.27124498E-01  1.76670159E+00
  8.37388108E-02  1.52923680E-01  8.05405761E-09 -4.75087270E-03 -1.71057541E-01
 -1.48576851E-02 -2.31296080E-08 -9.07925973E-01 -1.10576095E+00 -7.84720613E-01
  4.21778806E-02 -8.34105579E-09 -1.50540091E-08  2.32254056E-04 -1.80602141E-03
  1.72478676E-01 -1.52507562E-04  2.93951598E-09  3.95061475E-06  1.51348094E-01
  1.57867607E-04  5.76894733E-09  1.11315393E-03  9.46292541E-04  8.02337941E-04
 -1.42897462E-01 -4.54754542E-09 -2.03267499E-09  2.26891083E-01 -1.76488680E+00
  8.34717748E-02 -1.53080423E-01  6.94130803E-09  4.74532066E-03 -1.71033593E-01
  1.45784025E-02  8.29461888E-09  9.06761168E-01  1.10485700E+00  7.83914244E-01
  4.19842004E-02  5.17008797E-09 -1.18025416E-08 -2.27124498E-01  1.76670159E+00
 -8.37388108E-02 -1.52923680E-01  8.05405761E-09 -4.75087270E-03  1.71057541E-01
  1.48576851E-02 -2.31296080E-08 -9.07925973E-01 -1.10576095E+00 -7.84720613E-01
  4.21778806E-02  8.34105579E-09  1.50540091E-08  2.32254056E-04 -1.80602141E-03
 -1.72478676E-01  1.52507562E-04  2.93951598E-09  3.95061475E-06 -1.51348094E-01
 -1.57867607E-04  5.76894733E-09  1.11315393E-03  9.46292541E-04  8.02337941E-04
 -1.42897462E-01  4.54754542E-09  2.03267499E-09 -1.13035029E-01 -5.89069941E-02
  1.13152912E-01  5.89679722E-02 -1.15641128E-04 -5.89342010E-05 -1.13035029E-01
 -5.89069941E-02  1.13152912E-01  5.89679722E-02 -1.15641128E-04 -5.89342010E-05
  1.31435888E-01 -1.02326822E+00 -1.50738555E-01 -8.79494578E-02  4.14231014E-09
  5.23850468E-03  1.48528232E-02 -1.58184460E-01  4.14196867E-09  6.56190441E-01
  5.09599393E-01  4.54103130E-01  1.09096816E-01 -1.16238083E-08 -8.18087231E-09
  1.31033156E-01 -1.02013403E+00 -1.50590855E-01  8.82211508E-02 -1.14977658E-09
  5.22934132E-03  1.45494814E-02  1.58157523E-01  2.00674665E-08  6.54580650E-01
  5.07638083E-01  4.52711559E-01 -1.09021842E-01  5.50374835E-09  2.79964521E-09
 -2.61972278E-01  2.03666583E+00  1.52571684E-04  1.71597086E-01  7.36160735E-09
 -2.86796028E-03  1.34251597E-04 -1.77841425E-01 -2.88727316E-08 -1.25515362E+00
 -1.06704582E+00 -9.05108238E-01 -1.27023913E-04 -7.52643031E-09 -1.54270251E-08
  1.31435888E-01 -1.02326822E+00  1.50738555E-01  8.79494578E-02  4.14231014E-09
  5.23850468E-03 -1.48528232E-02  1.58184460E-01  4.14196867E-09  6.56190441E-01
  5.09599393E-01  4.54103130E-01  1.09096816E-01  1.16238083E-08  8.18087231E-09
  1.31033156E-01 -1.02013403E+00  1.50590855E-01 -8.82211508E-02 -1.14977658E-09
  5.22934132E-03 -1.45494814E-02 -1.58157523E-01  2.00674665E-08  6.54580650E-01
  5.07638083E-01  4.52711559E-01 -1.09021842E-01 -5.50374835E-09 -2.79964521E-09
 -2.61972278E-01  2.03666583E+00 -1.52571684E-04 -1.71597086E-01  7.36160735E-09
 -2.86796028E-03 -1.34251597E-04  1.77841425E-01 -2.88727316E-08 -1.25515362E+00
 -1.06704582E+00 -9.05108238E-01 -1.27023913E-04  7.52643031E-09  1.54270251E-08
 -6.63761531E-02 -3.64211832E-02 -6.61755602E-02 -3.63160376E-02  1.30255184E-01
  6.55238186E-02 -6.63761531E-02 -3.64211832E-02 -6.61755602E-02 -3.63160376E-02
  1.30255184E-01  6.55238186E-02 -8.77860053E-02 -3.16131514E-02 -3.23729237E-01
  7.63826856E-02  1.67699398E-09  1.98191588E+00  2.49902698E+00 -1.03792307E+00
  3.73202773E-09 -2.48902187E-01 -2.43251132E-01 -2.91037366E-01  1.82086583E-02
 -8.94425142E-09  2.21726707E-08  7.88924944E-02  2.84110345E-02  3.14019099E-01
  2.86740412E-02  4.25350795E-08 -1.78114469E+00 -2.33047225E+00 -7.86305529E-01
 -2.89572438E-07  2.21373161E-01  2.20918202E-01  2.61553105E-01  1.78792992E-02
 -3.14640923E-08 -2.03340710E-08  8.89339419E-03  3.19956661E-03 -2.27940261E-01
  3.22634444E-02 -3.44133857E-09 -2.00769021E-01  8.35047923E-01 -2.71780442E-01
  3.51914546E-08  2.33835313E-02  2.64805943E-02  2.94838305E-02  1.50569248E-02
  1.13522443E-08 -1.33419710E-08 -8.77860053E-02 -3.16131514E-02  3.23729237E-01
 -7.63826856E-02  1.67699398E-09  1.98191588E+00 -2.49902698E+00  1.03792307E+00
  3.73202773E-09 -2.48902187E-01 -2.43251132E-01 -2.91037366E-01  1.82086583E-02
  8.94425142E-09 -2.21726707E-08  7.88924944E-02  2.84110345E-02 -3.14019099E-01
 -2.86740412E-02  4.25350795E-08 -1.78114469E+00  2.33047225E+00  7.86305529E-01
 -2.89572438E-07  2.21373161E-01  2.20918202E-01  2.61553105E-01  1.78792992E-02
  3.14640923E-08  2.03340710E-08  8.89339419E-03  3.19956661E-03  2.27940261E-01
 -3.22634444E-02 -3.44133857E-09 -2.00769021E-01 -8.35047923E-01  2.71780442E-01
  3.51914546E-08  2.33835313E-02  2.64805943E-02  2.94838305E-02  1.50569248E-02
 -1.13522443E-08  1.33419710E-08 -2.25017384E-01 -2.05599571E+00  2.02234086E-01
  1.84773223E+00  2.27811932E-02  2.08262462E-01 -2.25017384E-01 -2.05599571E+00
  2.02234086E-01  1.84773223E+00  2.27811932E-02  2.08262462E-01  4.04220949E-02
  1.45509675E-02  2.30752010E-02 -2.53301817E-01 -9.93604589E-10 -9.12529692E-01
 -6.88913004E-01  1.27724374E+00  1.57359770E-10  1.27234611E-01  9.93998411E-02
  1.34008870E-01 -1.15612669E-04  2.29679570E-08  2.31297175E-08  5.58227564E-02
  2.00957339E-02  8.20073921E-02  2.63008546E-01  4.05443592E-08 -1.26023589E+00
 -1.13519809E+00 -1.44580257E+00 -2.91104276E-07  1.70689255E-01  1.42287399E-01
  1.85066651E-01  3.45010455E-03 -4.68637872E-09 -2.13055904E-08 -9.62462254E-02
 -3.46397782E-02 -2.10638136E-02 -3.49157937E-01 -5.77076210E-08  2.17275915E+00
  7.71566741E-02  2.94123609E+00  4.02852968E-07 -2.53058702E-01 -2.86569394E-01
 -3.19080121E-01  1.39259018E-03  1.21361047E-08  3.67564339E-08  4.04220949E-02
  1.45509675E-02 -2.30752010E-02  2.53301817E-01 -9.93604589E-10 -9.12529692E-01
  6.88913004E-01 -1.27724374E+00  1.57359770E-10  1.27234611E-01  9.93998411E-02
  1.34008870E-01 -1.15612669E-04 -2.29679570E-08 -2.31297175E-08  5.58227564E-02
  2.00957339E-02 -8.20073921E-02 -2.63008546E-01  4.05443592E-08 -1.26023589E+00
  1.13519809E+00  1.44580257E+00 -2.91104276E-07  1.70689255E-01  1.42287399E-01
  1.85066651E-01  3.45010455E-03  4.68637872E-09  2.13055904E-08 -9.62462254E-02
 -3.46397782E-02  2.10638136E-02  3.49157937E-01 -5.77076210E-08  2.17275915E+00
 -7.71566741E-02 -2.94123609E+00  4.02852968E-07 -2.53058702E-01 -2.86569394E-01
 -3.19080121E-01  1.39259018E-03 -1.21361047E-08 -3.67564339E-08  1.03541704E-01
  9.46560441E-01  1.43021718E-01  1.30728553E+00 -2.46548562E-01 -2.25383927E+00
  1.03541704E-01  9.46560441E-01  1.43021718E-01  1.30728553E+00 -2.46548562E-01
 -2.25383927E+00  1.54768103E-01  6.04936528E-01 -2.22857186E-01 -1.51376903E-02
  7.96519356E-09 -5.67244428E+00  3.01397942E+00 -2.11394122E+00 -1.41213106E-07
  1.73240916E-01  3.86733559E-02  4.58259457E-01  5.34717396E-03  1.79338905E-08
  4.63896053E-09 -1.56820843E-01 -6.12961313E-01  2.22657134E-01 -9.87477170E-03
  2.80514523E-08  5.74768324E+00 -3.06746354E+00 -2.11855759E+00 -2.38286492E-07
 -1.72449998E-01 -4.22724579E-02 -4.64337720E-01  3.36615786E-03 -6.11689888E-09
  1.85686172E-09  2.05275873E-03  8.02290051E-03 -2.31541561E-01 -2.45691321E-03
  6.33596817E-10 -7.52450730E-02 -1.41336319E+00  4.86188209E-02  1.11182678E-08
  1.01406831E-03  1.79718523E-03  6.07831701E-03  1.73103130E-01  3.82692603E-09
  4.23149354E-09  1.54768103E-01  6.04936528E-01  2.22857186E-01  1.51376903E-02
  7.96519356E-09 -5.67244428E+00 -3.01397942E+00  2.11394122E+00 -1.41213106E-07
  1.73240916E-01  3.86733559E-02  4.58259457E-01  5.34717396E-03 -1.79338905E-08
 -4.63896053E-09 -1.56820843E-01 -6.12961313E-01 -2.22657134E-01  9.87477170E-03
  2.80514523E-08  5.74768324E+00  3.06746354E+00  2.11855759E+00 -2.38286492E-07
 -1.72449998E-01 -4.22724579E-02 -4.64337720E-01  3.36615786E-03  6.11689888E-09
 -1.85686172E-09  2.05275873E-03  8.02290051E-03  2.31541561E-01  2.45691321E-03
  6.33596817E-10 -7.52450730E-02  1.41336319E+00 -4.86188209E-02  1.11182678E-08
  1.01406831E-03  1.79718523E-03  6.07831701E-03  1.73103130E-01 -3.82692603E-09
 -4.23149354E-09 -8.60019775E-02 -1.09580090E+00  8.71386282E-02  1.11032889E+00
 -1.13775730E-03 -1.45210272E-02 -8.60019775E-02 -1.09580090E+00  8.71386282E-02
  1.11032889E+00 -1.13775730E-03 -1.45210272E-02  9.18087646E-02  3.58927261E-01
  6.25977897E-03  2.30805556E-01  4.81939540E-09 -3.36535789E+00  2.38019923E+00
 -2.28557286E-01 -8.47570336E-08 -3.26832930E-02  1.58256552E-01  2.71838983E-01
 -8.68004776E-02 -2.96809872E-09 -2.12079935E-08  8.82526584E-02  3.45026556E-01
  1.13170424E-02 -2.31044045E-01 -1.54541699E-08 -3.23502053E+00  2.31252857E+00
  1.77250272E-01  1.57946528E-07 -3.67521018E-02  1.57457762E-01  2.61309804E-01
  8.69815832E-02  5.32275141E-09  3.83745377E-09 -1.80077275E-01 -7.03898242E-01
 -2.66898644E-03  2.15724443E-01  3.20143316E-08  6.60024399E+00 -1.43962403E-02
 -4.26714873E+00 -2.89737003E-07 -8.88847459E-02 -1.57603961E-01 -5.33202001E-01
  1.89321689E-03  4.17205998E-09 -5.90195939E-09  9.18087646E-02  3.58927261E-01
 -6.25977897E-03 -2.30805556E-01  4.81939540E-09 -3.36535789E+00 -2.38019923E+00
  2.28557286E-01 -8.47570336E-08 -3.26832930E-02  1.58256552E-01  2.71838983E-01
 -8.68004776E-02  2.96809872E-09  2.12079935E-08  8.82526584E-02  3.45026556E-01
 -1.13170424E-02  2.31044045E-01 -1.54541699E-08 -3.23502053E+00 -2.31252857E+00
 -1.77250272E-01  1.57946528E-07 -3.67521018E-02  1.57457762E-01  2.61309804E-01
  8.69815832E-02 -5.32275141E-09 -3.83745377E-09 -1.80077275E-01 -7.03898242E-01
  2.66898644E-03 -2.15724443E-01  3.20143316E-08  6.60024399E+00  1.43962403E-02
  4.26714873E+00 -2.89737003E-07 -8.88847459E-02 -1.57603961E-01 -5.33202001E-01
  1.89321689E-03 -4.17205998E-09  5.90195939E-09 -5.09006124E-02 -6.50116397E-01
 -4.89243807E-02 -6.24939844E-01  1.00037900E-01  1.27520009E+00 -5.09006124E-02
 -6.50116397E-01 -4.89243807E-02 -6.24939844E-01  1.00037900E-01  1.27520009E+00
  7.05573759E-03  2.80617216E-02  3.45315268E-02  7.62542576E-02  3.45906922E-10
 -2.60936763E-01 -2.73271978E+00 -5.07045263E+00 -6.50565065E-09  2.12289391E-01
 -2.03493453E-01  2.08976013E-02  1.36046445E-01 -1.14724298E-08 -2.11056434E-08
 -7.11018294E-03 -2.82753473E-02 -3.45364434E-02  7.63954122E-02  1.27579719E-08
  2.62931267E-01  2.73129259E+00 -5.07058165E+00 -2.12568917E-07 -2.12268020E-01
  2.03398405E-01 -2.10586045E-02  1.35993686E-01  3.45813808E-09  1.64635357E-08
  5.43505987E-05  2.12703174E-04 -9.99716005E-02 -6.64557278E-05 -1.14629787E-08
 -1.99184633E-03  5.67758560E+00  1.31048241E-03  2.02116456E-07  2.66257706E-05
  4.78171888E-05  1.60586422E-04 -2.64058684E-01 -1.21077608E-08 -1.12388353E-08
  7.05573759E-03  2.80617216E-02 -3.45315268E-02 -7.62542576E-02  3.45906922E-10
 -2.60936763E-01  2.73271978E+00  5.07045263E+00 -6.50565065E-09  2.12289391E-01
 -2.03493453E-01  2.08976013E-02  1.36046445E-01  1.14724298E-08  2.11056434E-08
 -7.11018294E-03 -2.82753473E-02  3.45364434E-02 -7.63954122E-02  1.27579719E-08
  2.62931267E-01 -2.73129259E+00  5.07058165E+00 -2.12568917E-07 -2.12268020E-01
  2.03398405E-01 -2.10586045E-02  1.35993686E-01 -3.45813808E-09 -1.64635357E-08
  5.43505987E-05  2.12703174E-04  9.99716005E-02  6.64557278E-05 -1.14629787E-08
 -1.99184633E-03 -5.67758560E+00 -1.31048241E-03  2.02116456E-07  2.66257706E-05
  4.78171888E-05  1.60586422E-04 -2.64058684E-01  1.21077608E-08  1.12388353E-08
 -4.10343090E-03 -5.03841698E-02  4.13477836E-03  5.07768957E-02 -3.37046711E-05
 -3.94435618E-04 -4.10343090E-03 -5.03841698E-02  4.13477836E-03  5.07768957E-02
 -3.37046711E-05 -3.94435618E-04  1.62695420E-02  8.07205863E-02  8.11902799E-03
  1.76637337E-02  1.04118355E-09  8.93218927E-02  3.51248997E-02  3.42155361E-02
  1.77960154E-09  5.92345064E-02  7.23889530E-02  5.67159920E-02  2.02040261E-03
 -2.45101243E-10  9.48506830E-10  1.62838098E-02  8.07913895E-02  8.09178781E-03
 -1.76198647E-02  4.01726390E-10  8.94004194E-02  3.50727111E-02 -3.41020920E-02
  5.90896853E-10  5.93024943E-02  7.24364090E-02  5.67657647E-02 -2.03903516E-03
  6.78845004E-10  1.21407772E-09  1.43508280E-05  7.11881887E-05  3.90783000E-02
 -1.38851244E-06  5.92726375E-10  7.87538591E-05  9.40560564E-02  1.19285164E-05
  1.28479046E-09  6.19200363E-05  5.41530250E-05  5.00199165E-05 -1.96609385E-02
 -3.66642236E-10 -2.20313442E-10 -1.62695420E-02 -8.07205863E-02  8.11902799E-03
  1.76637337E-02 -1.04118355E-09 -8.93218927E-02  3.51248997E-02  3.42155361E-02
 -1.77960154E-09 -5.92345064E-02 -7.23889530E-02 -5.67159920E-02 -2.02040261E-03
 -2.45101243E-10  9.48506830E-10 -1.62838098E-02 -8.07913895E-02  8.09178781E-03
 -1.76198647E-02 -4.01726390E-10 -8.94004194E-02  3.50727111E-02 -3.41020920E-02
 -5.90896853E-10 -5.93024943E-02 -7.24364090E-02 -5.67657647E-02  2.03903516E-03
  6.78845004E-10  1.21407772E-09 -1.43508280E-05 -7.11881887E-05  3.90783000E-02
 -1.38851244E-06 -5.92726375E-10 -7.87538591E-05  9.40560564E-02  1.19285164E-05
 -1.28479046E-09 -6.19200363E-05 -5.41530250E-05 -5.00199165E-05  1.96609385E-02
 -3.66642236E-10 -2.20313442E-10  3.59738001E-02  6.43080866E-02  3.60050575E-02
  6.43644753E-02  3.18273176E-05  5.68500263E-05 -3.59738001E-02 -6.43080866E-02
 -3.60050575E-02 -6.43644753E-02 -3.18273176E-05 -5.68500263E-05 -9.37695543E-03
 -4.65328914E-02  1.78568214E-02  2.87826142E-02 -5.92033017E-10 -5.16015593E-02
  3.41936781E-02  7.44214911E-02 -1.01943925E-09 -4.46646588E-02 -3.12061459E-02
 -3.27118233E-02 -1.22262358E-02  9.59683543E-10  8.74632749E-10  9.35213788E-03
  4.64097654E-02 -1.78692641E-02  2.88095046E-02  9.02584585E-10  5.14653329E-02
 -3.42473524E-02  7.44735153E-02  1.80096067E-09  4.45743147E-02  3.10957244E-02
  3.26253099E-02 -1.22231195E-02  3.90059522E-10  2.04052967E-10  1.88288233E-02
  9.33970165E-02 -2.97657653E-05 -1.83140144E-03  7.69826611E-10  1.03311684E-01
 -7.17036673E-05  1.56297401E-02  1.37732809E-09  8.12237221E-02  7.10571626E-02
  6.56271965E-02  1.50208886E-05  6.24900807E-10  1.24176174E-09  9.37695543E-03
  4.65328914E-02  1.78568214E-02  2.87826142E-02  5.92033017E-10  5.16015593E-02
  3.41936781E-02  7.44214911E-02  1.01943925E-09  4.46646588E-02  3.12061459E-02
  3.27118233E-02  1.22262358E-02  9.59683543E-10  8.74632749E-10 -9.35213788E-03
 -4.64097654E-02 -1.78692641E-02  2.88095046E-02 -9.02584585E-10 -5.14653329E-02
 -3.42473524E-02  7.44735153E-02 -1.80096067E-09 -4.45743147E-02 -3.10957244E-02
 -3.26253099E-02  1.22231195E-02  3.90059522E-10  2.04052967E-10 -1.88288233E-02
 -9.33970165E-02 -2.97657653E-05 -1.83140144E-03 -7.69826611E-10 -1.03311684E-01
 -7.17036673E-05  1.56297401E-02 -1.37732809E-09 -8.12237221E-02 -7.10571626E-02
 -6.56271965E-02 -1.50208886E-05  6.24900807E-10  1.24176174E-09 -2.05593859E-02
 -3.70752991E-02  2.05044759E-02  3.69771712E-02  4.17224203E-02  7.44932744E-02
  2.05593859E-02  3.70752991E-02 -2.05044759E-02 -3.69771712E-02 -4.17224203E-02
 -7.44932744E-02  2.49933048E-02  8.39115940E-02  6.25544096E-02 -3.50443211E-02
 -1.35419974E-08  4.81112076E-02  7.85238950E-02 -4.60895012E-02 -2.14033629E-08
  6.97917920E-02  4.37369390E-02  6.94690779E-02 -4.49668461E-02  1.32853336E-10
 -2.42842965E-10 -2.49933155E-02 -8.39116315E-02 -6.25546219E-02 -3.50441954E-02
 -1.09290336E-08 -4.81112356E-02 -7.85241665E-02 -4.60893735E-02 -1.43327540E-08
 -6.97917931E-02 -4.37369906E-02 -6.94691076E-02 -4.49668815E-02 -6.59598452E-09
  1.90027498E-09  2.52785320E-02  8.51294418E-02  6.31803326E-08  6.47864811E-02
  9.61768826E-09  4.64197002E-02  3.35066212E-08  8.43350266E-02  1.25937439E-08
  3.34694158E-02  8.22616196E-02  6.98426823E-02  3.22002323E-08 -5.05079151E-09
  4.44299576E-09 -2.49933048E-02 -8.39115940E-02  6.25544096E-02 -3.50443211E-02
  1.35419974E-08 -4.81112076E-02  7.85238950E-02 -4.60895012E-02  2.14033629E-08
 -6.97917920E-02 -4.37369390E-02 -6.94690779E-02  4.49668461E-02  1.32853336E-10
 -2.42842965E-10  2.49933155E-02  8.39116315E-02 -6.25546219E-02 -3.50441954E-02
  1.09290336E-08  4.81112356E-02 -7.85241665E-02 -4.60893735E-02  1.43327540E-08
  6.97917931E-02  4.37369906E-02  6.94691076E-02  4.49668815E-02 -6.59598452E-09
  1.90027498E-09 -2.52785320E-02 -8.51294418E-02  6.31803326E-08  6.47864811E-02
 -9.61768826E-09 -4.64197002E-02  3.35066212E-08  8.43350266E-02 -1.25937439E-08
 -3.34694158E-02 -8.22616196E-02 -6.98426823E-02 -3.22002323E-08 -5.05079151E-09
  4.44299576E-09  1.07288671E-01  9.20592465E-02 -1.07288784E-01 -9.20593649E-02
  9.95970708E-02  8.57538052E-02 -1.07288671E-01 -9.20592465E-02  1.07288784E-01
  9.20593649E-02 -9.95970708E-02 -8.57538052E-02 -1.46523894E-02 -5.18296328E-02
  1.39921341E-01 -1.00769716E-01 -1.55245293E-09  2.83069689E-03  1.37557518E-01
 -8.06894979E-02  2.22656450E-09 -1.34607461E-02 -6.22356578E-02 -3.75162903E-02
 -1.99336278E-02  4.12478050E-09  9.44589210E-09 -1.46547223E-02 -5.18376037E-02
  1.39946350E-01  1.00771416E-01  3.37618248E-08  2.83054047E-03  1.37576380E-01
  8.06984492E-02  3.88089755E-08 -1.34726678E-02 -6.22350894E-02 -3.75222905E-02
  1.99463129E-02  4.33879703E-09  4.94211500E-09 -1.85291201E-06 -6.62935458E-06
 -6.05385923E-02  2.38085186E-05  1.78753228E-08  6.01632734E-07 -1.04497476E-02
  2.23906192E-05  2.56429361E-08 -8.27183313E-06 -1.48883038E-06 -4.74146735E-06
  9.34749638E-02  8.54033969E-09 -1.50455628E-09  1.46523894E-02  5.18296328E-02
  1.39921341E-01 -1.00769716E-01  1.55245293E-09 -2.83069689E-03  1.37557518E-01
 -8.06894979E-02 -2.22656450E-09  1.34607461E-02  6.22356578E-02  3.75162903E-02
  1.99336278E-02  4.12478050E-09  9.44589210E-09  1.46547223E-02  5.18376037E-02
  1.39946350E-01  1.00771416E-01 -3.37618248E-08 -2.83054047E-03  1.37576380E-01
  8.06984492E-02 -3.88089755E-08  1.34726678E-02  6.22350894E-02  3.75222905E-02
 -1.99463129E-02  4.33879703E-09  4.94211500E-09  1.85291201E-06  6.62935458E-06
 -6.05385923E-02  2.38085186E-05 -1.78753228E-08 -6.01632734E-07 -1.04497476E-02
  2.23906192E-05 -2.56429361E-08  8.27183313E-06  1.48883038E-06  4.74146735E-06
 -9.34749638E-02  8.54033969E-09 -1.50455628E-09  1.38743769E-01  1.21489295E-01
  1.38761819E-01  1.21504898E-01  1.97947748E-05  1.72997122E-05 -1.38743769E-01
 -1.21489295E-01 -1.38761819E-01 -1.21504898E-01 -1.97947748E-05 -1.72997122E-05
  9.90989065E-03  3.39467956E-02 -1.06533171E-01  6.81776284E-03 -1.28439203E-09
  8.01681330E-04 -8.02321996E-02  3.75570175E-02 -4.01364721E-09  5.03805511E-02
 -1.99422087E-03  2.55596722E-02  5.44092242E-02  9.62119472E-09  1.47208337E-08
 -9.90642410E-03 -3.39345206E-02  1.06498904E-01  6.79600903E-03  4.07547458E-08
 -8.02327269E-04  8.01986725E-02  3.75398290E-02  5.25832405E-08 -5.03774037E-02
  2.00900379E-03 -2.55507852E-02  5.44039510E-02 -5.01640525E-09  1.10759792E-08
 -1.57208988E-02 -5.63818310E-02  8.33977402E-06  2.01424000E-01  5.25140803E-08
  4.96796505E-03  2.18917494E-06  1.88731907E-01  6.32013291E-08 -7.00432799E-02
 -1.30558285E-02 -4.02770464E-02 -1.10696666E-05  6.53374776E-09  5.88142374E-09
 -9.90989065E-03 -3.39467956E-02 -1.06533171E-01  6.81776284E-03  1.28439203E-09
 -8.01681330E-04 -8.02321996E-02  3.75570175E-02  4.01364721E-09 -5.03805511E-02
  1.99422087E-03 -2.55596722E-02 -5.44092242E-02  9.62119472E-09  1.47208337E-08
  9.90642410E-03  3.39345206E-02  1.06498904E-01  6.79600903E-03 -4.07547458E-08
  8.02327269E-04  8.01986725E-02  3.75398290E-02 -5.25832405E-08  5.03774037E-02
 -2.00900379E-03  2.55507852E-02 -5.44039510E-02 -5.01640525E-09  1.10759792E-08
  1.57208988E-02  5.63818310E-02  8.33977402E-06  2.01424000E-01 -5.25140803E-08
 -4.96796505E-03  2.18917494E-06  1.88731907E-01 -6.32013291E-08  7.00432799E-02
  1.30558285E-02  4.02770464E-02  1.10696666E-05  6.53374776E-09  5.88142374E-09
 -7.70425030E-02 -6.62840858E-02  7.70094903E-02  6.62553241E-02  1.66598413E-01
  1.45153099E-01  7.70425030E-02  6.62840858E-02 -7.70094903E-02 -6.62553241E-02
 -1.66598413E-01 -1.45153099E-01 -8.20350717E-04 -2.64546347E-03 -1.04220813E-01
 -1.97230415E-01  5.69524309E-10 -3.96392701E-04 -7.58419397E-02 -1.46399153E-01
  7.72221065E-10  1.23184820E-02 -1.58718744E-02 -2.22510723E-03  1.75213452E-02
  7.39368431E-09  1.32016696E-08 -8.20102744E-04 -2.64475640E-03 -1.04222275E-01
  1.97230316E-01  4.50945179E-08 -3.96369665E-04 -7.58428223E-02  1.46398582E-01
  5.16650333E-08  1.23193950E-02 -1.58718709E-02 -2.22453302E-03 -1.75220531E-02
 -1.07754353E-08  2.16176790E-09  5.80780825E-08  2.00662498E-07  2.20023755E-01
 -1.31905347E-06  4.38311770E-08 -2.10082209E-07  1.63533982E-01 -1.19075255E-06
  5.04191940E-08  4.34518444E-07 -1.05059012E-07  1.02538734E-07 -2.57094485E-02
  7.89155048E-09 -8.41221534E-09  8.20350717E-04  2.64546347E-03 -1.04220813E-01
 -1.97230415E-01 -5.69524309E-10  3.96392701E-04 -7.58419397E-02 -1.46399153E-01
 -7.72221065E-10 -1.23184820E-02  1.58718744E-02  2.22510723E-03 -1.75213452E-02
  7.39368431E-09  1.32016696E-08  8.20102744E-04  2.64475640E-03 -1.04222275E-01
  1.97230316E-01 -4.50945179E-08  3.96369665E-04 -7.58428223E-02  1.46398582E-01
 -5.16650333E-08 -1.23193950E-02  1.58718709E-02  2.22453302E-03  1.75220531E-02
 -1.07754353E-08  2.16176790E-09 -5.80780825E-08 -2.00662498E-07  2.20023755E-01
 -1.31905347E-06 -4.38311770E-08  2.10082209E-07  1.63533982E-01 -1.19075255E-06
 -5.04191940E-08 -4.34518444E-07  1.05059012E-07 -1.02538734E-07  2.57094485E-02
  7.89155048E-09 -8.41221534E-09  5.15735181E-03  5.14852872E-03  5.15644401E-03
  5.14773813E-03 -9.45980076E-07 -8.06343392E-07 -5.15735181E-03 -5.14852872E-03
 -5.15644401E-03 -5.14773813E-03  9.45980076E-07  8.06343392E-07  9.46683061E-10
  2.39744841E-09  2.66817507E-08  4.62088742E-08  7.20733264E-02  1.14105088E-10
  1.16935259E-08  1.91352694E-08  8.12080823E-02 -1.12005776E-08  1.29491796E-08
  3.19475625E-09 -1.85557385E-08  4.24554267E-02  1.01423605E-01  2.69298395E-09
  9.77590276E-09 -3.61436955E-08 -6.76042720E-08  2.46890152E-01 -6.89990630E-09
 -3.04125722E-08 -5.99938523E-08  2.78181707E-01  9.51974541E-09  7.58659594E-09
  4.22572423E-09 -1.26516302E-08 -5.46530803E-02 -8.71502965E-04  4.58842238E-09
  1.50643810E-08 -3.89769606E-08 -5.54495267E-08  1.74816921E-01 -4.30765141E-09
 -3.50601023E-08 -4.73986967E-08  1.96973756E-01  1.53828720E-08  6.94477797E-09
  1.00692447E-08 -1.24303538E-08  8.24911921E-02 -3.38224355E-02 -9.46683061E-10
 -2.39744841E-09  2.66817507E-08  4.62088742E-08 -7.20733264E-02 -1.14105088E-10
  1.16935259E-08  1.91352694E-08 -8.12080823E-02  1.12005776E-08 -1.29491796E-08
 -3.19475625E-09  1.85557385E-08  4.24554267E-02  1.01423605E-01 -2.69298395E-09
 -9.77590276E-09 -3.61436955E-08 -6.76042720E-08 -2.46890152E-01  6.89990630E-09
 -3.04125722E-08 -5.99938523E-08 -2.78181707E-01 -9.51974541E-09 -7.58659594E-09
 -4.22572423E-09  1.26516302E-08 -5.46530803E-02 -8.71502965E-04 -4.58842238E-09
 -1.50643810E-08 -3.89769606E-08 -5.54495267E-08 -1.74816921E-01  4.30765141E-09
 -3.50601023E-08 -4.73986967E-08 -1.96973756E-01 -1.53828720E-08 -6.94477797E-09
 -1.00692447E-08  1.24303538E-08  8.24911921E-02 -3.38224355E-02  1.11750079E-10
 -1.66569703E-09 -2.82690845E-08 -2.13941525E-08 -2.62407805E-08 -2.15170665E-08
 -1.11750079E-10  1.66569703E-09  2.82690845E-08  2.13941525E-08  2.62407805E-08
  2.15170665E-08  3.76704940E-09  9.19690775E-09 -2.98333568E-09 -1.67285166E-08
  2.43472870E-01  1.70366182E-09  2.59811993E-09 -8.90209713E-09  2.74331189E-01
  1.00960328E-08 -3.46084237E-09  1.23043295E-08 -3.35329535E-09 -5.69369221E-02
 -4.40693534E-03 -5.34033268E-09 -1.53600307E-08 -3.20376892E-10  6.70222518E-09
  5.93191075E-02 -3.95142216E-09 -2.49417986E-09  5.87680159E-09  6.68373271E-02
 -1.38805926E-08 -3.87920304E-09 -1.47075546E-08 -1.79385045E-09  4.53580254E-02
 -1.01515653E-01  2.82863890E-09  6.94028330E-09  1.57310845E-08  3.54113757E-08
 -1.84153719E-01  6.88715602E-09  1.34210070E-08  3.26141612E-08 -2.07493834E-01
 -3.75376980E-09  8.52869619E-09  9.45498341E-09 -1.70605726E-09  7.83087250E-02
  3.56288835E-02 -3.76704940E-09 -9.19690775E-09 -2.98333568E-09 -1.67285166E-08
 -2.43472870E-01 -1.70366182E-09  2.59811993E-09 -8.90209713E-09 -2.74331189E-01
 -1.00960328E-08  3.46084237E-09 -1.23043295E-08  3.35329535E-09 -5.69369221E-02
 -4.40693534E-03  5.34033268E-09  1.53600307E-08 -3.20376892E-10  6.70222518E-09
 -5.93191075E-02  3.95142216E-09 -2.49417986E-09  5.87680159E-09 -6.68373271E-02
  1.38805926E-08  3.87920304E-09  1.47075546E-08  1.79385045E-09  4.53580254E-02
 -1.01515653E-01 -2.82863890E-09 -6.94028330E-09  1.57310845E-08  3.54113757E-08
  1.84153719E-01 -6.88715602E-09  1.34210070E-08  3.26141612E-08  2.07493834E-01
  3.75376980E-09 -8.52869619E-09 -9.45498341E-09  1.70605726E-09  7.83087250E-02
  3.56288835E-02  1.25692162E-09 -2.15684931E-09  2.79300969E-09  5.17126818E-09
  1.56985144E-08  9.60778643E-09 -1.25692162E-09  2.15684931E-09 -2.79300969E-09
 -5.17126818E-09 -1.56985144E-08 -9.60778643E-09 -5.75713414E-03 -1.54090815E-02
  1.04354460E-01  7.59869197E-03  1.00922368E-08 -7.09633112E-04  6.03592112E-02
  2.12922038E-02  6.61642356E-09 -9.24995089E-03 -1.17344554E-02 -1.11722021E-02
  3.71030447E-01  3.50921285E-08  3.60758663E-08 -5.75691648E-03 -1.54087082E-02
  1.04354115E-01 -7.59849550E-03 -3.63255774E-09 -7.09600006E-04  6.03591244E-02
 -2.12922198E-02 -1.99727309E-09 -9.24987127E-03 -1.17342098E-02 -1.11718062E-02
 -3.71030915E-01 -9.34165549E-09 -4.64067411E-08  1.31319614E-08 -5.19831709E-08
  1.34005021E-01  2.60923144E-07  1.18409955E-08 -5.46871229E-08 -7.24076173E-03
 -1.18339682E-09  3.12580095E-09  3.15931268E-07 -4.11680223E-07 -5.58431352E-08
  2.11404746E-02 -4.24670435E-08 -1.02143748E-08  5.75713414E-03  1.54090815E-02
  1.04354460E-01  7.59869197E-03 -1.00922368E-08  7.09633112E-04  6.03592112E-02
  2.12922038E-02 -6.61642356E-09  9.24995089E-03  1.17344554E-02  1.11722021E-02
 -3.71030447E-01  3.50921285E-08  3.60758663E-08  5.75691648E-03  1.54087082E-02
  1.04354115E-01 -7.59849550E-03  3.63255774E-09  7.09600006E-04  6.03591244E-02
 -2.12922198E-02  1.99727309E-09  9.24987127E-03  1.17342098E-02  1.11718062E-02
  3.71030915E-01 -9.34165549E-09 -4.64067411E-08 -1.31319614E-08  5.19831709E-08
  1.34005021E-01  2.60923144E-07 -1.18409955E-08  5.46871229E-08 -7.24076173E-03
 -1.18339682E-09 -3.12580095E-09 -3.15931268E-07  4.11680223E-07  5.58431352E-08
 -2.11404746E-02 -4.24670435E-08 -1.02143748E-08 -8.58373418E-02 -1.96229385E-03
 -8.58378532E-02 -1.96254546E-03 -6.52688293E-08 -8.21905458E-08  8.58373418E-02
  1.96229385E-03  8.58378532E-02  1.96254546E-03  6.52688293E-08  8.21905458E-08
 -7.94688090E-10 -2.01234671E-09  1.85395181E-08  9.90888191E-09  1.45752266E-07
 -1.74325978E-10  9.76275082E-09  6.04390448E-09  3.01437080E-07 -2.75182898E-09
  1.31678632E-10 -1.57175268E-09  4.49878489E-08 -1.69371631E-01 -2.93361110E-01
 -1.53512857E-09 -4.12610778E-09  1.10648600E-08  4.47292407E-09  1.09421011E-07
  1.64677408E-10  6.99515908E-09 -1.44971714E-09  1.42771809E-07 -2.17652748E-09
 -8.53385132E-09  2.28054562E-09 -4.56258821E-08 -1.69371934E-01  2.93361041E-01
 -7.67053677E-10 -2.15091158E-09  2.21012269E-08  6.88604185E-10 -3.63312412E-08
  3.20392029E-10  2.12545182E-10 -1.31174224E-10 -1.58665270E-07 -6.07363396E-09
 -2.03664092E-09  3.80149859E-09 -2.14874581E-09  3.38743995E-01  2.02486565E-07
  7.94688090E-10  2.01234671E-09  1.85395181E-08  9.90888191E-09 -1.45752266E-07
  1.74325978E-10  9.76275082E-09  6.04390448E-09 -3.01437080E-07  2.75182898E-09
 -1.31678632E-10  1.57175268E-09 -4.49878489E-08 -1.69371631E-01 -2.93361110E-01
  1.53512857E-09  4.12610778E-09  1.10648600E-08  4.47292407E-09 -1.09421011E-07
 -1.64677408E-10  6.99515908E-09 -1.44971714E-09 -1.42771809E-07  2.17652748E-09
  8.53385132E-09 -2.28054562E-09  4.56258821E-08 -1.69371934E-01  2.93361041E-01
  7.67053677E-10  2.15091158E-09  2.21012269E-08  6.88604185E-10  3.63312412E-08
 -3.20392029E-10  2.12545182E-10 -1.31174224E-10  1.58665270E-07  6.07363396E-09
  2.03664092E-09 -3.80149859E-09  2.14874581E-09  3.38743995E-01  2.02486565E-07
 -1.05900282E-08 -1.22513877E-10 -1.11144292E-08  2.10757459E-10 -5.33339706E-10
  3.01292783E-10  1.05900282E-08  1.22513877E-10  1.11144292E-08 -2.10757459E-10
  5.33339706E-10 -3.01292783E-10  5.54004964E-03  2.62864458E-04  5.46519294E-02
  6.53710984E-02  1.09856990E-08  1.09697901E-02 -4.79515963E-02 -6.11569376E-02
  7.78502074E-09 -1.76096717E-01  1.59622383E-01  1.69986747E-02 -4.40464716E-02
  2.84962767E-08  6.46769885E-09  5.54093774E-03  2.63970757E-04  5.46511947E-02
 -6.53705815E-02 -1.07183217E-08  1.09698515E-02 -4.79518300E-02  6.11567018E-02
 -5.68205948E-09 -1.76096625E-01  1.59623102E-01  1.69999281E-02  4.40451650E-02
 -3.39928219E-08 -3.37956952E-09 -7.84016221E-07 -7.31646548E-07  6.94357956E-02
 -2.72655038E-07  8.50936467E-09 -2.71862524E-07  1.27311958E-01 -1.67369346E-07
  5.40321613E-10 -3.29518790E-08 -1.08849446E-07 -1.08185128E-06  4.73901907E-01
  1.11041309E-08 -1.34705048E-08 -5.54004964E-03 -2.62864458E-04  5.46519294E-02
  6.53710984E-02 -1.09856990E-08 -1.09697901E-02 -4.79515963E-02 -6.11569376E-02
 -7.78502074E-09  1.76096717E-01 -1.59622383E-01 -1.69986747E-02  4.40464716E-02
  2.84962767E-08  6.46769885E-09 -5.54093774E-03 -2.63970757E-04  5.46511947E-02
 -6.53705815E-02  1.07183217E-08 -1.09698515E-02 -4.79518300E-02  6.11567018E-02
  5.68205948E-09  1.76096625E-01 -1.59623102E-01 -1.69999281E-02 -4.40451650E-02
 -3.39928219E-08 -3.37956952E-09  7.84016221E-07  7.31646548E-07  6.94357956E-02
 -2.72655038E-07 -8.50936467E-09  2.71862524E-07  1.27311958E-01 -1.67369346E-07
 -5.40321613E-10  3.29518790E-08  1.08849446E-07  1.08185128E-06 -4.73901907E-01
  1.11041309E-08 -1.34705048E-08 -6.49791349E-02 -1.95754884E-02 -6.49803729E-02
 -1.95760942E-02  1.05599099E-06  2.49023334E-07  6.49791349E-02  1.95754884E-02
  6.49803729E-02  1.95760942E-02 -1.05599099E-06 -2.49023334E-07  1.07687886E-07
  6.67854843E-08 -1.85596045E-08 -2.39776884E-07  1.45097649E-02  7.97457198E-09
  9.60056833E-09 -7.45887503E-08  3.06147554E-02 -2.60584494E-07  2.62746320E-07
  9.71847333E-08  2.62889327E-07  7.59034367E-02 -1.87103181E-01 -1.20930417E-07
 -7.29384892E-08  6.72453722E-09 -2.84881048E-07  4.56582777E-02 -1.98412635E-08
 -3.09752094E-08 -7.73903283E-08  9.63369027E-02  2.36799204E-07 -2.27326542E-07
 -1.16136180E-07  2.14450517E-07  4.47520526E-01  2.27336506E-01  1.43806081E-07
  1.19259581E-07  2.24852896E-08 -3.11662631E-07  3.11489597E-02  8.53838927E-09
  3.13082071E-10 -1.35888460E-07  6.57223439E-02 -4.04330538E-07  4.64419766E-07
  1.43664651E-07  2.20894757E-08 -9.72039453E-02  3.41947065E-01 -1.07687886E-07
 -6.67854843E-08 -1.85596045E-08 -2.39776884E-07 -1.45097649E-02 -7.97457198E-09
  9.60056833E-09 -7.45887503E-08 -3.06147554E-02  2.60584494E-07 -2.62746320E-07
 -9.71847333E-08 -2.62889327E-07  7.59034367E-02 -1.87103181E-01  1.20930417E-07
  7.29384892E-08  6.72453722E-09 -2.84881048E-07 -4.56582777E-02  1.98412635E-08
 -3.09752094E-08 -7.73903283E-08 -9.63369027E-02 -2.36799204E-07  2.27326542E-07
  1.16136180E-07 -2.14450517E-07  4.47520526E-01  2.27336506E-01 -1.43806081E-07
 -1.19259581E-07  2.24852896E-08 -3.11662631E-07 -3.11489597E-02 -8.53838927E-09
  3.13082071E-10 -1.35888460E-07 -6.57223439E-02  4.04330538E-07 -4.64419766E-07
 -1.43664651E-07 -2.20894757E-08 -9.72039453E-02  3.41947065E-01 -2.17855759E-07
 -4.17626368E-08  2.40166898E-07  3.68118389E-08  1.73255486E-07 -2.22559226E-08
  2.17855759E-07  4.17626368E-08 -2.40166898E-07 -3.68118389E-08 -1.73255486E-07
  2.22559226E-08  1.93098398E-07  1.39505136E-07 -5.58871205E-08  7.24211466E-08
  4.43443104E-02  1.15619427E-08 -2.54283954E-08  3.23520427E-08  9.35646718E-02
  7.33429391E-08 -2.59084970E-08  1.75383762E-07 -2.82703914E-08  4.41890501E-01
 -2.08243157E-01 -1.91238588E-07 -1.38026594E-07  4.38021685E-08  8.17594642E-08
  9.60671480E-03 -1.24104119E-08  2.75660717E-08  2.74627981E-08  2.02693894E-02
 -5.03661232E-08  1.00108631E-08 -1.80217028E-07 -1.45917884E-08  2.74505269E-02
  1.63373792E-01  1.91719989E-07  1.31463080E-07 -8.31866963E-09  9.90921700E-09
 -3.47383501E-02  1.87042740E-08 -2.95192205E-09  1.82028220E-09 -7.32955852E-02
  9.90834888E-08 -7.58925631E-08  1.82011129E-07 -1.14986982E-08 -8.71598030E-02
 -3.81350613E-01 -1.93098398E-07 -1.39505136E-07 -5.58871205E-08  7.24211466E-08
 -4.43443104E-02 -1.15619427E-08 -2.54283954E-08  3.23520427E-08 -9.35646718E-02
 -7.33429391E-08  2.59084970E-08 -1.75383762E-07  2.82703914E-08  4.41890501E-01
 -2.08243157E-01  1.91238588E-07  1.38026594E-07  4.38021685E-08  8.17594642E-08
 -9.60671480E-03  1.24104119E-08  2.75660717E-08  2.74627981E-08 -2.02693894E-02
  5.03661232E-08 -1.00108631E-08  1.80217028E-07  1.45917884E-08  2.74505269E-02
  1.63373792E-01 -1.91719989E-07 -1.31463080E-07 -8.31866963E-09  9.90921700E-09
  3.47383501E-02 -1.87042740E-08 -2.95192205E-09  1.82028220E-09  7.32955852E-02
 -9.90834888E-08  7.58925631E-08 -1.82011129E-07  1.14986982E-08 -8.71598030E-02
 -3.81350613E-01 -1.33886710E-07 -7.08650713E-08  1.40727826E-07  7.12914436E-08
 -2.25496391E-07 -7.45216601E-08  1.33886710E-07  7.08650713E-08 -1.40727826E-07
 -7.12914436E-08  2.25496391E-07  7.45216601E-08  6.19117908E-02  3.47675254E-02
 -2.18077347E-02 -1.62586095E-01 -1.98879370E-08  3.86080793E-03  1.02105671E-02
 -3.78838902E-02 -5.21360677E-08 -1.47512236E-01  1.44361473E-01  5.27835499E-02
  1.56917364E-01 -1.36438516E-07  3.08963831E-07 -6.19121699E-02 -3.47678592E-02
  2.18085795E-02 -1.62586549E-01 -9.53261226E-08 -3.86075468E-03 -1.02105057E-02
 -3.78836009E-02 -1.73549598E-07  1.47511278E-01 -1.44360790E-01 -5.27838292E-02
  1.56916660E-01 -7.69247702E-07 -3.93978493E-07  9.34497328E-02  6.80702584E-02
  6.74729756E-07 -1.65224096E-01 -5.41847826E-08  1.15503938E-02  4.33164285E-07
 -7.01030266E-02 -1.14615847E-07 -2.57876729E-01  2.79599293E-01  9.06267751E-02
  7.16666360E-07  1.57640590E-07 -5.67800571E-07 -6.19117908E-02 -3.47675254E-02
 -2.18077347E-02 -1.62586095E-01  1.98879370E-08 -3.86080793E-03  1.02105671E-02
 -3.78838902E-02  5.21360677E-08  1.47512236E-01 -1.44361473E-01 -5.27835499E-02
 -1.56917364E-01 -1.36438516E-07  3.08963831E-07  6.19121699E-02  3.47678592E-02
  2.18085795E-02 -1.62586549E-01  9.53261226E-08  3.86075468E-03 -1.02105057E-02
 -3.78836009E-02  1.73549598E-07 -1.47511278E-01  1.44360790E-01  5.27838292E-02
 -1.56916660E-01 -7.69247702E-07 -3.93978493E-07 -9.34497328E-02 -6.80702584E-02
  6.74729756E-07 -1.65224096E-01  5.41847826E-08 -1.15503938E-02  4.33164285E-07
 -7.01030266E-02  1.14615847E-07  2.57876729E-01 -2.79599293E-01 -9.06267751E-02
 -7.16666360E-07  1.57640590E-07 -5.67800571E-07 -1.19376074E-01 -2.08718310E-02
  1.19375630E-01  2.08719458E-02  9.16878783E-02 -9.00482946E-03  1.19376074E-01
  2.08718310E-02 -1.19375630E-01 -2.08719458E-02 -9.16878783E-02  9.00482946E-03
  2.27953058E-01  1.33704533E-01 -4.71199947E-02  9.11960604E-02 -1.33143108E-07
  1.13484997E-02 -3.09204789E-02  3.07138912E-02 -1.30318828E-07  5.18988412E-02
 -3.55562260E-02  1.83412951E-01 -2.30365557E-02 -4.99604445E-07  2.52999998E-07
 -2.27952706E-01 -1.33704314E-01  4.71203051E-02  9.11965305E-02  6.49116256E-08
 -1.13483426E-02  3.09200309E-02  3.07144372E-02  3.18184389E-09 -5.19000733E-02
  3.55573185E-02 -1.83412448E-01 -2.30367986E-02  1.95923460E-08 -1.29076103E-07
  2.18236096E-01  1.23040565E-01  1.42612094E-07 -1.11068337E-02 -3.68332966E-08
  1.04991337E-02  3.80434791E-07 -1.26278899E-02  4.60992810E-08  1.09229427E-01
 -1.03517429E-01  1.74123378E-01  1.88166234E-06  9.01465551E-08  2.81059907E-07
 -2.27953058E-01 -1.33704533E-01 -4.71199947E-02  9.11960604E-02  1.33143108E-07
 -1.13484997E-02 -3.09204789E-02  3.07138912E-02  1.30318828E-07 -5.18988412E-02
  3.55562260E-02 -1.83412951E-01  2.30365557E-02 -4.99604445E-07  2.52999998E-07
  2.27952706E-01  1.33704314E-01  4.71203051E-02  9.11965305E-02 -6.49116256E-08
  1.13483426E-02  3.09200309E-02  3.07144372E-02 -3.18184389E-09  5.19000733E-02
 -3.55573185E-02  1.83412448E-01  2.30367986E-02  1.95923460E-08 -1.29076103E-07
 -2.18236096E-01 -1.23040565E-01  1.42612094E-07 -1.11068337E-02  3.68332966E-08
 -1.04991337E-02  3.80434791E-07 -1.26278899E-02 -4.60992810E-08 -1.09229427E-01
  1.03517429E-01 -1.74123378E-01 -1.88166234E-06  9.01465551E-08  2.81059907E-07
 -1.32247173E-01 -7.02601435E-02  1.32246712E-01  7.02600031E-02 -2.08176359E-01
 -7.68277430E-02  1.32247173E-01  7.02601435E-02 -1.32246712E-01 -7.02600031E-02
  2.08176359E-01  7.68277430E-02  5.97258405E-07  3.51251725E-08  4.51644880E-08
 -1.17004367E-08  3.03013755E-01  2.86081729E-08 -1.15804154E-08  1.40023899E-08
  9.36208477E-02 -5.05289592E-08 -1.16088627E-07  6.15805317E-08 -4.32377377E-08
  2.25240861E-01 -1.30042877E-01  5.66819194E-08 -5.67336931E-09  1.83243759E-08
  1.27294895E-07 -3.03013843E-01  1.57626461E-08  2.68377127E-08 -6.46835855E-09
 -9.36208662E-02 -9.03880288E-09 -2.94619352E-08  9.25933004E-09  6.81628288E-09
 -2.25240886E-01 -1.30042936E-01 -1.15757604E-07  1.72197871E-09 -7.99999704E-08
 -6.19800036E-08  3.03013773E-01 -1.95513824E-08  8.71168723E-09 -8.83113307E-09
  9.36208160E-02  7.25764629E-08 -1.80137598E-08 -1.64819814E-08 -2.06027616E-08
 -3.44558253E-07  2.60084861E-01 -5.97258405E-07 -3.51251725E-08  4.51644880E-08
 -1.17004367E-08 -3.03013755E-01 -2.86081729E-08 -1.15804154E-08  1.40023899E-08
 -9.36208477E-02  5.05289592E-08  1.16088627E-07 -6.15805317E-08  4.32377377E-08
  2.25240861E-01 -1.30042877E-01 -5.66819194E-08  5.67336931E-09  1.83243759E-08
  1.27294895E-07  3.03013843E-01 -1.57626461E-08  2.68377127E-08 -6.46835855E-09
  9.36208662E-02  9.03880288E-09  2.94619352E-08 -9.25933004E-09 -6.81628288E-09
 -2.25240886E-01 -1.30042936E-01  1.15757604E-07 -1.72197871E-09 -7.99999704E-08
 -6.19800036E-08 -3.03013773E-01  1.95513824E-08  8.71168723E-09 -8.83113307E-09
 -9.36208160E-02 -7.25764629E-08  1.80137598E-08  1.64819814E-08  2.06027616E-08
 -3.44558253E-07  2.60084861E-01 -6.82458000E-08 -2.19087067E-08 -2.58704831E-08
  7.89309582E-09  1.12381484E-08 -7.90224330E-09  6.82458000E-08  2.19087067E-08
  2.58704831E-08 -7.89309582E-09 -1.12381484E-08  7.90224330E-09  4.86196306E-01
  1.51159874E-02  2.60455148E-02 -5.53402379E-02 -2.16201370E-07  2.02301933E-02
 -6.57980776E-03  1.46007804E-02 -6.46722668E-08 -5.49025742E-02 -7.61028121E-02
  1.95650527E-02  2.79400150E-03 -1.52551836E-07  8.01475184E-08  4.86190565E-01
  1.51158480E-02  2.60444491E-02  5.53405148E-02  2.20020562E-07  2.02299462E-02
 -6.57956312E-03 -1.46010152E-02  6.92259577E-08 -5.49013150E-02 -7.61024814E-02
  1.95648640E-02 -2.79395351E-03  1.69072113E-07  8.98226277E-08 -6.26535613E-06
 -1.60976131E-07 -6.55705938E-02 -7.73894329E-07 -2.12756034E-07 -2.30851859E-07
  1.05845667E-02  1.31445138E-07 -6.17612212E-08  6.19374491E-07  1.09091759E-06
 -1.85420589E-07  5.31355549E-03  7.30722327E-10 -1.67450667E-07 -4.86196306E-01
 -1.51159874E-02  2.60455148E-02 -5.53402379E-02  2.16201370E-07 -2.02301933E-02
 -6.57980776E-03  1.46007804E-02  6.46722668E-08  5.49025742E-02  7.61028121E-02
 -1.95650527E-02 -2.79400150E-03 -1.52551836E-07  8.01475184E-08 -4.86190565E-01
 -1.51158480E-02  2.60444491E-02  5.53405148E-02 -2.20020562E-07 -2.02299462E-02
 -6.57956312E-03 -1.46010152E-02 -6.92259577E-08  5.49013150E-02  7.61024814E-02
 -1.95648640E-02  2.79395351E-03  1.69072113E-07  8.98226277E-08  6.26535613E-06
  1.60976131E-07 -6.55705938E-02 -7.73894329E-07  2.12756034E-07  2.30851859E-07
  1.05845667E-02  1.31445138E-07  6.17612212E-08 -6.19374491E-07 -1.09091759E-06
  1.85420589E-07 -5.31355549E-03  7.30722327E-10 -1.67450667E-07 -3.46003279E-02
 -1.11114562E-02 -3.45997882E-02 -1.11113319E-02  5.68104893E-07  1.47909420E-07
  3.46003279E-02  1.11114562E-02  3.45997882E-02  1.11113319E-02 -5.68104893E-07
 -1.47909420E-07 -2.81151553E-01 -8.46984930E-03 -5.25764625E-02 -2.76271856E-02
  1.45327844E-07 -1.17113430E-02  1.26695688E-02  8.06492038E-03  4.37065480E-08
  5.01318917E-02  2.61976049E-02 -1.13119547E-02  6.76545106E-03  9.57202134E-08
 -6.84913719E-08  2.81162083E-01  8.47024270E-03  5.25771344E-02 -2.76258660E-02
 -1.38333504E-07  1.17118006E-02 -1.26698725E-02  8.06476768E-03 -3.67070607E-08
 -5.01334505E-02 -2.61988285E-02  1.13124896E-02  6.76557815E-03 -8.20711107E-08
 -5.07842434E-08  5.60109622E-01  1.65985385E-02 -8.50445674E-07  6.46985565E-02
  1.52024103E-07  2.37088321E-02  2.21634547E-07 -1.29744918E-02  5.12126081E-08
 -7.01409462E-02 -8.25717637E-02  2.26696998E-02  3.67853733E-07 -7.32031088E-09
  1.44532684E-07  2.81151553E-01  8.46984930E-03 -5.25764625E-02 -2.76271856E-02
 -1.45327844E-07  1.17113430E-02  1.26695688E-02  8.06492038E-03 -4.37065480E-08
 -5.01318917E-02 -2.61976049E-02  1.13119547E-02 -6.76545106E-03  9.57202134E-08
 -6.84913719E-08 -2.81162083E-01 -8.47024270E-03  5.25771344E-02 -2.76258660E-02
  1.38333504E-07 -1.17118006E-02 -1.26698725E-02  8.06476768E-03  3.67070607E-08
  5.01334505E-02  2.61988285E-02 -1.13124896E-02 -6.76557815E-03 -8.20711107E-08
 -5.07842434E-08 -5.60109622E-01 -1.65985385E-02 -8.50445674E-07  6.46985565E-02
 -1.52024103E-07 -2.37088321E-02  2.21634547E-07 -1.29744918E-02 -5.12126081E-08
  7.01409462E-02  8.25717637E-02 -2.26696998E-02 -3.67853733E-07 -7.32031088E-09
  1.44532684E-07  2.38430518E-02  7.37692993E-03 -2.38438635E-02 -7.37723486E-03
 -4.66270728E-02 -1.34703788E-02 -2.38430518E-02 -7.37692993E-03  2.38438635E-02
  7.37723486E-03  4.66270728E-02  1.34703788E-02  3.30977058E-01 -9.67608970E-02
  1.86273621E-02 -1.53408244E-02 -6.69429349E-08 -5.64129567E-03  1.47249068E-02
 -1.03699683E-02 -7.36894634E-09 -3.00086083E-02 -2.92365253E-02 -2.16521014E-01
 -1.16507374E-02 -1.19738091E-08  7.40260579E-09 -3.30976476E-01  9.67607344E-02
 -1.86276855E-02 -1.53414558E-02  8.37977392E-08  5.64116083E-03 -1.47247394E-02
 -1.03701154E-02  2.66053214E-08  3.00092938E-02  2.92362676E-02  2.16520113E-01
 -1.16504442E-02  6.35491904E-08  4.85170560E-08  3.33241771E-01 -9.63465647E-02
  1.02110342E-07  2.16776814E-02 -8.44772786E-08 -7.02298010E-03 -1.33378318E-07
  1.87301080E-02 -2.71493495E-08 -3.55625291E-02 -1.94096265E-02 -2.20677030E-01
 -5.60336724E-07 -9.62152286E-09 -8.09555141E-08 -3.30977058E-01  9.67608970E-02
  1.86273621E-02 -1.53408244E-02  6.69429349E-08  5.64129567E-03  1.47249068E-02
 -1.03699683E-02  7.36894634E-09  3.00086083E-02  2.92365253E-02  2.16521014E-01
  1.16507374E-02 -1.19738091E-08  7.40260579E-09  3.30976476E-01 -9.67607344E-02
 -1.86276855E-02 -1.53414558E-02 -8.37977392E-08 -5.64116083E-03 -1.47247394E-02
 -1.03701154E-02 -2.66053214E-08 -3.00092938E-02 -2.92362676E-02 -2.16520113E-01
  1.16504442E-02  6.35491904E-08  4.85170560E-08 -3.33241771E-01  9.63465647E-02
  1.02110342E-07  2.16776814E-02  8.44772786E-08  7.02298010E-03 -1.33378318E-07
  1.87301080E-02  2.71493495E-08  3.55625291E-02  1.94096265E-02  2.20677030E-01
  5.60336724E-07 -9.62152286E-09 -8.09555141E-08  1.01248904E-01  4.53246240E-02
 -1.01248544E-01 -4.53245405E-02  1.06457167E-01  4.65332848E-02 -1.01248904E-01
 -4.53246240E-02  1.01248544E-01  4.53245405E-02 -1.06457167E-01 -4.65332848E-02
  6.39706839E-02 -2.26668343E-02 -1.35854664E-01 -9.82886304E-02  3.80120195E-08
 -3.64771889E-02  4.80489542E-02  3.28539983E-02  9.62742200E-09  1.14426275E-01
  6.25336657E-02 -2.33284090E-01  5.15373074E-02 -3.79199029E-08 -3.29383239E-08
 -6.39991072E-02  2.26772086E-02  1.35869498E-01 -9.82486353E-02 -8.07640119E-09
  3.64935693E-02 -4.80535484E-02  3.28414840E-02  1.33272675E-08 -1.14457904E-01
 -6.25813633E-02  2.33389071E-01  5.15388305E-02  3.12553772E-08  9.08319342E-09
 -1.24564841E-01  4.10273485E-02 -2.54942527E-05  1.47519260E-01  5.46010443E-08
  7.53114376E-02  6.37198299E-06 -4.29368424E-02  2.34964169E-08 -1.94605744E-01
 -1.64099110E-01  4.62626801E-01  3.40111746E-06 -4.78061082E-08  3.07560434E-08
 -6.39706839E-02  2.26668343E-02 -1.35854664E-01 -9.82886304E-02 -3.80120195E-08
  3.64771889E-02  4.80489542E-02  3.28539983E-02 -9.62742200E-09 -1.14426275E-01
 -6.25336657E-02  2.33284090E-01 -5.15373074E-02 -3.79199029E-08 -3.29383239E-08
  6.39991072E-02 -2.26772086E-02  1.35869498E-01 -9.82486353E-02  8.07640119E-09
 -3.64935693E-02 -4.80535484E-02  3.28414840E-02 -1.33272675E-08  1.14457904E-01
  6.25813633E-02 -2.33389071E-01 -5.15388305E-02  3.12553772E-08  9.08319342E-09
  1.24564841E-01 -4.10273485E-02 -2.54942527E-05  1.47519260E-01 -5.46010443E-08
 -7.53114376E-02  6.37198299E-06 -4.29368424E-02 -2.34964169E-08  1.94605744E-01
  1.64099110E-01 -4.62626801E-01 -3.40111746E-06 -4.78061082E-08  3.07560434E-08
  8.36999066E-02  1.86080181E-02 -8.37347399E-02 -1.86146106E-02 -1.59630275E-01
 -2.62341201E-02 -8.36999066E-02 -1.86080181E-02  8.37347399E-02  1.86146106E-02
  1.59630275E-01  2.62341201E-02 -1.08231091E-01  3.87862527E-02  5.49587310E-02
 -1.50412003E-01 -6.46021847E-08  6.30645533E-02 -1.61117855E-02  4.97984877E-02
 -1.54279318E-08 -1.17544502E-01 -1.88653190E-01  4.02149381E-01 -5.78853871E-03
  1.20830270E-08 -4.06725572E-08 -1.08215004E-01  3.87807245E-02  5.49233072E-02
  1.50437333E-01  6.94940554E-08  6.30550203E-02 -1.60992735E-02 -4.98071989E-02
  2.01340721E-08 -1.17514228E-01 -1.88636929E-01  4.02089063E-01  5.77509177E-03
  4.06653607E-08 -3.38665098E-08  1.64960631E-05 -5.54103784E-06 -1.92409702E-01
 -1.94166409E-05 -4.27561390E-08 -9.82420769E-06  4.78388479E-02  5.68748084E-06
  8.43674250E-10  2.53115835E-05  2.16459194E-05 -6.08986774E-05  2.46000736E-02
  1.62152914E-08  1.47082183E-08  1.08231091E-01 -3.87862527E-02  5.49587310E-02
 -1.50412003E-01  6.46021847E-08 -6.30645533E-02 -1.61117855E-02  4.97984877E-02
  1.54279318E-08  1.17544502E-01  1.88653190E-01 -4.02149381E-01  5.78853871E-03
  1.20830270E-08 -4.06725572E-08  1.08215004E-01 -3.87807245E-02  5.49233072E-02
  1.50437333E-01 -6.94940554E-08 -6.30550203E-02 -1.60992735E-02 -4.98071989E-02
 -2.01340721E-08  1.17514228E-01  1.88636929E-01 -4.02089063E-01 -5.77509177E-03
  4.06653607E-08 -3.38665098E-08 -1.64960631E-05  5.54103784E-06 -1.92409702E-01
 -1.94166409E-05  4.27561390E-08  9.82420769E-06  4.78388479E-02  5.68748084E-06
 -8.43674250E-10 -2.53115835E-05 -2.16459194E-05  6.08986774E-05 -2.46000736E-02
  1.62152914E-08  1.47082183E-08 -1.33227334E-01 -2.43411008E-02 -1.33205790E-01
 -2.43364651E-02  2.10955674E-05  3.54492772E-06  1.33227334E-01  2.43411008E-02
  1.33205790E-01  2.43364651E-02 -2.10955674E-05 -3.54492772E-06 -5.35970728E-03
  6.20943648E-02  2.75433756E-01  1.66226772E-01  2.52907020E-08 -3.07807474E-02
  6.41258071E-02  9.26257371E-02  9.01643797E-09  2.11183477E-01 -8.80841041E-02
 -2.83413195E-03  3.09305223E-01 -4.69983219E-08 -3.99946463E-08  5.35972491E-03
 -6.20942169E-02 -2.75433227E-01  1.66227229E-01  8.24073192E-09  3.07806390E-02
 -6.41260763E-02  9.26262094E-02  1.37369108E-08 -2.11184518E-01  8.80852929E-02
  2.83425216E-03  3.09304722E-01  5.36900150E-10 -2.00075010E-09  1.17511450E-02
 -1.43311967E-01 -4.81470311E-07 -2.36446262E-01  3.26030773E-09  7.86876039E-02
  2.80040550E-08  2.98410515E-02  8.42070788E-09 -2.16609257E-01 -7.38013471E-02
  1.65937093E-02 -8.16757696E-07 -7.34982828E-08 -3.15443543E-08  5.35970728E-03
 -6.20943648E-02  2.75433756E-01  1.66226772E-01 -2.52907020E-08  3.07807474E-02
  6.41258071E-02  9.26257371E-02 -9.01643797E-09 -2.11183477E-01  8.80841041E-02
  2.83413195E-03 -3.09305223E-01 -4.69983219E-08 -3.99946463E-08 -5.35972491E-03
  6.20942169E-02 -2.75433227E-01  1.66227229E-01 -8.24073192E-09 -3.07806390E-02
 -6.41260763E-02  9.26262094E-02 -1.37369108E-08  2.11184518E-01 -8.80852929E-02
 -2.83425216E-03 -3.09304722E-01  5.36900150E-10 -2.00075010E-09 -1.17511450E-02
  1.43311967E-01 -4.81470311E-07 -2.36446262E-01 -3.26030773E-09 -7.86876039E-02
  2.80040550E-08  2.98410515E-02 -8.42070788E-09  2.16609257E-01  7.38013471E-02
 -1.65937093E-02  8.16757696E-07 -7.34982828E-08 -3.15443543E-08  2.10846162E-02
 -3.58097597E-02 -2.10847607E-02  3.58096475E-02 -1.97937843E-02  1.41801089E-01
 -2.10846162E-02  3.58097597E-02  2.10847607E-02 -3.58096475E-02  1.97937843E-02
 -1.41801089E-01 -8.67190046E-03  1.42187350E-01  2.33422706E-01 -2.40129371E-01
  3.65119325E-08 -7.42524429E-02 -8.00605877E-02 -6.92041219E-02  1.28444168E-08
 -3.41894840E-02  3.42179159E-01 -3.17215594E-02  1.84504249E-02 -9.65674651E-09
  8.60443480E-08 -8.67204667E-03  1.42187922E-01  2.33422046E-01  2.40128799E-01
 -9.98174001E-10 -7.42526840E-02 -8.00604497E-02  6.92036763E-02 -8.47383894E-09
 -3.41879802E-02  3.42179093E-01 -3.17219290E-02 -1.84503124E-02 -2.01590831E-09
  1.11440905E-07  2.19814753E-08  3.49204137E-07 -2.52410086E-01  1.35206182E-06
 -4.01016708E-09 -1.99699797E-07 -9.32940871E-02  1.30956073E-07 -1.35919131E-08
  9.97915433E-07  1.13051191E-06 -1.42085946E-06 -2.23097430E-01 -1.88164013E-08
 -2.57448964E-09  8.67190046E-03 -1.42187350E-01  2.33422706E-01 -2.40129371E-01
 -3.65119325E-08  7.42524429E-02 -8.00605877E-02 -6.92041219E-02 -1.28444168E-08
  3.41894840E-02 -3.42179159E-01  3.17215594E-02 -1.84504249E-02 -9.65674651E-09
  8.60443480E-08  8.67204667E-03 -1.42187922E-01  2.33422046E-01  2.40128799E-01
  9.98174001E-10  7.42526840E-02 -8.00604497E-02  6.92036763E-02  8.47383894E-09
  3.41879802E-02 -3.42179093E-01  3.17219290E-02  1.84503124E-02 -2.01590831E-09
  1.11440905E-07 -2.19814753E-08 -3.49204137E-07 -2.52410086E-01  1.35206182E-06
  4.01016708E-09  1.99699797E-07 -9.32940871E-02  1.30956073E-07  1.35919131E-08
 -9.97915433E-07 -1.13051191E-06  1.42085946E-06  2.23097430E-01 -1.88164013E-08
 -2.57448964E-09 -1.12658614E-02 -1.65466192E-01 -1.12656864E-02 -1.65466539E-01
 -5.57369375E-07 -5.59876905E-07  1.12658614E-02  1.65466192E-01  1.12656864E-02
  1.65466539E-01  5.57369375E-07  5.59876905E-07  1.66001372E-09  6.47885744E-09
 -4.49808075E-09  3.27573564E-08 -3.28071100E-01 -9.47482226E-09  5.41531850E-09
 -9.16004945E-09 -3.06187702E-02  4.59004526E-08  2.21641084E-08 -5.66628153E-08
  3.14936557E-08  3.40581116E-01 -1.96581710E-01  2.09515830E-09  1.41041439E-08
  4.34430206E-08  3.96629368E-08  3.28049390E-01 -1.04848717E-08 -1.29414202E-08
  3.27648839E-09  3.06004828E-02  2.03551939E-08  6.51424753E-08 -5.65216739E-08
  5.49745781E-08 -3.40520984E-01 -1.96619966E-01 -2.04763429E-09  1.32512286E-08
  1.14585438E-08  2.19093640E-08 -3.28065147E-01 -6.78605993E-10 -1.15475729E-08
 -2.15219047E-08 -3.06135141E-02 -2.09768591E-08 -3.30908118E-09  5.17699521E-08
 -1.92900799E-08  6.26173196E-05  3.93233809E-01 -1.66001372E-09 -6.47885744E-09
 -4.49808075E-09  3.27573564E-08  3.28071100E-01  9.47482226E-09  5.41531850E-09
 -9.16004945E-09  3.06187702E-02 -4.59004526E-08 -2.21641084E-08  5.66628153E-08
 -3.14936557E-08  3.40581116E-01 -1.96581710E-01 -2.09515830E-09 -1.41041439E-08
  4.34430206E-08  3.96629368E-08 -3.28049390E-01  1.04848717E-08 -1.29414202E-08
  3.27648839E-09 -3.06004828E-02 -2.03551939E-08 -6.51424753E-08  5.65216739E-08
 -5.49745781E-08 -3.40520984E-01 -1.96619966E-01  2.04763429E-09 -1.32512286E-08
  1.14585438E-08  2.19093640E-08  3.28065147E-01  6.78605993E-10 -1.15475729E-08
 -2.15219047E-08  3.06135141E-02  2.09768591E-08  3.30908118E-09 -5.17699521E-08
  1.92900799E-08  6.26173196E-05  3.93233809E-01  1.00591286E-08  5.11592529E-09
 -1.54375281E-08 -2.78716814E-08  1.00442128E-08 -3.36752371E-08 -1.00591286E-08
 -5.11592529E-09  1.54375281E-08  2.78716814E-08 -1.00442128E-08  3.36752371E-08
  1.82468077E-04 -8.18490009E-02 -6.41511258E-02  2.14162213E-01  1.75184001E-07
  3.63010860E-02  6.58602210E-02 -8.70271972E-02  1.15130122E-07 -2.72209964E-02
 -1.55448350E-01  1.74406997E-02  2.86151622E-01  1.56232823E-07  7.46663876E-07
 -1.82436866E-04  8.18485788E-02  6.41504796E-02  2.14161829E-01 -4.24773170E-08
 -3.63008490E-02 -6.58599732E-02 -8.70276377E-02 -6.56691426E-08  2.72209538E-02
  1.55447357E-01 -1.74404238E-02  2.86151895E-01 -3.47236244E-07  8.99621452E-07
  4.64050401E-04  1.39999860E-01  7.61343698E-07  4.14373270E-01 -1.05661399E-07
 -5.40033722E-02  2.23951863E-07 -1.49084935E-01 -1.77494162E-07  3.69271410E-02
  2.64109540E-01 -1.08268232E-02  7.69875578E-07 -2.26930605E-07  2.78576388E-07
 -1.82468077E-04  8.18490009E-02 -6.41511258E-02  2.14162213E-01 -1.75184001E-07
 -3.63010860E-02  6.58602210E-02 -8.70271972E-02 -1.15130122E-07  2.72209964E-02
  1.55448350E-01 -1.74406997E-02 -2.86151622E-01  1.56232823E-07  7.46663876E-07
  1.82436866E-04 -8.18485788E-02  6.41504796E-02  2.14161829E-01  4.24773170E-08
  3.63008490E-02 -6.58599732E-02 -8.70276377E-02  6.56691426E-08 -2.72209538E-02
 -1.55447357E-01  1.74404238E-02 -2.86151895E-01 -3.47236244E-07  8.99621452E-07
 -4.64050401E-04 -1.39999860E-01  7.61343698E-07  4.14373270E-01  1.05661399E-07
  5.40033722E-02  2.23951863E-07 -1.49084935E-01  1.77494162E-07 -3.69271410E-02
 -2.64109540E-01  1.08268232E-02 -7.69875578E-07 -2.26930605E-07  2.78576388E-07
  1.15386746E-03  1.82996091E-01 -1.15359716E-03 -1.82995779E-01  5.76995619E-03
 -2.89236004E-01 -1.15386746E-03 -1.82996091E-01  1.15359716E-03  1.82995779E-01
 -5.76995619E-03  2.89236004E-01  3.52513074E-09  4.16908192E-09  1.31674100E-08
  4.33761919E-09 -9.67770801E-02 -7.39917506E-09  7.52363111E-09  1.49623677E-08
 -8.13629238E-02  4.79887305E-08 -1.42407025E-08 -2.43971104E-08  4.24073781E-08
  3.63381551E-01  3.33462264E-01 -1.09082735E-09 -2.26279188E-09 -7.02910106E-09
  4.80159728E-09 -1.29814407E-01  4.66370910E-09 -1.53579527E-08  1.72824864E-08
 -1.09082554E-01 -1.59536289E-08  2.00636215E-09  1.01193021E-08  3.31470131E-08
  2.64130147E-01 -6.05784416E-02 -2.40427012E-09 -2.27060799E-08  1.86164001E-08
 -3.93560839E-08 -3.29416690E-02  1.79972551E-08  8.54242911E-10  8.90062580E-09
 -2.77108074E-02 -6.24863081E-08 -3.10038610E-08  4.95211931E-08 -7.59548586E-09
  6.55005047E-01  5.03740540E-02 -3.52513074E-09 -4.16908192E-09  1.31674100E-08
  4.33761919E-09  9.67770801E-02  7.39917506E-09  7.52363111E-09  1.49623677E-08
  8.13629238E-02 -4.79887305E-08  1.42407025E-08  2.43971104E-08 -4.24073781E-08
  3.63381551E-01  3.33462264E-01  1.09082735E-09  2.26279188E-09 -7.02910106E-09
  4.80159728E-09  1.29814407E-01 -4.66370910E-09 -1.53579527E-08  1.72824864E-08
  1.09082554E-01  1.59536289E-08 -2.00636215E-09 -1.01193021E-08 -3.31470131E-08
  2.64130147E-01 -6.05784416E-02  2.40427012E-09  2.27060799E-08  1.86164001E-08
 -3.93560839E-08  3.29416690E-02 -1.79972551E-08  8.54242911E-10  8.90062580E-09
  2.77108074E-02  6.24863081E-08  3.10038610E-08 -4.95211931E-08  7.59548586E-09
  6.55005047E-01  5.03740540E-02  1.69174897E-08 -4.04238752E-09 -9.73234022E-10
 -1.23182728E-08 -7.62436351E-09  2.96131216E-08 -1.69174897E-08  4.04238752E-09
  9.73234022E-10  1.23182728E-08  7.62436351E-09 -2.96131216E-08 -3.55142507E-09
  8.67502329E-08  1.40497631E-08 -2.95360878E-07  9.39678824E-02 -3.33626726E-08
 -6.14418330E-08  1.22141353E-07  7.89777793E-02 -1.97848429E-08  1.89598531E-07
  4.04931925E-09 -3.84926552E-07  1.17938101E-01  4.91597114E-01 -2.57826569E-09
 -1.65568584E-07 -2.04549067E-07 -3.50027846E-07 -3.68554964E-02  7.96176783E-08
  1.30733412E-07  1.44943393E-07 -3.09762133E-02 -1.26277924E-07 -2.83949591E-07
  7.57996064E-08 -4.27996597E-07 -2.76102010E-01  5.90914501E-01 -2.28128494E-09
 -2.05682410E-07 -4.09171552E-08 -6.02688536E-07 -1.30822320E-01  8.31021110E-08
  3.57006445E-08  2.20315215E-07 -1.09953816E-01 -5.42791704E-08 -3.97511063E-07
  2.57007106E-08 -2.61691092E-08 -1.65093622E-01  2.00006336E-01  3.55142507E-09
 -8.67502329E-08  1.40497631E-08 -2.95360878E-07 -9.39678824E-02  3.33626726E-08
 -6.14418330E-08  1.22141353E-07 -7.89777793E-02  1.97848429E-08 -1.89598531E-07
 -4.04931925E-09  3.84926552E-07  1.17938101E-01  4.91597114E-01  2.57826569E-09
  1.65568584E-07 -2.04549067E-07 -3.50027846E-07  3.68554964E-02 -7.96176783E-08
  1.30733412E-07  1.44943393E-07  3.09762133E-02  1.26277924E-07  2.83949591E-07
 -7.57996064E-08  4.27996597E-07 -2.76102010E-01  5.90914501E-01  2.28128494E-09
  2.05682410E-07 -4.09171552E-08 -6.02688536E-07  1.30822320E-01 -8.31021110E-08
  3.57006445E-08  2.20315215E-07  1.09953816E-01  5.42791704E-08  3.97511063E-07
 -2.57007106E-08  2.61691092E-08 -1.65093622E-01  2.00006336E-01 -1.51852553E-08
 -2.01879656E-07 -6.02477346E-09  3.51852828E-07 -1.08902795E-08  4.17696312E-07
  1.51852553E-08  2.01879656E-07  6.02477346E-09 -3.51852828E-07  1.08902795E-08
 -4.17696312E-07  2.88581193E-03  9.18592979E-02  2.75028883E-01 -5.00455623E-02
  3.00612261E-08 -3.37276376E-02 -1.05889017E-01  1.08111187E-01  2.50307566E-08
  3.50621405E-01 -1.61340393E-01  5.37858201E-03 -1.14985672E-01 -2.38068272E-09
  1.09652325E-07  2.88592281E-03  9.18590681E-02  2.75030006E-01  5.00468537E-02
  2.32618207E-08 -3.37275520E-02 -1.05889164E-01 -1.08111083E-01 -2.16615405E-08
  3.50620479E-01 -1.61339871E-01  5.37867362E-03  1.14985701E-01 -4.10325152E-08
  1.43362138E-07  2.46959028E-09 -3.02710556E-07  2.89886832E-01 -1.25783127E-06
  8.70379203E-09  1.23964294E-07 -6.54568303E-02 -1.55078661E-08 -3.11600935E-08
 -1.00872102E-06 -3.75083654E-07  7.66365002E-07  2.66217768E-01 -5.36078378E-08
  3.42424507E-08 -2.88581193E-03 -9.18592979E-02  2.75028883E-01 -5.00455623E-02
 -3.00612261E-08  3.37276376E-02 -1.05889017E-01  1.08111187E-01 -2.50307566E-08
 -3.50621405E-01  1.61340393E-01 -5.37858201E-03  1.14985672E-01 -2.38068272E-09
  1.09652325E-07 -2.88592281E-03 -9.18590681E-02  2.75030006E-01  5.00468537E-02
 -2.32618207E-08  3.37275520E-02 -1.05889164E-01 -1.08111083E-01  2.16615405E-08
 -3.50620479E-01  1.61339871E-01 -5.37867362E-03 -1.14985701E-01 -4.10325152E-08
  1.43362138E-07 -2.46959028E-09  3.02710556E-07  2.89886832E-01 -1.25783127E-06
 -8.70379203E-09 -1.23964294E-07 -6.54568303E-02 -1.55078661E-08  3.11600935E-08
  1.00872102E-06  3.75083654E-07 -7.66365002E-07 -2.66217768E-01 -5.36078378E-08
  3.42424507E-08  1.98055993E-02 -2.42864220E-01  1.98052293E-02 -2.42864344E-01
  1.09177090E-06  1.04395106E-08 -1.98055993E-02  2.42864220E-01 -1.98052293E-02
  2.42864344E-01 -1.09177090E-06 -1.04395106E-08  3.26561815E-03  6.43178914E-02
  3.74860297E-01 -2.19186198E-01 -8.09493691E-08 -2.78390138E-02 -8.40908157E-02
  4.83943772E-02  2.62453571E-08  1.23930013E-01  1.29016400E-01 -1.21650454E-01
  6.39795445E-04  1.44157141E-08 -8.53374800E-09 -3.26554764E-03 -6.43179934E-02
 -3.74859917E-01 -2.19186804E-01 -5.16226706E-08  2.78390882E-02  8.40906726E-02
  4.83935723E-02  2.15316023E-08 -1.23929267E-01 -1.29017857E-01  1.21651133E-01
  6.40648387E-04 -2.80963325E-08 -5.30917479E-08  3.16260283E-03  6.38753463E-02
  1.50560945E-06  4.32008616E-01  4.91263265E-08 -2.76929618E-02 -1.62562158E-07
 -9.51476294E-02 -2.02912658E-08  1.31263770E-01  1.21195621E-01 -1.22310160E-01
  1.33533120E-06  3.18573346E-08  4.99339726E-08 -3.26561815E-03 -6.43178914E-02
  3.74860297E-01 -2.19186198E-01  8.09493691E-08  2.78390138E-02 -8.40908157E-02
  4.83943772E-02 -2.62453571E-08 -1.23930013E-01 -1.29016400E-01  1.21650454E-01
 -6.39795445E-04  1.44157141E-08 -8.53374800E-09  3.26554764E-03  6.43179934E-02
 -3.74859917E-01 -2.19186804E-01  5.16226706E-08 -2.78390882E-02  8.40906726E-02
  4.83935723E-02 -2.15316023E-08  1.23929267E-01  1.29017857E-01 -1.21651133E-01
 -6.40648387E-04 -2.80963325E-08 -5.30917479E-08 -3.16260283E-03 -6.38753463E-02
  1.50560945E-06  4.32008616E-01 -4.91263265E-08  2.76929618E-02 -1.62562158E-07
 -9.51476294E-02  2.02912658E-08 -1.31263770E-01 -1.21195621E-01  1.22310160E-01
 -1.33533120E-06  3.18573346E-08  4.99339726E-08 -1.30560504E-01 -1.98726283E-01
  1.30561090E-01  1.98725816E-01 -1.31410010E-01 -1.96154444E-01  1.30560504E-01
  1.98726283E-01 -1.30561090E-01 -1.98725816E-01  1.31410010E-01  1.96154444E-01
 -2.39356930E-10  2.12190026E-09 -1.65119445E-08 -3.68550053E-08  1.12076866E-01
 -1.93257650E-10  1.88236605E-08  3.99991070E-08 -9.89679003E-02 -1.31324913E-08
  2.13338452E-08 -5.08332640E-09 -2.07417542E-08  1.64516837E-02  9.41321472E-03
 -2.85183170E-09 -2.66125598E-08 -4.14497624E-08 -3.52389580E-08  6.12233029E-01
  2.51183598E-08  4.16239511E-08  4.12756332E-08 -5.40623106E-01 -2.68578224E-08
 -9.07246073E-09 -1.45717400E-08 -2.39815048E-08  4.22783353E-02  3.10070093E-02
 -3.26532985E-09 -2.01639318E-08 -1.22926156E-08 -3.76163149E-08  5.00156228E-01
  2.06067699E-08  1.33709318E-08  3.94992702E-08 -4.41655478E-01 -6.30284137E-09
 -1.05167043E-08 -2.31021045E-08 -6.58797641E-09  1.06640936E-02  4.25769206E-02
  2.39356930E-10 -2.12190026E-09 -1.65119445E-08 -3.68550053E-08 -1.12076866E-01
  1.93257650E-10  1.88236605E-08  3.99991070E-08  9.89679003E-02  1.31324913E-08
 -2.13338452E-08  5.08332640E-09  2.07417542E-08  1.64516837E-02  9.41321472E-03
  2.85183170E-09  2.66125598E-08 -4.14497624E-08 -3.52389580E-08 -6.12233029E-01
 -2.51183598E-08  4.16239511E-08  4.12756332E-08  5.40623106E-01  2.68578224E-08
  9.07246073E-09  1.45717400E-08  2.39815048E-08  4.22783353E-02  3.10070093E-02
  3.26532985E-09  2.01639318E-08 -1.22926156E-08 -3.76163149E-08 -5.00156228E-01
 -2.06067699E-08  1.33709318E-08  3.94992702E-08  4.41655478E-01  6.30284137E-09
  1.05167043E-08  2.31021045E-08  6.58797641E-09  1.06640936E-02  4.25769206E-02
 -7.64935821E-09 -1.86307249E-09  4.86256629E-09  7.32009755E-09 -4.74354424E-09
 -3.38385100E-09  7.64935821E-09  1.86307249E-09 -4.86256629E-09 -7.32009755E-09
  4.74354424E-09  3.38385100E-09  4.74713281E-09 -3.08696160E-08  8.63328572E-08
 -7.96736878E-08  6.42238209E-01  9.71106021E-09 -5.65726455E-10 -7.50562101E-09
 -5.67119133E-01 -8.17319974E-08  1.86269293E-09  3.52143241E-08  6.40235170E-08
  4.59182132E-02 -2.98112346E-02 -2.18320767E-09  2.99411130E-08 -8.14210288E-08
 -9.74179706E-08  2.24057614E-01 -6.03280561E-09 -4.93329150E-09  2.47517756E-09
 -1.97850922E-01  8.13829728E-08 -1.37546227E-08 -2.08223799E-08  6.42135531E-08
  2.43245948E-02 -3.98431428E-03  3.18547808E-10 -1.98801970E-08  1.50480079E-08
  1.21237688E-07 -4.18180469E-01  1.48472006E-09 -9.15428462E-09  8.86590056E-09
  3.69268238E-01  7.60685300E-08 -1.16154996E-07  6.36151228E-09  2.46168067E-09
  1.27549529E-02 -3.55985210E-02 -4.74713281E-09  3.08696160E-08  8.63328572E-08
 -7.96736878E-08 -6.42238209E-01 -9.71106021E-09 -5.65726455E-10 -7.50562101E-09
  5.67119133E-01  8.17319974E-08 -1.86269293E-09 -3.52143241E-08 -6.40235170E-08
  4.59182132E-02 -2.98112346E-02  2.18320767E-09 -2.99411130E-08 -8.14210288E-08
 -9.74179706E-08 -2.24057614E-01  6.03280561E-09 -4.93329150E-09  2.47517756E-09
  1.97850922E-01 -8.13829728E-08  1.37546227E-08  2.08223799E-08 -6.42135531E-08
  2.43245948E-02 -3.98431428E-03 -3.18547808E-10  1.98801970E-08  1.50480079E-08
  1.21237688E-07  4.18180469E-01 -1.48472006E-09 -9.15428462E-09  8.86590056E-09
 -3.69268238E-01 -7.60685300E-08  1.16154996E-07 -6.36151228E-09 -2.46168067E-09
  1.27549529E-02 -3.55985210E-02 -3.77441421E-08  3.87080565E-08  4.90919567E-08
 -3.82427292E-08 -8.25604326E-08  6.32736753E-08  3.77441421E-08 -3.87080565E-08
 -4.90919567E-08  3.82427292E-08  8.25604326E-08 -6.32736753E-08 -1.63954837E-02
  1.33841142E-01 -1.56485649E-01  2.34136988E-01  1.87466406E-07 -3.07059149E-02
 -8.07500703E-02  3.53623917E-02 -1.69243356E-07  3.51266547E-01  1.46521975E-02
 -1.69702722E-01 -2.58514928E-01 -4.21566141E-09  1.31412205E-08  1.63953566E-02
 -1.33840927E-01  1.56484467E-01  2.34138653E-01  6.07422014E-08  3.07061113E-02
  8.07506156E-02  3.53622657E-02 -5.74346045E-08 -3.51266498E-01 -1.46512844E-02
  1.69701910E-01 -2.58516159E-01  3.39394462E-09 -6.37543829E-09 -2.53271343E-03
  1.23010637E-01 -1.16706005E-06 -2.15273146E-01 -1.20714484E-07 -5.00682371E-02
  1.30075466E-07 -1.72792732E-01  1.02168119E-07 -2.22513146E-01  4.98855268E-01
 -7.17999847E-02 -6.93219291E-07  8.50139990E-09 -2.11967982E-08  1.63954837E-02
 -1.33841142E-01 -1.56485649E-01  2.34136988E-01 -1.87466406E-07  3.07059149E-02
 -8.07500703E-02  3.53623917E-02  1.69243356E-07 -3.51266547E-01 -1.46521975E-02
  1.69702722E-01  2.58514928E-01 -4.21566141E-09  1.31412205E-08 -1.63953566E-02
  1.33840927E-01  1.56484467E-01  2.34138653E-01 -6.07422014E-08 -3.07061113E-02
  8.07506156E-02  3.53622657E-02  5.74346045E-08  3.51266498E-01  1.46512844E-02
 -1.69701910E-01  2.58516159E-01  3.39394462E-09 -6.37543829E-09  2.53271343E-03
 -1.23010637E-01 -1.16706005E-06 -2.15273146E-01  1.20714484E-07  5.00682371E-02
  1.30075466E-07 -1.72792732E-01 -1.02168119E-07  2.22513146E-01 -4.98855268E-01
  7.17999847E-02  6.93219291E-07  8.50139990E-09 -2.11967982E-08  3.22328512E-02
 -1.59746082E-01 -3.22336993E-02  1.59746706E-01  1.98046731E-01 -2.57830472E-01
 -3.22328512E-02  1.59746082E-01  3.22336993E-02 -1.59746706E-01 -1.98046731E-01
  2.57830472E-01  4.72141123E-02  3.55435354E-02 -3.01957603E-02  1.99240152E-01
  1.00308398E-08 -1.26954343E-01 -2.23135962E-01 -9.80586353E-02 -9.33723503E-09
 -1.58686819E-01 -4.29297422E-03  3.01872855E-01  1.79546320E-01  3.62461710E-08
 -1.85665975E-08  4.72141579E-02  3.55435144E-02 -3.01952503E-02 -1.99239357E-01
 -2.36538127E-08 -1.26954460E-01 -2.23135909E-01  9.80584130E-02 -7.91357343E-09
 -1.58686986E-01 -4.29299952E-03  3.01873122E-01 -1.79547403E-01 -8.16822026E-08
 -4.41549396E-08  4.56249301E-08 -3.19741838E-08  1.12330146E-01 -5.44390334E-07
  2.61305211E-08 -6.55929854E-08 -1.32694121E-01 -2.67074796E-08 -4.43894873E-08
 -4.57548668E-07  2.69304712E-07  2.11836511E-07 -3.75062370E-02 -4.55021707E-09
  1.79266236E-08 -4.72141123E-02 -3.55435354E-02 -3.01957603E-02  1.99240152E-01
 -1.00308398E-08  1.26954343E-01 -2.23135962E-01 -9.80586353E-02  9.33723503E-09
  1.58686819E-01  4.29297422E-03 -3.01872855E-01 -1.79546320E-01  3.62461710E-08
 -1.85665975E-08 -4.72141579E-02 -3.55435144E-02 -3.01952503E-02 -1.99239357E-01
  2.36538127E-08  1.26954460E-01 -2.23135909E-01  9.80584130E-02  7.91357343E-09
  1.58686986E-01  4.29299952E-03 -3.01873122E-01  1.79547403E-01 -8.16822026E-08
 -4.41549396E-08 -4.56249301E-08  3.19741838E-08  1.12330146E-01 -5.44390334E-07
 -2.61305211E-08  6.55929854E-08 -1.32694121E-01 -2.67074796E-08  4.43894873E-08
  4.57548668E-07 -2.69304712E-07 -2.11836511E-07  3.75062370E-02 -4.55021707E-09
  1.79266236E-08  6.38418284E-01 -1.78116590E-01  6.38418397E-01 -1.78116542E-01
  7.72118288E-07 -4.60860391E-07 -6.38418284E-01  1.78116590E-01 -6.38418397E-01
  1.78116542E-01 -7.72118288E-07  4.60860391E-07 -2.42133559E-02 -4.94300997E-02
  2.04696689E-01  1.22859714E-01 -1.50342950E-08  7.98464889E-02 -1.14552309E-02
 -2.11379174E-01  1.30350943E-08  1.18334931E-02  1.11523605E-02 -1.42645702E-01
 -1.07730392E-01 -1.19594625E-08  1.86458578E-08  2.42131977E-02  4.94303949E-02
 -2.04694693E-01  1.22856886E-01  8.31446952E-09 -7.98464750E-02  1.14532353E-02
 -2.11374643E-01 -4.63210173E-08 -1.18313889E-02 -1.11534087E-02  1.42644695E-01
 -1.07731192E-01 -2.93706069E-08 -1.77107453E-08  5.98643999E-02 -1.15276546E-02
 -4.05164686E-06 -6.89683875E-02 -1.02919832E-08 -1.42674747E-01  3.27986849E-06
 -1.31648918E-01 -3.19628379E-08  6.81467442E-02 -3.74038951E-01  3.93835399E-01
 -1.89134593E-06 -8.05159254E-10 -9.00157119E-08  2.42133559E-02  4.94300997E-02
  2.04696689E-01  1.22859714E-01  1.50342950E-08 -7.98464889E-02 -1.14552309E-02
 -2.11379174E-01 -1.30350943E-08 -1.18334931E-02 -1.11523605E-02  1.42645702E-01
  1.07730392E-01 -1.19594625E-08  1.86458578E-08 -2.42131977E-02 -4.94303949E-02
 -2.04694693E-01  1.22856886E-01 -8.31446952E-09  7.98464750E-02  1.14532353E-02
 -2.11374643E-01  4.63210173E-08  1.18313889E-02  1.11534087E-02 -1.42644695E-01
  1.07731192E-01 -2.93706069E-08 -1.77107453E-08 -5.98643999E-02  1.15276546E-02
 -4.05164686E-06 -6.89683875E-02  1.02919832E-08  1.42674747E-01  3.27986849E-06
 -1.31648918E-01  3.19628379E-08 -6.81467442E-02  3.74038951E-01 -3.93835399E-01
  1.89134593E-06 -8.05159254E-10 -9.00157119E-08 -3.83277071E-01  1.33395228E-01
  3.83275622E-01 -1.33395132E-01  6.90808440E-01 -1.61335256E-01  3.83277071E-01
 -1.33395228E-01 -3.83275622E-01  1.33395132E-01 -6.90808440E-01  1.61335256E-01
 -6.61960916E-03 -1.94620238E-02  2.58473075E-01  3.58850316E-01 -2.30886992E-09
  2.37673557E-02 -2.40730443E-01 -4.49821119E-01  2.44242518E-09  1.65333429E-01
 -1.67210774E-01 -3.92296463E-02  3.63959745E-02 -9.07793746E-09 -2.66846232E-09
 -6.61989917E-03 -1.94627283E-02  2.58475428E-01 -3.58851679E-01  1.41051568E-08
  2.37681588E-02 -2.40730304E-01  4.49823153E-01 -1.35354073E-08  1.65332882E-01
 -1.67210522E-01 -3.92310042E-02 -3.63946118E-02  1.41004546E-08  4.89460832E-09
 -3.46904387E-07  8.67880706E-07 -3.73815749E-01  7.87033072E-07  7.09169819E-09
  1.03500574E-07  5.75353610E-01 -1.78516995E-07 -6.40029706E-09  3.28945722E-07
  2.48362155E-06 -2.22736594E-06 -2.06187214E-01 -6.37124619E-09 -4.02542200E-09
  6.61960916E-03  1.94620238E-02  2.58473075E-01  3.58850316E-01  2.30886992E-09
 -2.37673557E-02 -2.40730443E-01 -4.49821119E-01 -2.44242518E-09 -1.65333429E-01
  1.67210774E-01  3.92296463E-02 -3.63959745E-02 -9.07793746E-09 -2.66846232E-09
  6.61989917E-03  1.94627283E-02  2.58475428E-01 -3.58851679E-01 -1.41051568E-08
 -2.37681588E-02 -2.40730304E-01  4.49823153E-01  1.35354073E-08 -1.65332882E-01
  1.67210522E-01  3.92310042E-02  3.63946118E-02  1.41004546E-08  4.89460832E-09
  3.46904387E-07 -8.67880706E-07 -3.73815749E-01  7.87033072E-07 -7.09169819E-09
 -1.03500574E-07  5.75353610E-01 -1.78516995E-07  6.40029706E-09 -3.28945722E-07
 -2.48362155E-06  2.22736594E-06  2.06187214E-01 -6.37124619E-09 -4.02542200E-09
 -1.05602944E-01  2.21594232E-02 -1.05607174E-01  2.21613976E-02 -4.53622511E-06
  1.14451153E-06  1.05602944E-01 -2.21594232E-02  1.05607174E-01 -2.21613976E-02
  4.53622511E-06 -1.14451153E-06  2.27569537E-02 -1.63773288E-01  4.12916702E-01
  1.88581024E-01 -1.72868138E-08 -3.40322593E-02  7.80608869E-02 -4.28973836E-02
  3.55122979E-09 -3.42654923E-01  4.18905241E-02  1.38871068E-01 -3.06405683E-01
  1.57100867E-08  1.38461496E-08  2.27156870E-02 -1.63643377E-01  4.12772155E-01
 -1.88589318E-01  7.93747603E-09 -3.39746622E-02  7.81773317E-02  4.29706716E-02
 -1.84281462E-09 -3.42502754E-01  4.20713300E-02  1.38598215E-01  3.06284234E-01
  1.08969632E-08  1.26943183E-08  2.09236451E-05 -8.11679293E-05  8.17482748E-01
  9.31319376E-05  1.54702174E-08 -2.49733457E-05 -9.27746741E-02 -6.45952689E-05
 -8.37956733E-10 -1.67054157E-04 -2.23692206E-05  1.39245692E-04 -6.21330248E-01
 -2.00981144E-08 -1.33639405E-08 -2.27569537E-02  1.63773288E-01  4.12916702E-01
  1.88581024E-01  1.72868138E-08  3.40322593E-02  7.80608869E-02 -4.28973836E-02
 -3.55122979E-09  3.42654923E-01 -4.18905241E-02 -1.38871068E-01  3.06405683E-01
  1.57100867E-08  1.38461496E-08 -2.27156870E-02  1.63643377E-01  4.12772155E-01
 -1.88589318E-01 -7.93747603E-09  3.39746622E-02  7.81773317E-02  4.29706716E-02
  1.84281462E-09  3.42502754E-01 -4.20713300E-02 -1.38598215E-01 -3.06284234E-01
  1.08969632E-08  1.26943183E-08 -2.09236451E-05  8.11679293E-05  8.17482748E-01
  9.31319376E-05 -1.54702174E-08  2.49733457E-05 -9.27746741E-02 -6.45952689E-05
  8.37956733E-10  1.67054157E-04  2.23692206E-05 -1.39245692E-04  6.21330248E-01
 -2.00981144E-08 -1.33639405E-08 -1.56450053E-01  9.11613704E-02 -1.56761626E-01
  9.14015255E-02  1.30491145E-04 -1.12100863E-04  1.56450053E-01 -9.11613704E-02
  1.56761626E-01 -9.14015255E-02 -1.30491145E-04  1.12100863E-04 -5.68116228E-02
  1.78282468E-01 -1.91036558E-01  3.15702169E-02 -2.10729598E-09  8.03626263E-02
  1.59254070E-01 -1.02820459E-01  8.74398562E-09  1.98829352E-01  2.58117906E-01
 -3.75363169E-01  1.52655019E-01 -1.21145353E-08  2.33634940E-09  5.68282755E-02
 -1.78402400E-01  1.91339178E-01  3.14318838E-02 -1.56596834E-08 -8.03876939E-02
 -1.59196963E-01 -1.02788921E-01  1.69442268E-08 -1.99080233E-01 -2.58087221E-01
  3.75464995E-01  1.52879262E-01 -3.85329513E-08 -4.18599452E-08 -5.61356715E-02
  2.14935090E-01  3.00217289E-04 -2.43286946E-01  1.18643898E-08  6.79193942E-02
 -3.45104646E-05  1.82281554E-01 -1.99098373E-08  4.39994524E-01  6.53543443E-02
 -3.75174119E-01 -2.26468048E-04  1.91222503E-08  4.90254447E-08  5.68116228E-02
 -1.78282468E-01 -1.91036558E-01  3.15702169E-02  2.10729598E-09 -8.03626263E-02
  1.59254070E-01 -1.02820459E-01 -8.74398562E-09 -1.98829352E-01 -2.58117906E-01
  3.75363169E-01 -1.52655019E-01 -1.21145353E-08  2.33634940E-09 -5.68282755E-02
  1.78402400E-01  1.91339178E-01  3.14318838E-02  1.56596834E-08  8.03876939E-02
 -1.59196963E-01 -1.02788921E-01 -1.69442268E-08  1.99080233E-01  2.58087221E-01
 -3.75464995E-01 -1.52879262E-01 -3.85329513E-08 -4.18599452E-08  5.61356715E-02
 -2.14935090E-01  3.00217289E-04 -2.43286946E-01 -1.18643898E-08 -6.79193942E-02
 -3.45104646E-05  1.82281554E-01  1.99098373E-08 -4.39994524E-01 -6.53543443E-02
  3.75174119E-01  2.26468048E-04  1.91222503E-08  4.90254447E-08 -4.30731058E-01
  3.31434315E-01  4.30616556E-01 -3.31367429E-01 -3.68787325E-01  3.14339115E-01
  4.30731058E-01 -3.31434315E-01 -4.30616556E-01  3.31367429E-01  3.68787325E-01
 -3.14339115E-01 -1.42430769E-02  3.94283426E-02  2.19505150E-01  5.96642026E-01
  2.53617599E-09  3.59075900E-02 -1.40520888E-02 -5.71070182E-02 -5.32052236E-09
 -3.65294907E-01  4.49325207E-01 -7.56878727E-02 -2.67486806E-01  1.46092978E-08
  2.86245062E-08  1.42424939E-02 -3.94241168E-02 -2.19515911E-01  5.96646484E-01
  1.02305324E-08 -3.59061419E-02  1.40499419E-02 -5.71083234E-02  8.57509237E-09
  3.65304313E-01 -4.49327045E-01  7.56840831E-02 -2.67494364E-01 -1.17003700E-08
 -2.27756582E-08  1.80084784E-02 -2.29782691E-01 -1.07617912E-05  3.46454731E-01
  2.95603680E-08 -7.12867676E-03  1.37597678E-06  1.61367454E-01 -1.33483653E-08
 -4.70140553E-01  1.22140017E-01  1.13689270E-01  8.08601583E-06 -8.73971332E-09
  3.44434016E-08  1.42430769E-02 -3.94283426E-02  2.19505150E-01  5.96642026E-01
 -2.53617599E-09 -3.59075900E-02 -1.40520888E-02 -5.71070182E-02  5.32052236E-09
  3.65294907E-01 -4.49325207E-01  7.56878727E-02  2.67486806E-01  1.46092978E-08
  2.86245062E-08 -1.42424939E-02  3.94241168E-02 -2.19515911E-01  5.96646484E-01
 -1.02305324E-08  3.59061419E-02  1.40499419E-02 -5.71083234E-02 -8.57509237E-09
 -3.65304313E-01  4.49327045E-01 -7.56840831E-02  2.67494364E-01 -1.17003700E-08
 -2.27756582E-08 -1.80084784E-02  2.29782691E-01 -1.07617912E-05  3.46454731E-01
 -2.95603680E-08  7.12867676E-03  1.37597678E-06  1.61367454E-01  1.33483653E-08
  4.70140553E-01 -1.22140017E-01 -1.13689270E-01 -8.08601583E-06 -8.73971332E-09
  3.44434016E-08 -4.64263773E-02  5.14322610E-02  4.64302213E-02 -5.14349731E-02
 -4.03619337E-01  2.55435926E-01  4.64263773E-02 -5.14322610E-02 -4.64302213E-02
  5.14349731E-02  4.03619337E-01 -2.55435926E-01 -1.58732486E-02  2.56507838E-01
 -1.03296758E-01  2.52171781E-01  2.09755154E-08 -1.61215680E-02 -1.88024748E-01
  2.31163281E-02  2.28919330E-08 -1.93686121E-01  5.42669518E-01 -1.15877147E-01
  4.02083549E-01 -2.63802630E-09  9.37161150E-09  1.58734156E-02 -2.56507927E-01
  1.03298466E-01  2.52170825E-01  3.98522024E-08  1.61204370E-02  1.88025752E-01
  2.31172420E-02 -3.68946271E-08  1.93684306E-01 -5.42668705E-01  1.15878285E-01
  4.02085185E-01  5.27544347E-08  8.13742492E-10  7.28119904E-03  2.28049857E-01
  1.85924411E-06 -1.34519865E-01 -2.52036397E-08 -9.73419811E-02 -6.02665581E-07
 -8.10156616E-02  2.55690330E-08  5.94293317E-01 -3.25205908E-01 -2.14446992E-03
 -8.79840491E-07  1.92154233E-08 -4.56143295E-08  1.58732486E-02 -2.56507838E-01
 -1.03296758E-01  2.52171781E-01 -2.09755154E-08  1.61215680E-02 -1.88024748E-01
  2.31163281E-02 -2.28919330E-08  1.93686121E-01 -5.42669518E-01  1.15877147E-01
 -4.02083549E-01 -2.63802630E-09  9.37161150E-09 -1.58734156E-02  2.56507927E-01
  1.03298466E-01  2.52170825E-01 -3.98522024E-08 -1.61204370E-02  1.88025752E-01
  2.31172420E-02  3.68946271E-08 -1.93684306E-01  5.42668705E-01 -1.15878285E-01
 -4.02085185E-01  5.27544347E-08  8.13742492E-10 -7.28119904E-03 -2.28049857E-01
  1.85924411E-06 -1.34519865E-01  2.52036397E-08  9.73419811E-02 -6.02665581E-07
 -8.10156616E-02 -2.55690330E-08 -5.94293317E-01  3.25205908E-01  2.14446992E-03
  8.79840491E-07  1.92154233E-08 -4.56143295E-08  4.52677285E-01 -3.02720487E-01
 -4.52678188E-01  3.02721259E-01  3.76294941E-01 -2.10082586E-01 -4.52677285E-01
  3.02720487E-01  4.52678188E-01 -3.02721259E-01 -3.76294941E-01  2.10082586E-01
 -9.37138899E-02 -5.30040890E-01  1.77407102E-01 -1.81910314E-01  5.43963991E-09
  5.78953590E-01 -2.51481141E-01  6.17222961E-01 -3.71628266E-08 -3.09230918E-01
 -6.77356847E-02 -3.58887235E-01  2.07212775E-02  9.88060515E-09  1.29935038E-09
 -9.37413717E-02 -5.30212238E-01  1.77503263E-01  1.81906868E-01 -1.76940895E-08
  5.79128612E-01 -2.51797448E-01 -6.16987114E-01  3.80924332E-08 -3.09216042E-01
 -6.78742343E-02 -3.58990571E-01 -2.07760567E-02 -2.11575643E-08 -6.87672052E-09
 -2.84774649E-05 -1.56519779E-04 -1.26902474E-01  7.38766386E-05 -4.42884030E-09
  1.73958701E-04  8.04411996E-01 -1.60685333E-04  1.95668227E-09 -2.39187897E-05
 -8.67632793E-05 -1.09781021E-04 -2.04773420E-01 -7.70150252E-09 -1.59175688E-09
  9.37138899E-02  5.30040890E-01  1.77407102E-01 -1.81910314E-01 -5.43963991E-09
 -5.78953590E-01 -2.51481141E-01  6.17222961E-01  3.71628266E-08  3.09230918E-01
  6.77356847E-02  3.58887235E-01 -2.07212775E-02  9.88060515E-09  1.29935038E-09
  9.37413717E-02  5.30212238E-01  1.77503263E-01  1.81906868E-01  1.76940895E-08
 -5.79128612E-01 -2.51797448E-01 -6.16987114E-01 -3.80924332E-08  3.09216042E-01
  6.78742343E-02  3.58990571E-01  2.07760567E-02 -2.11575643E-08 -6.87672052E-09
  2.84774649E-05  1.56519779E-04 -1.26902474E-01  7.38766386E-05  4.42884030E-09
 -1.73958701E-04  8.04411996E-01 -1.60685333E-04 -1.95668227E-09  2.39187897E-05
  8.67632793E-05  1.09781021E-04  2.04773420E-01 -7.70150252E-09 -1.59175688E-09
  3.01181436E-01 -3.50086015E-01  3.01259764E-01 -3.50183779E-01  9.39983164E-05
 -1.05114919E-04 -3.01181436E-01  3.50086015E-01 -3.01259764E-01  3.50183779E-01
 -9.39983164E-05  1.05114919E-04  5.24922456E-02  3.26635823E-01 -1.82464596E-01
 -7.08750097E-03 -3.00382630E-09 -3.35255608E-01  6.06088025E-01  4.52544199E-01
  2.62095747E-08 -2.89359069E-02  2.63745483E-01  1.97690884E-01 -1.05615152E-01
  1.36718048E-09  1.25045166E-08 -5.24432131E-02 -3.26357857E-01  1.82372267E-01
 -7.18255038E-03 -1.24524087E-08  3.34951695E-01 -6.05957402E-01  4.52868004E-01
  1.92972842E-08  2.90978244E-02 -2.63710179E-01 -1.97503150E-01 -1.05604610E-01
 -6.46759698E-09 -1.27263588E-08 -1.08512705E-01 -6.00573100E-01  3.29067725E-05
  2.81948032E-01 -2.41816273E-08  6.66002502E-01 -2.10168598E-04 -6.11924016E-01
  4.83159463E-08 -9.58018275E-02 -3.28941253E-01 -4.17478148E-01  5.28550291E-05
  2.14166681E-09 -2.73841697E-08 -5.24922456E-02 -3.26635823E-01 -1.82464596E-01
 -7.08750097E-03  3.00382630E-09  3.35255608E-01  6.06088025E-01  4.52544199E-01
 -2.62095747E-08  2.89359069E-02 -2.63745483E-01 -1.97690884E-01  1.05615152E-01
  1.36718048E-09  1.25045166E-08  5.24432131E-02  3.26357857E-01  1.82372267E-01
 -7.18255038E-03  1.24524087E-08 -3.34951695E-01 -6.05957402E-01  4.52868004E-01
 -1.92972842E-08 -2.90978244E-02  2.63710179E-01  1.97503150E-01  1.05604610E-01
 -6.46759698E-09 -1.27263588E-08  1.08512705E-01  6.00573100E-01  3.29067725E-05
  2.81948032E-01  2.41816273E-08 -6.66002502E-01 -2.10168598E-04 -6.11924016E-01
 -4.83159463E-08  9.58018275E-02  3.28941253E-01  4.17478148E-01 -5.28550291E-05
  2.14166681E-09 -2.73841697E-08 -1.50912072E-01  1.89145485E-01  1.50754061E-01
 -1.88960642E-01  3.59472346E-01 -4.05730749E-01  1.50912072E-01 -1.89145485E-01
 -1.50754061E-01  1.88960642E-01 -3.59472346E-01  4.05730749E-01  6.81087659E-09
 -2.34945404E-08 -5.16177251E-08  2.83815725E-08 -2.94364546E-01 -1.21201793E-10
  1.35096097E-07 -7.78238393E-08  1.34427377E+00  6.01271993E-09 -2.13080374E-08
  4.61346956E-08 -2.30547797E-08 -1.22054439E-01  7.04682176E-02  2.36702715E-09
 -6.35737201E-08 -6.78050843E-08 -3.91956451E-08  2.94364521E-01  7.73333802E-08
  2.70201503E-07  6.48328523E-08 -1.34427428E+00 -4.43545536E-08  2.86174856E-08
  2.39924029E-08 -1.59637437E-08  1.22054706E-01  7.04683274E-02 -1.98128105E-09
  6.70262768E-08 -6.40639542E-10  7.38249222E-08 -2.94364441E-01 -7.84598095E-08
  7.84583279E-08 -2.57494771E-07  1.34427353E+00 -2.19313004E-08  3.94967165E-08
 -2.26176243E-08 -2.54395176E-08  2.46018936E-07 -1.40936658E-01 -6.81087659E-09
  2.34945404E-08 -5.16177251E-08  2.83815725E-08  2.94364546E-01  1.21201793E-10
  1.35096097E-07 -7.78238393E-08 -1.34427377E+00 -6.01271993E-09  2.13080374E-08
 -4.61346956E-08  2.30547797E-08 -1.22054439E-01  7.04682176E-02 -2.36702715E-09
  6.35737201E-08 -6.78050843E-08 -3.91956451E-08 -2.94364521E-01 -7.73333802E-08
  2.70201503E-07  6.48328523E-08  1.34427428E+00  4.43545536E-08 -2.86174856E-08
 -2.39924029E-08  1.59637437E-08  1.22054706E-01  7.04683274E-02  1.98128105E-09
 -6.70262768E-08 -6.40639542E-10  7.38249222E-08  2.94364441E-01  7.84598095E-08
  7.84583279E-08 -2.57494771E-07 -1.34427353E+00  2.19313004E-08 -3.94967165E-08
  2.26176243E-08  2.54395176E-08  2.46018936E-07 -1.40936658E-01  3.92580522E-08
 -1.76475440E-07  8.60304405E-08 -2.50029796E-07 -8.50643560E-08  2.43924200E-07
 -3.92580522E-08  1.76475440E-07 -8.60304405E-08  2.50029796E-07  8.50643560E-08
 -2.43924200E-07 -2.30811864E-01  1.51500522E+00  2.03134605E-01 -4.11567532E-02
 -2.81543262E-08  9.38096796E-02 -7.28135212E-01  3.03127426E-01  1.82368179E-07
 -8.17793514E-01 -7.42426818E-01 -8.12938629E-01  3.07363585E-02 -7.98892386E-09
  1.13256081E-08 -2.29693202E-01  1.50767243E+00  2.02798033E-01  3.98376408E-02
  4.02592213E-08  9.33498657E-02 -7.25599685E-01 -2.99940856E-01 -2.32615696E-07
 -8.14160144E-01 -7.38502991E-01 -8.08999414E-01 -3.03852669E-02 -1.48981599E-09
  3.26023386E-09  1.12492519E-03 -7.39116155E-03  1.33644136E-01 -9.53726789E-04
 -2.02868042E-08 -4.55049787E-04 -2.05552006E-01  3.79778188E-03  1.52267223E-07
  3.59350984E-03  4.01432918E-03  3.96230434E-03 -4.33827724E-02 -9.45367329E-10
 -1.94272276E-08  2.30811864E-01 -1.51500522E+00  2.03134605E-01 -4.11567532E-02
  2.81543262E-08 -9.38096796E-02 -7.28135212E-01  3.03127426E-01 -1.82368179E-07
  8.17793514E-01  7.42426818E-01  8.12938629E-01 -3.07363585E-02 -7.98892386E-09
  1.13256081E-08  2.29693202E-01 -1.50767243E+00  2.02798033E-01  3.98376408E-02
 -4.02592213E-08 -9.33498657E-02 -7.25599685E-01 -2.99940856E-01  2.32615696E-07
  8.14160144E-01  7.38502991E-01  8.08999414E-01  3.03852669E-02 -1.48981599E-09
  3.26023386E-09 -1.12492519E-03  7.39116155E-03  1.33644136E-01 -9.53726789E-04
  2.02868042E-08  4.55049787E-04 -2.05552006E-01  3.79778188E-03 -1.52267223E-07
 -3.59350984E-03 -4.01432918E-03 -3.96230434E-03  4.33827724E-02 -9.45367329E-10
 -1.94272276E-08  7.07402121E-02  6.17635050E-01  7.04031663E-02  6.14642577E-01
 -3.48971768E-04 -2.99607520E-03 -7.07402121E-02 -6.17635050E-01 -7.04031663E-02
 -6.14642577E-01  3.48971768E-04  2.99607520E-03  1.31533540E-01 -8.62376527E-01
 -3.90901328E-02  1.56113201E-01  1.57831822E-08 -5.38716717E-02  2.97321083E-01
 -3.76602192E-01 -1.01836620E-07  4.27037485E-01  4.61652390E-01  4.63179036E-01
 -4.14214746E-02  1.10890525E-08  5.27311720E-09 -1.33477158E-01  8.75137036E-01
  4.08032649E-02  1.56455838E-01  4.44476258E-10  5.46581118E-02 -3.03456750E-01
 -3.79149214E-01  3.75773549E-08 -4.33926065E-01 -4.67903345E-01 -4.70024648E-01
 -4.16794766E-02 -1.94693087E-08 -1.01803630E-08 -2.66435693E-01  1.75053103E+00
  5.64281198E-04  2.25964333E-01  3.39436678E-08  1.07835780E-01 -8.68081201E-04
 -8.99868726E-01 -1.76051468E-07 -8.50978338E-01 -9.50816299E-01 -9.38482059E-01
 -1.83175238E-04  3.61383157E-09 -1.09575040E-08 -1.31533540E-01  8.62376527E-01
 -3.90901328E-02  1.56113201E-01 -1.57831822E-08  5.38716717E-02  2.97321083E-01
 -3.76602192E-01  1.01836620E-07 -4.27037485E-01 -4.61652390E-01 -4.63179036E-01
  4.14214746E-02  1.10890525E-08  5.27311720E-09  1.33477158E-01 -8.75137036E-01
  4.08032649E-02  1.56455838E-01 -4.44476258E-10 -5.46581118E-02 -3.03456750E-01
 -3.79149214E-01 -3.75773549E-08  4.33926065E-01  4.67903345E-01  4.70024648E-01
  4.16794766E-02 -1.94693087E-08 -1.01803630E-08  2.66435693E-01 -1.75053103E+00
  5.64281198E-04  2.25964333E-01 -3.39436678E-08 -1.07835780E-01 -8.68081201E-04
 -8.99868726E-01  1.76051468E-07  8.50978338E-01  9.50816299E-01  9.38482059E-01
  1.83175238E-04  3.61383157E-09 -1.09575040E-08 -3.96146671E-02 -3.52175176E-01
  4.02105871E-02  3.57377707E-01  8.26386811E-02  7.10016017E-01  3.96146671E-02
  3.52175176E-01 -4.02105871E-02 -3.57377707E-01 -8.26386811E-02 -7.10016017E-01
 -8.41617894E-02  8.53886180E-01 -2.81930544E-01  2.27756052E-01  4.23594065E-08
  1.34909001E-01  1.48959390E+00 -4.27287809E-01 -3.07637637E-07 -4.62970337E-01
 -3.81553869E-01 -2.76346242E-01 -1.37217684E-01  2.38564215E-08 -1.50699439E-08
 -8.41598030E-02  8.53863054E-01 -2.81924167E-01 -2.27756682E-01 -7.59926023E-08
  1.34910096E-01  1.48958240E+00  4.27262941E-01  4.02941141E-07 -4.62965053E-01
 -3.81537184E-01 -2.76339493E-01  1.37218134E-01 -6.64351144E-09 -8.22777632E-09
  1.02550904E-06 -9.94540729E-06  1.13319500E-01  6.74670902E-06  3.27574438E-08
 -3.78056122E-06  7.48635675E-01 -2.74355908E-05 -2.30354125E-07  6.13163316E-06
  3.96648818E-06  3.16396583E-06 -2.17167107E-01 -8.51488087E-09  2.74170622E-08
  8.41617894E-02 -8.53886180E-01 -2.81930544E-01  2.27756052E-01 -4.23594065E-08
 -1.34909001E-01  1.48959390E+00 -4.27287809E-01  3.07637637E-07  4.62970337E-01
  3.81553869E-01  2.76346242E-01  1.37217684E-01  2.38564215E-08 -1.50699439E-08
  8.41598030E-02 -8.53863054E-01 -2.81924167E-01 -2.27756682E-01  7.59926023E-08
 -1.34910096E-01  1.48958240E+00  4.27262941E-01 -4.02941141E-07  4.62965053E-01
  3.81537184E-01  2.76339493E-01 -1.37218134E-01 -6.64351144E-09 -8.22777632E-09
 -1.02550904E-06  9.94540729E-06  1.13319500E-01  6.74670902E-06 -3.27574438E-08
  3.78056122E-06  7.48635675E-01 -2.74355908E-05  2.30354125E-07 -6.13163316E-06
 -3.96648818E-06 -3.16396583E-06  2.17167107E-01 -8.51488087E-09  2.74170622E-08
  7.72714640E-02 -1.40469139E+00  7.72699804E-02 -1.40467111E+00 -1.36400106E-06
  2.55185106E-05 -7.72714640E-02  1.40469139E+00 -7.72699804E-02  1.40467111E+00
  1.36400106E-06 -2.55185106E-05  4.70036406E-02 -4.77354644E-01  2.30333162E-01
 -1.36243062E-02 -2.37922003E-08 -8.06777669E-02 -4.30323610E-01  9.95579677E-01
  1.72669622E-07  6.47427499E-02  4.08951245E-01  1.53847735E-01 -4.77689475E-02
 -1.42864968E-08  6.51942782E-09 -4.70069717E-02  4.77381221E-01 -2.30340632E-01
 -1.36320786E-02 -6.58005628E-09  8.06884040E-02  4.30363528E-01  9.95594144E-01
 -2.80596771E-08 -6.47582647E-02 -4.08964664E-01 -1.53858989E-01 -4.77648097E-02
  2.81574777E-08  2.38200817E-09 -9.85562195E-02  9.94265534E-01  1.27121853E-06
 -4.08590798E-01 -6.69746978E-08  1.59354954E-01  1.09232057E-05  1.73589559E+00
  3.23600762E-07 -5.93908045E-01 -3.97151294E-01 -3.23665151E-01 -3.07673162E-06
 -9.38710420E-09  4.54148498E-09 -4.70036406E-02  4.77354644E-01  2.30333162E-01
 -1.36243062E-02  2.37922003E-08  8.06777669E-02 -4.30323610E-01  9.95579677E-01
 -1.72669622E-07 -6.47427499E-02 -4.08951245E-01 -1.53847735E-01  4.77689475E-02
 -1.42864968E-08  6.51942782E-09  4.70069717E-02 -4.77381221E-01 -2.30340632E-01
 -1.36320786E-02  6.58005628E-09 -8.06884040E-02  4.30363528E-01  9.95594144E-01
  2.80596771E-08  6.47582647E-02  4.08964664E-01  1.53858989E-01  4.77648097E-02
  2.81574777E-08  2.38200817E-09  9.85562195E-02 -9.94265534E-01  1.27121853E-06
 -4.08590798E-01  6.69746978E-08 -1.59354954E-01  1.09232057E-05  1.73589559E+00
 -3.23600762E-07  5.93908045E-01  3.97151294E-01  3.23665151E-01  3.07673162E-06
 -9.38710420E-09  4.54148498E-09 -4.17732292E-02  8.12259611E-01  4.17751399E-02
 -8.12299923E-01  8.76731758E-02 -1.62109061E+00  4.17732292E-02 -8.12259611E-01
 -4.17751399E-02  8.12299923E-01 -8.76731758E-02  1.62109061E+00 -1.73980101E-01
  1.47939921E+00  1.62420850E-01 -9.61056031E-02 -3.92732820E-09 -7.06575063E-02
 -1.60098999E-01  8.65158497E-02 -5.54254494E-08 -8.26011174E-01 -9.64804468E-01
 -5.96820096E-01 -1.29340401E-01  1.42065938E-08 -8.28997429E-09  1.73980331E-01
 -1.47940135E+00 -1.62419402E-01 -9.61038723E-02 -1.72614259E-08  7.06557392E-02
  1.60088877E-01  8.65120645E-02  8.18879649E-08  8.26012999E-01  9.64805539E-01
  5.96820636E-01 -1.29341234E-01  1.36852127E-09  1.46303884E-08 -1.71543210E-01
  1.46279563E+00 -7.71419970E-07  1.91751715E-01  1.76904884E-08 -7.61527901E-02
 -2.38509031E-06 -1.99734472E-01 -8.35682826E-08 -1.01707016E+00 -7.51860325E-01
 -5.88810604E-01  3.16844519E-07 -1.17537970E-08 -8.28252105E-09  1.73980101E-01
 -1.47939921E+00  1.62420850E-01 -9.61056031E-02  3.92732820E-09  7.06575063E-02
 -1.60098999E-01  8.65158497E-02  5.54254494E-08  8.26011174E-01  9.64804468E-01
  5.96820096E-01  1.29340401E-01  1.42065938E-08 -8.28997429E-09 -1.73980331E-01
  1.47940135E+00 -1.62419402E-01 -9.61038723E-02  1.72614259E-08 -7.06557392E-02
  1.60088877E-01  8.65120645E-02 -8.18879649E-08 -8.26012999E-01 -9.64805539E-01
 -5.96820636E-01  1.29341234E-01  1.36852127E-09  1.46303884E-08  1.71543210E-01
 -1.46279563E+00 -7.71419970E-07  1.91751715E-01 -1.76904884E-08  7.61527901E-02
 -2.38509031E-06 -1.99734472E-01  8.35682826E-08  1.01707016E+00  7.51860325E-01
  5.88810604E-01 -3.16844519E-07 -1.17537970E-08 -8.28252105E-09  8.16071630E-02
  1.55856664E-01 -8.16073497E-02 -1.55846974E-01  7.87835302E-02  1.74781315E-01
 -8.16071630E-02 -1.55856664E-01  8.16073497E-02  1.55846974E-01 -7.87835302E-02
 -1.74781315E-01 -1.13255245E-01 -3.86837115E-02 -1.38858794E-01  8.01775189E-02
 -1.25524845E-08  1.45218896E+00  1.63195797E+00 -9.42224598E-01  1.81442455E-07
 -3.27579380E-01 -3.26028648E-01 -3.60785408E-01  1.51956916E-03 -2.76201221E-08
  1.60999067E-08  1.13254762E-01  3.86829807E-02  1.38857309E-01  8.01750302E-02
  5.74482109E-08 -1.45217204E+00 -1.63195444E+00 -9.42213899E-01 -4.32025834E-07
  3.27579456E-01  3.26027165E-01  3.60783639E-01  1.51959576E-03 -4.30513503E-09
 -9.78225667E-09 -1.13258914E-01 -3.86778900E-02 -3.01212077E-07 -1.60339665E-01
 -5.65840107E-08  1.45222344E+00 -4.20662017E-06  1.88443394E+00  4.28282453E-07
 -3.25281985E-01 -3.28358903E-01 -3.60796595E-01  5.87864226E-07  6.45166965E-09
  7.78875007E-09  1.13255245E-01  3.86837115E-02 -1.38858794E-01  8.01775189E-02
  1.25524845E-08 -1.45218896E+00  1.63195797E+00 -9.42224598E-01 -1.81442455E-07
  3.27579380E-01  3.26028648E-01  3.60785408E-01 -1.51956916E-03 -2.76201221E-08
  1.60999067E-08 -1.13254762E-01 -3.86829807E-02  1.38857309E-01  8.01750302E-02
 -5.74482109E-08  1.45217204E+00 -1.63195444E+00 -9.42213899E-01  4.32025834E-07
 -3.27579456E-01 -3.26027165E-01 -3.60783639E-01 -1.51959576E-03 -4.30513503E-09
 -9.78225667E-09  1.13258914E-01  3.86778900E-02 -3.01212077E-07 -1.60339665E-01
  5.65840107E-08 -1.45222344E+00 -4.20662017E-06  1.88443394E+00 -4.28282453E-07
  3.25281985E-01  3.28358903E-01  3.60796595E-01 -5.87864226E-07  6.45166965E-09
  7.78875007E-09 -1.16031219E-01 -1.60620162E+00  1.16029639E-01  1.60619422E+00
 -1.16023491E-01 -1.60621708E+00  1.16031219E-01  1.60620162E+00 -1.16029639E-01
 -1.60619422E+00  1.16023491E-01  1.60621708E+00 -7.34221823E-02 -2.61997885E-01
 -1.31029291E-01  1.67749978E-01  6.71288284E-09  4.20855415E+00 -5.62123732E-01
 -2.05179888E+00 -1.06498916E-09  2.58337731E-02 -1.17145163E-01 -2.40841551E-01
  9.11834467E-02 -1.41041270E-08 -8.13515130E-09 -7.37133199E-02 -2.63038796E-01
 -1.32174510E-01 -1.67333065E-01 -1.88045505E-08  4.22523327E+00 -5.48143494E-01
  2.03185936E+00  1.44617912E-07  2.45474112E-02 -1.16216782E-01 -2.41796820E-01
 -9.06251109E-02  2.21284738E-08  1.98166422E-08 -2.90298646E-04 -1.03704837E-03
  1.58365072E-01 -7.80218124E-04  4.72332950E-09  1.66529364E-02 -4.09142592E+00
  2.11379356E-03 -1.25221375E-07 -4.94793884E-05 -3.09576374E-04 -9.52201520E-04
  2.32305229E-01  8.06496238E-09  1.00543955E-08  7.34221823E-02  2.61997885E-01
 -1.31029291E-01  1.67749978E-01 -6.71288284E-09 -4.20855415E+00 -5.62123732E-01
 -2.05179888E+00  1.06498916E-09 -2.58337731E-02  1.17145163E-01  2.40841551E-01
 -9.11834467E-02 -1.41041270E-08 -8.13515130E-09  7.37133199E-02  2.63038796E-01
 -1.32174510E-01 -1.67333065E-01  1.88045505E-08 -4.22523327E+00 -5.48143494E-01
  2.03185936E+00 -1.44617912E-07 -2.45474112E-02  1.16216782E-01  2.41796820E-01
  9.06251109E-02  2.21284738E-08  1.98166422E-08  2.90298646E-04  1.03704837E-03
  1.58365072E-01 -7.80218124E-04 -4.72332950E-09 -1.66529364E-02 -4.09142592E+00
  2.11379356E-03  1.25221375E-07  4.94793884E-05  3.09576374E-04  9.52201520E-04
 -2.32305229E-01  8.06496238E-09  1.00543955E-08 -2.45545936E-01 -7.16172701E-01
 -2.46517144E-01 -7.19013921E-01 -9.68551427E-04 -2.82147318E-03  2.45545936E-01
  7.16172701E-01  2.46517144E-01  7.19013921E-01  9.68551427E-04  2.82147318E-03
  4.26647099E-02  1.52761598E-01  1.67726344E-01  6.03873440E-02 -3.80680172E-09
 -2.44892509E+00 -2.03963885E+00 -2.90644449E+00 -1.11637858E-09  1.87530224E-01
 -1.35451396E-01  1.39991162E-01  8.12211401E-02 -7.83984434E-09 -2.34084161E-08
 -4.21611170E-02 -1.50964164E-01 -1.66825265E-01  6.15329501E-02 -5.39022788E-09
  2.42005146E+00  2.04344232E+00 -2.92042114E+00 -6.02050042E-08 -1.87702810E-01
  1.36249792E-01 -1.38339314E-01  8.18435083E-02  1.77295875E-08  2.50935134E-08
 -8.49094787E-02 -3.03234719E-01 -5.42269676E-04 -2.28441410E-01 -1.84492349E-08
  4.86907113E+00  1.40095186E-02  6.22411247E-01  9.11367703E-08 -1.47432967E-02
 -9.04385184E-02 -2.78527597E-01 -7.94791735E-04  1.15886842E-08  3.84909808E-08
 -4.26647099E-02 -1.52761598E-01  1.67726344E-01  6.03873440E-02  3.80680172E-09
  2.44892509E+00 -2.03963885E+00 -2.90644449E+00  1.11637858E-09 -1.87530224E-01
  1.35451396E-01 -1.39991162E-01 -8.12211401E-02 -7.83984434E-09 -2.34084161E-08
  4.21611170E-02  1.50964164E-01 -1.66825265E-01  6.15329501E-02  5.39022788E-09
 -2.42005146E+00  2.04344232E+00 -2.92042114E+00  6.02050042E-08  1.87702810E-01
 -1.36249792E-01  1.38339314E-01 -8.18435083E-02  1.77295875E-08  2.50935134E-08
  8.49094787E-02  3.03234719E-01 -5.42269676E-04 -2.28441410E-01  1.84492349E-08
 -4.86907113E+00  1.40095186E-02  6.22411247E-01 -9.11367703E-08  1.47432967E-02
  9.04385184E-02  2.78527597E-01  7.94791735E-04  1.15886842E-08  3.84909808E-08
  1.42581581E-01  4.16371009E-01 -1.40897306E-01 -4.11459322E-01 -2.83936004E-01
 -8.27521355E-01 -1.42581581E-01 -4.16371009E-01  1.40897306E-01  4.11459322E-01
  2.83936004E-01  8.27521355E-01 -1.95224003E-01 -9.71938799E-01  6.23577450E-02
 -3.59995635E-02  1.59173815E-08  1.49566215E+01 -8.26311202E+00  4.77070852E+00
  1.16871583E-07 -3.03596109E-02  1.12203985E-02 -4.20371665E-01  4.15562181E-02
 -4.35060796E-09  2.28427047E-09  1.95223964E-01  9.71938329E-01 -6.23581644E-02
 -3.59989228E-02 -5.56614790E-08 -1.49566065E+01  8.26311731E+00  4.77072607E+00
  7.21397905E-07  3.03591924E-02 -1.12196726E-02  4.20371722E-01  4.15547728E-02
  4.55559871E-09  1.35843066E-08 -1.95225142E-01 -9.71937633E-01  1.86681589E-06
  7.20078139E-02  5.45153588E-08  1.49565936E+01 -7.62867015E-06 -9.54143684E+00
 -7.15708935E-07  3.19913252E-02 -5.11457805E-02 -4.20374630E-01  3.56981788E-07
 -9.68440610E-09 -9.27834809E-09  1.95224003E-01  9.71938799E-01  6.23577450E-02
 -3.59995635E-02 -1.59173815E-08 -1.49566215E+01 -8.26311202E+00  4.77070852E+00
 -1.16871583E-07  3.03596109E-02 -1.12203985E-02  4.20371665E-01 -4.15562181E-02
 -4.35060796E-09  2.28427047E-09 -1.95223964E-01 -9.71938329E-01 -6.23581644E-02
 -3.59989228E-02  5.56614790E-08  1.49566065E+01  8.26311731E+00  4.77072607E+00
 -7.21397905E-07 -3.03591924E-02  1.12196726E-02 -4.20371722E-01 -4.15547728E-02
  4.55559871E-09  1.35843066E-08  1.95225142E-01  9.71937633E-01  1.86681589E-06
  7.20078139E-02 -5.45153588E-08 -1.49565936E+01 -7.62867015E-06 -9.54143684E+00
  7.15708935E-07 -3.19913252E-02  5.11457805E-02  4.20374630E-01 -3.56981788E-07
 -9.68440610E-09 -9.27834809E-09  3.02560358E-01  2.43483578E+00 -3.02561590E-01
 -2.43484433E+00  3.02568153E-01  2.43484518E+00 -3.02560358E-01 -2.43483578E+00
  3.02561590E-01  2.43484433E+00 -3.02568153E-01 -2.43484518E+00
Total SCF Density                          R   N=        5253
  2.05265529E+00 -6.34914244E-02  3.29733188E-01 -3.42392070E-04 -5.24664643E-03
  4.22133163E-01  1.97641800E-04  3.02919979E-03 -7.02069540E-04  4.21322440E-01
 -9.34187119E-10  4.68851638E-09 -3.58467977E-09  2.16509667E-09  3.29630608E-01
 -1.67190696E-01  2.56278213E-01  8.39081678E-03 -4.84525104E-03 -2.99441402E-08
  2.26373656E-01 -3.58537866E-03  2.36583775E-02  1.23773830E-01  3.73261516E-03
  2.58749400E-08  1.81636431E-02  4.19012302E-02  2.06999744E-03 -1.36591257E-02
  3.73253750E-03  1.28083434E-01 -1.49594039E-08 -1.04870422E-02  2.67264031E-03
  4.49869923E-02 -5.71596229E-10  2.24769258E-09  5.68094634E-09 -3.20923069E-09
  2.22949842E-01 -2.05287334E-08  2.00993563E-08 -1.16162624E-08  1.52109705E-01
 -1.96163412E-02  1.18447436E-03  4.69144711E-03 -1.73471622E-02 -5.98657114E-10
  2.90906829E-03  1.22396353E-03 -4.16353839E-03 -7.50435798E-11  1.37129919E-03
 -1.74405662E-02 -2.49126961E-03  2.59718048E-03  1.31390187E-02 -1.33121997E-09
 -2.58504538E-03  4.51088439E-04  3.19642564E-03 -1.09723857E-09 -6.32129031E-04
  1.05300149E-03 -1.12893527E-02 -1.60151431E-02 -5.85959986E-04  3.38282466E-04
  1.25062137E-09 -1.13342438E-02 -1.26429174E-03  7.29936341E-04  8.59542871E-10
 -1.06520412E-05  2.21383821E-04  9.16395907E-04  2.17573000E-03 -3.67565561E-03
 -1.89973379E-02  1.20905932E-03 -7.50067018E-10 -5.49399791E-03 -4.76450074E-03
  4.46196208E-04 -1.03457108E-09 -4.10429606E-04  9.21359366E-05  2.32035537E-04
  1.56456148E-03  4.00831840E-10 -8.72152914E-10 -1.04601524E-09  6.79046225E-10
 -6.58741550E-03 -2.28069584E-10 -8.35158594E-10  2.96930345E-10 -4.21912944E-03
 -5.97305593E-11  5.52153588E-11  1.74529374E-11  9.56317771E-11  3.51463337E-04
 -2.31490778E-10  5.08244166E-10  6.75450207E-10 -2.58492439E-10  3.80328428E-03
  9.22447028E-11  3.24829652E-10 -5.09134748E-10  2.43593042E-03  1.72602129E-11
 -1.55116310E-11 -9.51649248E-12 -6.64768146E-11  2.06603499E-04  5.90030108E-04
  1.70543719E-02 -3.43366548E-02  6.28374283E-04 -7.98848214E-02  1.15798023E-09
  3.68297967E-03 -2.74465253E-03 -1.08931140E-02  2.65660048E-09  3.14283435E-03
 -6.78436879E-03  1.89569368E-03 -1.68603491E-04 -1.38892902E-10 -2.34668109E-10
  2.05265530E+00 -3.43366610E-02  5.98803507E-02  3.10965421E-03  1.65001012E-01
 -5.31250942E-09  2.52422003E-02 -5.79736951E-03  3.79184998E-02 -6.80136870E-09
 -7.51271474E-03  1.20613706E-02 -4.34644727E-03 -1.36956217E-04  3.00818131E-10
  4.56245532E-10 -6.34914318E-02  3.29733196E-01  6.28325473E-04  3.10980828E-03
  1.54398244E-02  2.62923644E-03 -1.14054694E-08 -3.34697867E-02  3.27668740E-02
  8.29820994E-03 -1.04774490E-08 -1.32303292E-04 -8.03160321E-04  7.97155866E-04
  1.35977992E-02  6.41682619E-10 -3.76093043E-10 -3.42336120E-04 -5.24678398E-03
  4.22133323E-01  7.98848951E-02 -1.65001252E-01 -2.62892108E-03 -3.18259039E-01
 -1.87632203E-08 -1.32147275E-01 -2.31554696E-02 -9.06859124E-02 -9.15778661E-09
  1.22382254E-02 -5.81396651E-03  6.25819486E-03  1.07805904E-03 -5.98626338E-11
 -5.31414983E-10 -1.97715348E-04 -3.02898000E-03  7.01822132E-04  4.21322460E-01
  3.83868319E-09 -6.15514004E-09  2.35807771E-09 -2.30074266E-08  2.14119357E-01
 -2.74295590E-08  1.36584777E-08 -2.03718033E-08  1.40056112E-01  4.49261737E-10
 -1.04869512E-09  1.19157083E-09 -2.49928060E-10  4.07194697E-04  1.25659871E-02
 -5.93072092E-10 -1.64845256E-10  2.37500554E-09  7.44918421E-09  3.29630550E-01
  3.68303016E-03  2.52420798E-02 -3.34696024E-02  1.32147844E-01  1.79033366E-08
 -5.44216519E-03 -1.67050606E-02  2.47646421E-02  9.15892952E-09 -7.98299850E-03
  1.06250237E-02 -2.27950034E-03  2.91698467E-03  1.26775836E-10  3.87917998E-10
 -1.67190619E-01  2.56278029E-01  8.39140201E-03  4.84464439E-03  1.17270066E-08
  2.26373382E-01 -2.74472635E-03 -5.79722102E-03  3.27666278E-02  2.31551591E-02
 -3.08850284E-08 -1.67050609E-02  1.71390019E-02  9.53948417E-03 -2.21620098E-08
 -8.50305720E-04  1.37592236E-03  4.07766562E-04  3.01020377E-03  3.78277932E-10
 -7.09317941E-10 -3.58544855E-03  2.36585028E-02  1.23773488E-01 -3.73221914E-03
 -2.16547706E-08  1.81639351E-02  4.19009951E-02  1.08931106E-02 -3.79185281E-02
 -8.29826715E-03 -9.06861559E-02 -2.33762587E-08 -2.47644129E-02 -9.53964458E-03
 -2.37548410E-02 -1.52229472E-08  4.19949389E-03 -2.02128061E-03  1.34822202E-03
  7.35158798E-06 -3.91719393E-11 -7.49937743E-10 -2.07008181E-03  1.36593482E-02
 -3.73280969E-03  1.28083742E-01 -1.67946060E-08  1.04869405E-02 -2.67253597E-03
  4.49871970E-02  1.07757825E-10 -2.41566298E-10  4.71563994E-09 -6.33744517E-09
  1.40056156E-01 -1.33641463E-08  9.61981443E-09 -1.14649957E-08  9.26231467E-02
 -8.88652057E-12 -4.84733394E-10  6.07818529E-10 -8.47182889E-10  8.00373105E-04
  8.72425874E-03  8.84682301E-11 -9.00012529E-11 -1.38129991E-08 -6.91702067E-09
  2.22949743E-01  7.46697429E-09 -1.93134218E-08 -1.49486969E-08  1.52109596E-01
  3.14283936E-03 -7.51272926E-03 -1.32281498E-04 -1.22382272E-02 -1.19392168E-11
 -7.98299282E-03 -8.50313755E-04 -4.19949347E-03  5.96699036E-11  4.50852064E-04
 -1.20486443E-04  2.72518594E-04  2.06577039E-04  3.86794223E-11  7.68846593E-11
 -1.96163442E-02  1.18448113E-03  4.69140232E-03  1.73471673E-02  2.58709113E-09
  2.90905318E-03  1.22396425E-03  4.16354147E-03  9.87875203E-10  1.37129899E-03
 -6.78437033E-03  1.20613776E-02 -8.03148085E-04  5.81400632E-03  1.34151538E-09
  1.06250241E-02  1.37593798E-03  2.02129901E-03  8.52520089E-10 -1.20487899E-04
 -8.36471740E-05 -4.76273761E-04 -6.58503905E-06 -5.78837087E-11 -2.87920104E-11
 -1.74405602E-02 -2.49129120E-03  2.59726032E-03 -1.31390661E-02 -8.58837516E-10
 -2.58504797E-03  4.51103097E-04 -3.19644258E-03 -2.88605357E-10 -6.32130321E-04
  1.05300502E-03  1.89569189E-03 -4.34644388E-03  7.97150411E-04 -6.25819972E-03
 -7.52868511E-10 -2.27950805E-03  4.07771648E-04 -1.34822757E-03 -3.69617559E-10
  2.72518670E-04 -4.76274238E-04  2.88732593E-04 -3.01447448E-05  1.60271872E-11
 -1.78457479E-11 -1.12893563E-02 -1.60151423E-02 -5.85955242E-04 -3.38276852E-04
 -3.65693684E-10 -1.13342313E-02 -1.26430084E-03 -7.29941832E-04 -1.51410428E-10
 -1.06515893E-05  2.21384368E-04  9.16395693E-04  1.68610991E-04  1.36942363E-04
 -1.35977871E-02  1.07806401E-03  1.74148769E-11 -2.91699482E-03 -3.01021158E-03
  7.34347136E-06 -4.69981680E-10 -2.06579236E-04  6.58845760E-06  3.01453560E-05
  1.22757761E-03  7.87207180E-11  3.29436418E-11 -2.17574472E-03  3.67568372E-03
  1.89973174E-02  1.20907257E-03  1.58548752E-09  5.49404896E-03  4.76449029E-03
  4.46191347E-04  1.93379138E-10  4.10428926E-04 -9.21361189E-05 -2.32036072E-04
  1.56456147E-03  1.76016545E-10 -3.51760635E-10 -6.98724375E-10 -4.45792577E-10
  4.07198669E-04 -1.21699764E-09  1.90035295E-10 -2.59952069E-10  8.00378778E-04
 -1.11471857E-11  4.66456671E-11  4.53626513E-12  1.88713701E-10 -7.20856323E-05
 -3.24010223E-04 -1.20976216E-09  2.47698385E-09  4.57563801E-09  2.58480691E-09
 -6.58743642E-03  2.70092200E-09  1.32933227E-09  8.62171287E-10 -4.21914093E-03
  1.58603911E-10 -5.04305355E-11 -1.46473035E-10  2.47855034E-10  3.51464839E-04
 -1.89044411E-10  1.66253679E-10 -1.97530239E-10  6.90422844E-10 -1.25659887E-02
  1.21069931E-09 -1.11482119E-09  7.56365517E-10 -8.72426339E-03 -2.15958646E-11
  1.17533012E-10 -6.54115491E-11  1.08359971E-10  3.24008946E-04  7.47100361E-05
 -8.99266386E-10  2.08940691E-09  2.13646257E-09  6.87954905E-10 -3.80328919E-03
  7.00340460E-10  1.78005022E-09  8.59735630E-10 -2.43593727E-03  5.29294595E-11
 -6.09203403E-11 -5.59740564E-11  1.29939280E-10 -2.06603880E-04  5.90029847E-04
 -3.19555240E-03  8.63881575E-03 -5.69117410E-03  1.37700456E-02 -5.12542995E-10
 -5.95590499E-03  8.25043819E-03  3.64716372E-03 -1.30384229E-09 -2.47461820E-04
 -5.32731298E-04  1.39254005E-04  2.03203801E-03  7.92077956E-11  3.30754290E-11
  1.70543549E-02 -3.43366702E-02  6.94964452E-02 -3.93983018E-02  1.35892469E-09
  3.68309378E-03  8.06120266E-03 -7.82366500E-03  5.29551376E-11 -4.17611940E-03
  5.34594163E-04  1.89567732E-03  5.04791228E-03  1.35592315E-10  9.42563996E-11
  2.05265529E+00  8.63880751E-03 -2.03055454E-02  1.33192279E-02 -3.68571438E-02
  2.79832869E-09 -7.67688847E-03 -7.94841102E-03 -1.54134297E-02  4.03756302E-09
  9.76018569E-04  1.14227575E-03  4.09549171E-05 -4.35997687E-03 -1.32847201E-10
  3.19734821E-11 -3.43366773E-02  5.98804852E-02 -1.41340456E-01  8.51937803E-02
 -4.18762204E-10  2.52420634E-02 -3.57367945E-02  1.39389292E-02  6.83229132E-10
  7.27058857E-03 -2.72193924E-03 -4.34641740E-03 -9.71859791E-03 -3.33010537E-10
 -3.55569115E-10 -6.34914894E-02  3.29733571E-01  9.07963431E-03 -2.52596892E-02
  1.74005013E-02 -2.92962049E-02  1.27210482E-09  7.46150334E-03 -1.82781249E-02
 -2.40879533E-03  2.95758092E-09  1.41361561E-03  3.59008833E-03 -2.63227625E-04
 -8.39199115E-03 -7.63284431E-10 -4.19759464E-10 -6.88681826E-02  1.44450151E-01
 -2.34834438E-01  1.47125167E-01 -8.97051194E-09  9.77083563E-02 -5.33893716E-02
  7.28979765E-02  5.21991504E-10 -3.58997977E-03 -2.44128617E-03 -5.02118892E-03
 -1.05817229E-02 -7.78662919E-10 -2.50514968E-10 -2.47653959E-08  2.05242490E-08
  4.20917047E-01 -1.18137488E-02  2.99634488E-02 -8.98619796E-03  3.95028501E-02
  2.57563987E-09  5.78947292E-02  1.93808922E-02  4.00545425E-02  1.56301199E-09
 -8.92310933E-04 -3.35859652E-03  3.11292444E-04  5.87971784E-03 -3.72680308E-10
 -1.52153538E-09  4.04865449E-02 -7.98075374E-02  1.41866726E-01 -6.79852126E-02
 -2.53556517E-08 -9.50593166E-02  4.14437682E-02 -4.52998711E-03 -1.88527228E-08
 -1.04370964E-02  1.28390977E-02  3.81939335E-03 -1.35395560E-03  2.70211018E-10
  1.82815032E-13 -3.95402056E-04 -6.05845408E-03 -1.12286873E-07  4.22538326E-01
 -5.75198717E-10  1.04913376E-09  3.50687630E-09  9.00696175E-09 -1.69034489E-02
  1.19639885E-08 -7.37053154E-09  5.24844852E-09 -2.57312457E-02 -2.64617852E-10
  3.95994504E-10  5.97061559E-11 -5.16643884E-10  3.31038525E-03  1.08898108E-02
  1.40829761E-09 -6.30996870E-10 -1.77819058E-08 -2.04808850E-08  2.14119175E-01
 -1.59477114E-08 -2.07229072E-09 -8.10083657E-09  1.40056192E-01 -3.04021798E-10
  1.90200450E-12  6.21704180E-10 -2.67707707E-10 -1.06788717E-02  6.63560221E-03
 -6.10052683E-10 -1.80608853E-11  5.34642253E-09  5.65643912E-09  3.29630553E-01
 -5.95578749E-03 -7.67711742E-03  5.38690661E-02 -2.24861131E-02 -1.94249419E-08
  8.13522845E-03  6.34894204E-03 -1.23549135E-02 -1.14135546E-08 -1.77150386E-04
  1.45598159E-03 -2.94411843E-05 -5.83536660E-03 -3.77226764E-11 -3.27230993E-10
  3.68299001E-03  2.52422390E-02 -1.31177833E-01  3.70888065E-02 -1.69611053E-08
 -5.44225898E-03 -2.97989560E-02 -2.08432095E-03 -9.29598364E-09  3.78529358E-03
 -1.14327107E-03 -2.27947839E-03 -1.07625230E-02 -1.19733363E-09  3.83482428E-10
 -1.67190675E-01  2.56278305E-01  5.46447709E-08  9.68954144E-03  1.07143046E-08
  2.26373569E-01  7.28379488E-03 -1.73227104E-02  3.28204529E-02 -3.19107406E-02
 -5.43861575E-13 -7.52511965E-03  3.35873057E-03 -4.70632017E-03  1.60210682E-09
  2.10305108E-03  2.84901587E-04  1.82826184E-04 -3.68054009E-03 -4.59488161E-10
 -3.66874992E-10 -1.08060930E-02  2.99398316E-02 -6.62561889E-02  6.54693654E-02
 -6.11277644E-09  1.30942611E-02 -1.35313144E-02  2.72472696E-02 -2.87814223E-09
 -3.10697874E-04 -1.31286735E-03 -9.63712170E-04 -3.99959440E-03 -9.29029656E-11
 -2.37302172E-10  1.78982301E-09 -2.46617405E-08  1.30238493E-01 -3.06184355E-07
 -3.73601188E-09 -1.30063557E-08  4.65300913E-02  5.32147891E-03  8.23241585E-04
 -1.01208245E-02 -1.10436535E-02  2.47380293E-08  1.16756927E-02  1.44382409E-03
  5.24239021E-03  1.83861795E-08  7.88147970E-04 -1.62553305E-03  2.94694073E-04
  1.94769222E-03 -6.02973145E-10 -7.99860057E-10  3.06946132E-03 -2.39796630E-02
  3.40150132E-02  8.33661397E-03 -4.63185512E-09 -2.68490109E-02  8.16775164E-03
  6.91540216E-03 -3.72125964E-09 -1.48137460E-03  3.02567604E-03  1.02722582E-03
 -7.14086898E-04  1.07685388E-09 -1.37575737E-09 -4.14019633E-03  2.73186620E-02
 -3.69262375E-07  1.21617499E-01 -2.59382374E-08  2.09740125E-02 -1.83434627E-07
  4.03574778E-02  1.01271808E-09 -1.92121724E-09  4.17543001E-09  1.80178118E-09
 -2.57311262E-02  5.70878628E-09 -6.38614194E-09  1.41767842E-09 -2.63496866E-02
 -2.02831974E-12  3.79183896E-10  2.21988068E-11 -5.52490187E-10  2.88376766E-03
  7.52139724E-03  1.25220039E-10  4.70804234E-10 -1.67418055E-08 -9.10599311E-09
  1.40056163E-01 -8.66971357E-09 -2.55280566E-09 -4.71948541E-09  9.26232941E-02
  3.57207676E-10 -6.79950553E-10  4.29487646E-10 -1.36637058E-10 -7.15525327E-03
  5.05525327E-03  5.64710700E-11  5.86031333E-11  9.77170722E-10 -1.51404910E-08
  2.22949932E-01  6.79800036E-09 -3.30034481E-09 -2.32371604E-08  1.52109843E-01
  1.06262410E-03 -2.16928489E-03 -1.79667059E-04 -3.64676641E-03 -1.42977816E-09
 -3.32881731E-03 -6.30587876E-04 -1.96954275E-03 -1.06969973E-09  1.23060386E-04
  1.47432086E-04  3.84168760E-05  1.39499424E-04  2.29602586E-11  9.78251520E-12
 -4.42901339E-03  7.06513524E-03  4.35500028E-03  8.52793109E-03  1.10804005E-10
  8.16076366E-03  1.13963820E-03  2.89508345E-03 -3.39401493E-10  6.26456588E-04
 -5.46973750E-04 -3.11681975E-04  5.74524440E-04  1.65777451E-10  1.07155700E-10
 -1.63527083E-02 -4.32912460E-03  6.65810607E-08 -1.28485796E-02 -1.18913831E-09
 -5.33204154E-03  3.31019173E-08 -3.38215198E-03 -1.31508623E-10  1.27077965E-03
 -1.84276765E-03  4.28748584E-03 -9.99744232E-04  1.01054309E-02  7.24636078E-10
  4.60762302E-03  1.09940697E-03  4.45625583E-03  3.68168652E-10 -3.91631829E-04
  5.35776749E-05 -1.25640359E-04  1.09671438E-04 -7.76597055E-12 -1.52220517E-11
  7.87576581E-04 -2.51666037E-03  7.41097958E-04 -1.25500953E-02 -4.30991411E-10
 -5.51886107E-03  1.00961504E-03 -3.52894156E-03  1.96151179E-12 -8.46968484E-04
  8.93713025E-04  1.07935642E-04 -4.07268919E-04 -1.55002248E-10 -4.52078026E-12
 -2.07041045E-02  3.02207058E-03 -3.57945517E-08  2.12651974E-02  2.88096935E-09
  5.65588561E-03 -3.31484145E-08  5.31643412E-03  8.13238418E-10 -1.00905541E-03
  1.90738014E-03  1.39255639E-04  4.09524275E-05  1.37982621E-04 -3.83600799E-04
  3.92146397E-10 -2.94516282E-05  3.46628718E-04  1.09783876E-05  2.63031587E-10
  2.43474875E-05 -1.11577623E-04  4.19821748E-05  1.54682638E-04  1.34414562E-11
  2.02516341E-11  1.89568758E-03 -4.34643811E-03  5.81830834E-03 -2.43874446E-03
  6.25585169E-10 -2.27948334E-03  1.37146216E-03 -3.20986290E-04  4.29925073E-10
 -2.66467542E-04  6.27121083E-05  2.88731183E-04  3.89468843E-04  1.78763989E-11
 -1.91155341E-11 -1.12893718E-02 -1.60151395E-02 -1.96223479E-08 -6.76628453E-04
 -3.61468786E-10 -1.13342276E-02 -2.10941861E-09 -1.45989831E-03 -1.51809461E-10
  3.37405317E-04 -1.26660737E-04  9.16395550E-04  1.15865346E-03 -2.26310966E-03
  9.71814392E-04 -6.66278242E-03 -4.01803267E-10 -3.73425135E-03  1.42295114E-03
 -1.89679013E-03 -2.39909764E-10  2.53680400E-04 -3.63893119E-04  1.45305106E-04
  3.56086233E-04  6.65599396E-12 -3.05183599E-11  4.87930961E-03 -9.85554476E-03
  1.18508605E-02  1.39592906E-03  1.91784994E-11 -7.84553733E-03  2.89286272E-03
 -1.21757096E-03 -5.96757581E-10  4.61355848E-04 -9.41110388E-05  3.59325687E-04
  4.58937934E-04  7.65111312E-11  2.27146515E-12 -2.48542008E-08  5.33175096E-08
 -1.69031796E-02  7.91218788E-08 -9.38950498E-10  4.70735637E-08 -3.99166864E-03
  3.45896808E-08 -5.47721002E-10 -4.82109301E-09  5.14485164E-09 -1.86292145E-09
  1.06199951E-03  7.43402869E-11 -4.63397417E-11  2.26032527E-10 -8.28943081E-10
  1.10860567E-02 -1.46186792E-09  1.06740616E-09 -1.07522210E-09  7.95560640E-03
  3.17030751E-12 -5.21734954E-11  4.45095477E-11 -2.63135743E-11  3.80133219E-05
  3.87576763E-04  1.78608950E-11 -1.52621475E-10 -1.94729152E-10  7.46576051E-11
  1.10860707E-02  9.57342174E-10 -1.45317659E-09 -1.02702144E-09  7.95561657E-03
  8.59868833E-11 -1.08497057E-12 -2.52579703E-11  1.49782199E-11  3.80118742E-05
 -3.87575584E-04 -1.73967421E-10  5.75069152E-10 -4.07664247E-10 -7.31443064E-10
  3.39573556E-08 -7.78122148E-10 -1.79344630E-10  9.44362315E-10  1.79564604E-08
 -2.08919501E-11 -4.08596065E-11  2.52466925E-11 -2.20974769E-12  7.09312280E-04
 -1.49457510E-10  3.70831237E-10 -1.09724975E-10  7.88232494E-10 -2.57803234E-03
  7.48148191E-10  1.92889726E-10  5.67994340E-10 -1.26327828E-03 -3.94967035E-11
 -3.21858143E-12 -1.77604021E-11  5.24817961E-11  5.74494332E-05 -2.18924200E-04
  1.57952622E-10 -4.49689363E-10  5.96694794E-10 -5.59079046E-10 -5.93039322E-03
 -8.36064142E-10  3.24850167E-10 -3.85706003E-11 -3.66901349E-03 -1.01621185E-10
  1.60641063E-10  5.57116485E-12 -1.30601371E-10  2.60447054E-04 -3.53863460E-05
 -1.47054864E-09  3.12951872E-09 -2.79532673E-10  5.52791766E-09 -7.60657809E-03
  2.65295165E-09 -1.38794312E-12  2.29689906E-09 -4.87188618E-03 -2.19391292E-10
  3.07089311E-10 -1.51823414E-10  2.08980602E-11 -5.84937435E-10  2.32184762E-04
 -3.63264836E-03  6.18826337E-03 -7.35255097E-03  4.24497812E-03  8.95974848E-10
  2.74961253E-02 -1.15768673E-02  6.68386371E-03  7.24417919E-10  8.97668303E-05
 -1.60286261E-04 -4.37345646E-04 -2.50045162E-04 -4.40605948E-11  2.62509159E-11
 -3.19556259E-03  8.63880131E-03 -1.47707889E-02  1.95631163E-03 -5.57189693E-10
 -5.95574234E-03  9.66614858E-04  8.96863728E-03  1.05033066E-09 -1.98542654E-03
  1.20525374E-03  1.39243437E-04 -8.73367649E-04 -1.69064175E-10 -1.04245654E-11
  1.70543546E-02 -3.43366816E-02  6.88680648E-02  4.04865151E-02  3.84576446E-09
  3.68293460E-03  1.08060541E-02  3.06939114E-03  1.40485120E-10 -4.42899261E-03
  7.87562710E-04  1.89568196E-03 -4.87930944E-03 -2.53417145E-10  5.30521090E-11
  2.05265529E+00  6.18826337E-03 -1.28720197E-02  1.58609244E-02 -9.15728588E-03
 -3.15870327E-09 -3.97464139E-02  1.58365587E-02 -9.14319194E-03 -2.42716075E-09
 -4.54746723E-04  4.18602744E-04  5.15277573E-04  8.73324847E-04  9.96378573E-11
 -6.30913363E-11  8.63880615E-03 -2.03054671E-02  3.85787246E-02 -6.89374224E-03
  9.09994606E-10 -7.67714931E-03  9.37434107E-03 -1.45901614E-02 -2.07161122E-09
  4.37065346E-03 -2.25240651E-03  4.09741791E-05  2.09681698E-03  3.54837029E-10
  1.43778016E-10 -3.43366730E-02  5.98805222E-02 -1.44449877E-01 -7.98074300E-02
 -6.28126748E-09  2.52423582E-02 -2.99397411E-02 -2.39795414E-02 -3.79135499E-10
  7.06508456E-03 -2.51662858E-03 -4.34642858E-03  9.85553873E-03  3.20296425E-10
 -2.08218066E-10 -6.34914244E-02  3.29733188E-01  7.35255097E-03 -1.58609244E-02
  1.04469980E-02 -2.64716588E-02  2.51595310E-09 -4.83313702E-02  4.08958921E-03
 -1.79283410E-02  3.08095309E-09  1.01907455E-03 -9.66926898E-04  1.38627647E-04
  1.11230157E-03  3.65022530E-10  2.38117500E-10  1.47708071E-02 -3.85787730E-02
  5.05537650E-02 -1.01549083E-02  6.04947194E-09 -4.64077510E-02  1.81224810E-02
 -4.03964255E-02 -6.01079206E-10  1.08635988E-02 -4.68039911E-03 -4.01157634E-04
  3.03188006E-03  1.06535706E-09 -3.47222277E-10 -6.94963963E-02  1.41340394E-01
 -2.34834053E-01 -1.41866640E-01 -2.11666535E-08  1.31177837E-01 -6.62559543E-02
 -3.40147316E-02 -7.97213252E-09 -4.35508123E-03 -7.41052855E-04 -5.81828421E-03
  1.18508330E-02  6.33655959E-10  3.26905250E-10  3.42392070E-04  5.24664643E-03
  4.22133163E-01 -4.24497812E-03  9.15728588E-03 -2.64716588E-02 -2.01198788E-02
 -1.53497600E-09  2.79038635E-02 -1.79281898E-02 -1.66124965E-02 -1.84267732E-09
  2.09490103E-03 -2.12495189E-03 -8.00272456E-05  1.14661836E-03  2.39387711E-10
  6.38154207E-10  1.95633791E-03 -6.89382115E-03  1.01549856E-02  6.34925829E-03
  7.54367242E-09  3.54091439E-02 -1.86067884E-02  3.65393653E-03  4.49971520E-09
  4.51279981E-03 -2.30485276E-03 -7.22987710E-05  1.83805041E-03  3.71529017E-10
 -2.84880038E-11 -3.93983679E-02  8.51939382E-02 -1.47125211E-01 -6.79852524E-02
 -9.35557267E-09  3.70886652E-02 -6.54690456E-02  8.33718668E-03  8.82103086E-10
  8.52788766E-03 -1.25500722E-02 -2.43873909E-03 -1.39589705E-03  5.76673096E-10
 -6.15403687E-10 -1.97641800E-04 -3.02919979E-03 -7.02069540E-04  4.21322440E-01
  8.95974848E-10 -3.15870327E-09 -2.51595310E-09  1.53497600E-09 -1.32415036E-01
  1.80973758E-08 -1.93613802E-08  1.12620944E-08 -1.08624901E-01  3.80845921E-10
  5.72706623E-10 -3.12228446E-10  1.95969205E-10 -7.81044436E-04  4.50915251E-04
 -4.99925394E-10  2.75505570E-09  1.65746695E-09  2.32190121E-09 -1.69036920E-02
 -1.94123897E-08  2.14676541E-08  1.24179402E-08 -2.57311660E-02  4.71252353E-10
 -1.17908165E-09  3.90190726E-10  8.64608301E-10 -7.77566582E-03  8.31179034E-03
  1.11570752E-09 -5.22653229E-09 -1.04826223E-08 -1.88674577E-08  2.14119078E-01
  1.79776759E-08 -4.72692865E-09 -3.81136030E-08  1.40056242E-01  9.83863393E-10
  3.48098616E-10 -7.63717157E-10  6.87687074E-10 -1.10860295E-02 -5.93039977E-03
 -9.34187119E-10  4.68851638E-09  3.58467977E-09 -2.16509667E-09  3.29630608E-01
  2.74961253E-02 -3.97464139E-02  4.83313702E-02 -2.79038635E-02  1.80973758E-08
 -6.45321611E-02  2.16029184E-02 -1.24723158E-02  1.41579767E-08  7.14753325E-04
  1.05157732E-03  1.37051627E-03  3.36814876E-04 -9.39560432E-11  9.17307324E-11
 -5.95572941E-03 -7.67718234E-03  4.64078683E-02  3.54087454E-02  1.30076985E-08
  8.13497255E-03  1.38742028E-02 -6.79167887E-04  6.38484738E-09  5.42420677E-03
 -4.14540164E-03 -2.94146436E-05  2.10108259E-03  1.36200440E-09 -8.63385473E-10
  3.68290185E-03  2.52424427E-02 -9.77090347E-02 -9.50594691E-02 -2.63429800E-08
 -5.44187515E-03 -1.30944156E-02 -2.68489386E-02 -1.26679747E-08  8.16073121E-03
 -5.51884909E-03 -2.27949061E-03  7.84553810E-03  1.69279151E-09 -4.41405327E-10
 -1.67190696E-01  2.56278213E-01 -8.39081678E-03  4.84525104E-03 -2.99441402E-08
  2.26373656E-01  1.15768673E-02 -1.58365587E-02  4.08958921E-03 -1.79281898E-02
  1.93613802E-08 -2.16029184E-02 -5.87627066E-04 -5.08885641E-03  1.51037031E-08
  1.65731103E-03 -1.02796839E-03  3.21949610E-04  1.87215478E-04 -9.90103208E-11
  1.04108966E-10 -9.66585238E-04 -9.37440042E-03  1.81225786E-02  1.86066324E-02
  9.00568934E-09 -1.38741902E-02  6.18427817E-03 -3.07512199E-03  4.94070743E-09
  3.90017484E-03 -1.98099415E-03 -1.63784142E-04  1.17289393E-03  1.05755302E-09
 -1.04861436E-09 -8.06127813E-03  3.57369457E-02 -5.33897803E-02 -4.14439580E-02
 -2.36711018E-08  2.97990426E-02 -1.35313870E-02 -8.16769546E-03 -1.41921851E-08
 -1.13965019E-03 -1.00961705E-03 -1.37146283E-03  2.89286703E-03  1.23614847E-09
  3.21881189E-10  3.58537866E-03 -2.36583775E-02  1.23773830E-01  3.73261516E-03
 -2.58749400E-08 -1.81636431E-02  4.19012302E-02 -6.68386371E-03  9.14319194E-03
 -1.79283410E-02 -1.66124965E-02 -1.12620944E-08  1.24723158E-02 -5.08885641E-03
 -6.46397924E-03 -8.78320561E-09  1.53080970E-03 -1.89414140E-03 -1.85867781E-04
  1.55034368E-03  7.62755092E-11 -2.92044467E-11  8.96862521E-03 -1.45901665E-02
  4.03963069E-02  3.65442078E-03 -4.21025398E-09 -6.78971690E-04  3.07500301E-03
  2.41695762E-03 -5.18395523E-09  1.78952859E-03 -1.40180576E-04  3.05678633E-04
  2.49748592E-03  2.16113064E-10  5.61185075E-10 -7.82361395E-03  1.39388823E-02
 -7.28975282E-02 -4.53008598E-03  1.24616760E-09 -2.08443261E-03 -2.72470200E-02
  6.91557122E-03  2.29269186E-09  2.89506660E-03 -3.52894126E-03 -3.20976482E-04
  1.21757529E-03 -5.38261329E-10 -2.54965534E-10 -2.06999744E-03  1.36591257E-02
  3.73253750E-03  1.28083434E-01  1.49594039E-08  1.04870422E-02  2.67264031E-03
  4.49869923E-02  7.24417919E-10 -2.42716075E-09 -3.08095309E-09  1.84267732E-09
 -1.08624901E-01  1.41579767E-08 -1.51037031E-08  8.78320561E-09 -8.58360733E-02
  3.07716877E-10  4.90088265E-10 -2.96513231E-10  1.84689671E-10 -5.23321938E-05
  3.02090721E-05 -1.29937682E-09  4.01691392E-09 -8.80303190E-11  3.29303297E-09
 -2.57311168E-02 -1.14052512E-08  1.51625971E-08  1.06204103E-08 -2.63494871E-02
  1.76394324E-10 -8.80179259E-10  2.61073777E-10  5.89270445E-10 -5.07184459E-03
  6.25812459E-03  2.61707507E-09 -6.72665839E-09 -2.63732215E-09 -1.33608893E-08
  1.40056220E-01  9.22963972E-09 -2.04444320E-09 -2.65813317E-08  9.26234193E-02
  1.00145695E-09 -8.66867464E-11 -3.78024568E-10  1.62666988E-10 -7.95559065E-03
 -3.66901987E-03 -5.71596229E-10  2.24769258E-09 -5.68094634E-09  3.20923069E-09
  2.22949842E-01 -2.05287334E-08 -2.00993563E-08  1.16162624E-08  1.52109705E-01
  8.97668303E-05 -4.54746723E-04 -1.01907455E-03 -2.09490103E-03  3.80845921E-10
  7.14753325E-04 -1.65731103E-03 -1.53080970E-03  3.07716877E-10  1.13396454E-04
  5.86553183E-05 -2.46263421E-05 -3.32039902E-04 -8.88982164E-12  4.46799845E-11
 -1.98542782E-03  4.37065819E-03 -1.08636002E-02  4.51278809E-03  6.15219732E-10
  5.42420349E-03 -3.90016643E-03  1.78951893E-03  7.00835753E-10  2.61629269E-04
 -3.64881681E-04 -1.93606657E-04 -3.26619607E-04 -3.66271861E-11 -4.18608754E-11
 -4.17610571E-03  7.27055638E-03  3.58999861E-03 -1.04371027E-02 -4.74287216E-10
  3.78525494E-03  3.10724865E-04 -1.48137018E-03  2.68136151E-10  6.26458901E-04
 -8.46969848E-04 -2.66466517E-04 -4.61356906E-04  5.62143079E-11 -9.19145709E-11
 -1.96163412E-02  1.18447436E-03 -4.69144711E-03  1.73471622E-02 -5.98657114E-10
  2.90906829E-03 -1.22396353E-03  4.16353839E-03 -7.50435798E-11  1.37129919E-03
 -1.60286261E-04  4.18602744E-04  9.66926898E-04  2.12495189E-03  5.72706623E-10
  1.05157732E-03  1.02796839E-03  1.89414140E-03  4.90088265E-10  5.86553183E-05
 -1.32919270E-04 -1.02288168E-06  8.57318747E-05 -8.03287357E-12 -3.42579844E-11
  1.20525541E-03 -2.25241406E-03  4.68041045E-03 -2.30485795E-03 -4.67194867E-10
 -4.14540075E-03  1.98099219E-03 -1.40178700E-04 -3.07048786E-10 -3.64879621E-04
  4.00577213E-04  1.06377635E-04 -3.27522480E-05  2.26282945E-11 -2.16872283E-11
  5.34581594E-04 -2.72191298E-03  2.44121952E-03  1.28390564E-02 -1.04713093E-10
 -1.14325064E-03  1.31282547E-03  3.02566127E-03 -7.44508895E-10 -5.46972276E-04
  8.93710502E-04  6.27110577E-05  9.41162219E-05  9.44853677E-12  1.69091576E-10
 -1.74405662E-02 -2.49126961E-03 -2.59718048E-03 -1.31390187E-02 -1.33121997E-09
 -2.58504538E-03 -4.51088439E-04 -3.19642564E-03 -1.09723857E-09 -6.32129031E-04
  1.05300149E-03 -4.37345646E-04  5.15277573E-04 -1.38627647E-04  8.00272456E-05
 -3.12228446E-10  1.37051627E-03 -3.21949610E-04  1.85867781E-04 -2.96513231E-10
 -2.46263421E-05 -1.02288168E-06  2.31633578E-08  2.36022528E-05 -8.39604309E-12
  4.40060975E-12  1.39245272E-04  4.09712049E-05  4.01159631E-04 -7.22993425E-05
  4.74366965E-11 -2.94185247E-05  1.63785407E-04  3.05678125E-04  1.43612396E-11
 -1.93606875E-04  1.06377938E-04  4.19803399E-05 -9.37868064E-06 -3.72443939E-11
  2.93904313E-11  1.89567497E-03 -4.34641431E-03  5.02118196E-03  3.81940249E-03
  1.17684772E-09 -2.27947457E-03  9.63710381E-04  1.02722347E-03  5.98978716E-10
 -3.11680922E-04  1.07935532E-04  2.88730613E-04 -3.59325740E-04 -5.94799311E-11
 -2.88896477E-11 -1.12893527E-02 -1.60151431E-02  5.85959986E-04 -3.38282466E-04
  1.25062137E-09 -1.13342438E-02  1.26429174E-03 -7.29936341E-04  8.59542871E-10
 -1.06520412E-05  2.21383821E-04  9.16395907E-04 -2.50045162E-04  8.73324847E-04
 -1.11230157E-03 -1.14661836E-03  1.95969205E-10  3.36814876E-04 -1.87215478E-04
 -1.55034368E-03  1.84689671E-10 -3.32039902E-04  8.57318747E-05  2.36022528E-05
  2.32895741E-04  4.67421929E-11  3.78562840E-13  8.73366185E-04 -2.09681854E-03
  3.03186573E-03 -1.83803079E-03  9.51035048E-11 -2.10108139E-03  1.17288601E-03
 -2.49748540E-03 -6.95355237E-11  3.26622794E-04  3.27504097E-05  9.37820783E-06
  3.23760663E-05  5.90688076E-11 -1.32137758E-11 -5.04791635E-03  9.71860456E-03
 -1.05817273E-02  1.35388649E-03 -8.73851389E-10  1.07625340E-02 -3.99959838E-03
  7.14065774E-04 -6.58569357E-10 -5.74525510E-04  4.07267333E-04 -3.89468229E-04
  4.58941732E-04  4.70471810E-11  1.66190437E-10  2.17573000E-03 -3.67565561E-03
  1.89973379E-02 -1.20905932E-03 -7.50067018E-10 -5.49399791E-03  4.76450074E-03
 -4.46196208E-04 -1.03457108E-09 -4.10429606E-04  9.21359366E-05  2.32035537E-04
  1.56456148E-03  4.40605948E-11 -9.96378573E-11  3.65022530E-10  2.39387711E-10
  7.81044436E-04  9.39560432E-11 -9.90103208E-11  7.62755092E-11  5.23321938E-05
  8.88982164E-12  8.03287357E-12  8.39604309E-12 -4.67421929E-11  7.61595090E-05
  3.65550881E-04 -8.53653329E-12  8.52403273E-11 -1.00045950E-09 -5.54463895E-10
  7.77565810E-03 -2.35000729E-10 -3.31550831E-10 -2.88965264E-10  5.07183654E-03
  1.45160431E-11 -2.62299260E-11  1.08114416E-11 -1.85566598E-11 -3.47389730E-04
  1.65061609E-04 -1.36512844E-10  2.52886038E-10 -4.57869377E-11 -7.70554068E-10
  1.06788473E-02  2.43052985E-10 -1.43951171E-10 -9.69352299E-10  7.15523581E-03
  2.24305642E-11  2.78720230E-11 -2.35121766E-11 -2.73595404E-11  3.80143369E-05
 -2.60446565E-04 -4.00831840E-10  8.72152914E-10 -1.04601524E-09  6.79046225E-10
  6.58741550E-03  2.28069584E-10 -8.35158594E-10  2.96930345E-10  4.21912944E-03
  5.97305593E-11 -5.52153588E-11 -1.74529374E-11 -9.56317771E-11  3.51463337E-04
 -2.62509159E-11  6.30913363E-11  2.38117500E-10  6.38154207E-10 -4.50915251E-04
 -9.17307324E-11  1.04108966E-10 -2.92044467E-11 -3.02090721E-05 -4.46799845E-11
  3.42579844E-11 -4.40060975E-12 -3.78562840E-13  3.65550881E-04  4.98261423E-04
  8.76611059E-11 -1.09622860E-10 -5.17121464E-10 -1.29664122E-09  8.31178559E-03
 -1.46057319E-10 -5.66191911E-10 -9.91352085E-10  6.25811820E-03  2.96601587E-12
  8.63759865E-12  2.15855881E-11 -2.46072016E-11 -1.65062686E-04  1.66478695E-04
 -2.38668286E-10  4.96326872E-10 -4.54098736E-10  1.57920829E-10  6.63560999E-03
  2.48695297E-10 -3.42223954E-10 -1.69909936E-10  5.05525398E-03 -9.45045018E-11
  1.00462665E-10  5.36383018E-12 -2.64252745E-11  3.87576177E-04 -3.53861173E-05
  2.31490778E-10 -5.08244166E-10  6.75450207E-10 -2.58492439E-10 -3.80328428E-03
 -9.22447028E-11  3.24829652E-10 -5.09134748E-10 -2.43593042E-03 -1.72602129E-11
  1.55116310E-11  9.51649248E-12  6.64768146E-11  2.06603499E-04  5.90030108E-04
 -3.19556259E-03  8.63880615E-03 -1.47708071E-02 -1.95633791E-03 -4.99925394E-10
 -5.95572941E-03  9.66585238E-04 -8.96862521E-03 -1.29937682E-09 -1.98542782E-03
  1.20525541E-03  1.39245272E-04  8.73366185E-04  8.53653329E-12 -8.76611059E-11
 -3.63263631E-03  6.18823782E-03 -7.35250872E-03 -4.24498576E-03 -9.34675554E-10
  2.74960444E-02 -1.15768517E-02 -6.68389483E-03 -1.28889877E-09  8.97695556E-05
 -1.60288308E-04 -4.37344839E-04  2.50052717E-04 -1.71148405E-11  3.27746315E-11
 -3.19555618E-03  8.63880577E-03 -9.07965370E-03 -1.18137259E-02 -2.26899337E-10
 -5.95573983E-03 -7.28376460E-03  5.32147790E-03  1.46722252E-09  1.06261978E-03
 -1.84276167E-03  1.39254293E-04 -1.15864812E-03 -5.77711905E-11 -1.63512331E-10
  1.70543719E-02 -3.43366548E-02 -6.28374283E-04  7.98848214E-02  1.15798023E-09
  3.68297967E-03  2.74465253E-03  1.08931140E-02  2.65660048E-09  3.14283435E-03
 -6.78436879E-03  1.89569368E-03 -1.68603491E-04  1.38892902E-10  2.34668109E-10
  2.05265530E+00  8.63880131E-03 -2.03054671E-02  3.85787730E-02  6.89382115E-03
  2.75505570E-09 -7.67718234E-03  9.37440042E-03  1.45901665E-02  4.01691392E-09
  4.37065819E-03 -2.25241406E-03  4.09712049E-05 -2.09681854E-03 -8.52403273E-11
  1.09622860E-10  6.18823782E-03 -1.28719628E-02  1.58608223E-02  9.15727983E-03
  1.49564521E-09 -3.97462408E-02  1.58365023E-02  9.14323425E-03  1.74421675E-09
 -4.54750748E-04  4.18606111E-04  5.15276008E-04 -8.73340931E-04  9.57131272E-11
 -1.95103452E-10  8.63880960E-03 -2.03055048E-02  2.52596687E-02  2.99633547E-02
 -1.55329233E-09 -7.67719830E-03  1.73226199E-02  8.23269834E-04 -3.82463241E-09
 -2.16927443E-03  4.28746856E-03  4.09547835E-05  2.26309873E-03  2.17893026E-10
  3.86595092E-10 -3.43366610E-02  5.98803507E-02 -3.10965421E-03 -1.65001012E-01
 -5.31250942E-09  2.52422003E-02  5.79736951E-03 -3.79184998E-02 -6.80136870E-09
 -7.51271474E-03  1.20613706E-02 -4.34644727E-03 -1.36956217E-04 -3.00818131E-10
 -4.56245532E-10 -6.34914318E-02  3.29733196E-01  1.47707889E-02 -3.85787246E-02
  5.05537650E-02  1.01549856E-02 -1.65746695E-09 -4.64078683E-02  1.81225786E-02
  4.03963069E-02  8.80303190E-11  1.08636002E-02 -4.68041045E-03 -4.01159631E-04
 -3.03186573E-03 -1.00045950E-09 -5.17121464E-10  7.35250872E-03 -1.58608223E-02
  1.04468819E-02  2.64716528E-02 -9.37068336E-09 -4.83308910E-02  4.08944620E-03
  1.79282614E-02 -8.64989791E-09  1.01906280E-03 -9.66918352E-04  1.38627952E-04
 -1.11232197E-03 -2.50462092E-10 -1.56091687E-10  5.69116840E-03 -1.33191615E-02
  1.74005539E-02  8.98618184E-03  5.60149146E-11 -5.38691846E-02  3.28203912E-02
  1.01212446E-02  2.89993758E-12  1.79676800E-04  9.99721910E-04 -1.37976855E-04
  9.71797670E-04 -7.53751949E-10 -3.23734758E-10 -6.28325473E-04 -3.10980828E-03
  1.54398244E-02  2.62923644E-03  1.14054694E-08  3.34697867E-02  3.27668740E-02
  8.29820994E-03  1.04774490E-08  1.32303292E-04  8.03160321E-04 -7.97155866E-04
 -1.35977992E-02  6.41682619E-10 -3.76093043E-10  3.42336120E-04  5.24678398E-03
  4.22133323E-01 -1.95631163E-03  6.89374224E-03 -1.01549083E-02  6.34925829E-03
 -2.32190121E-09 -3.54087454E-02  1.86066324E-02  3.65442078E-03 -3.29303297E-09
 -4.51278809E-03  2.30485795E-03  7.22993425E-05  1.83803079E-03 -5.54463895E-10
 -1.29664122E-09  4.24498576E-03 -9.15727983E-03  2.64716528E-02 -2.01198005E-02
 -1.67396500E-08 -2.79043493E-02  1.79283367E-02 -1.66120418E-02 -1.47314516E-08
 -2.09490345E-03  2.12494682E-03  8.00293511E-05  1.14660268E-03 -8.95006409E-11
  2.22583932E-10  1.37700664E-02 -3.68572104E-02  2.92961974E-02  3.95028138E-02
  4.84025478E-09 -2.24858008E-02  3.19104270E-02 -1.10442045E-02 -2.43507413E-09
 -3.64675842E-03  1.01054281E-02 -3.83604395E-04  6.66277411E-03 -1.16503905E-09
  5.89929769E-10 -7.98848951E-02  1.65001252E-01 -2.62892108E-03 -3.18259039E-01
  1.87632203E-08  1.32147275E-01 -2.31554696E-02 -9.06859124E-02  9.15778661E-09
 -1.22382254E-02  5.81396651E-03 -6.25819486E-03 -1.07805904E-03 -5.98626338E-11
 -5.31414983E-10  1.97715348E-04  3.02898000E-03  7.01822132E-04  4.21322460E-01
 -5.57189693E-10  9.09994606E-10 -6.04947194E-09 -7.54367242E-09 -1.69036920E-02
  1.30076985E-08 -9.00568934E-09  4.21025398E-09 -2.57311168E-02  6.15219732E-10
 -4.67194867E-10  4.74366965E-11  9.51035048E-11 -7.77565810E-03 -8.31178559E-03
 -9.34675554E-10  1.49564521E-09  9.37068336E-09  1.67396500E-08 -1.32414793E-01
 -4.88613322E-09  1.67688116E-08  1.91664714E-08 -1.08624700E-01  3.85374925E-11
 -2.39156978E-10 -2.39511516E-10  6.05716556E-10 -7.81034197E-04 -4.50911131E-04
 -2.21518423E-10 -1.64922183E-09 -4.25788239E-09 -2.49006254E-09 -1.69034528E-02
  1.24823644E-08 -1.06078081E-09 -8.50237996E-09 -2.57309936E-02  1.44356043E-09
 -1.30464097E-09 -6.99043221E-10  4.27398299E-10 -1.10860435E-02 -2.57804289E-03
  3.83868319E-09 -6.15514004E-09 -2.35807771E-09  2.30074266E-08  2.14119357E-01
 -2.74295590E-08 -1.36584777E-08  2.03718033E-08  1.40056112E-01  4.49261737E-10
 -1.04869512E-09  1.19157083E-09 -2.49928060E-10 -4.07194697E-04 -1.25659871E-02
 -5.93072092E-10 -1.64845256E-10 -2.37500554E-09 -7.44918421E-09  3.29630550E-01
 -5.95574234E-03 -7.67714931E-03  4.64077510E-02 -3.54091439E-02 -1.94123897E-08
  8.13497255E-03  1.38741902E-02  6.78971690E-04 -1.14052512E-08  5.42420349E-03
 -4.14540075E-03 -2.94185247E-05 -2.10108139E-03  2.35000729E-10  1.46057319E-10
  2.74960444E-02 -3.97462408E-02  4.83308910E-02  2.79043493E-02 -4.88613322E-09
 -6.45318919E-02  2.16027643E-02  1.24724904E-02 -4.93491248E-09  7.14752311E-04
  1.05157737E-03  1.37051042E-03 -3.36842974E-04 -1.50146616E-10  8.58313026E-10
 -5.95584623E-03 -7.67696434E-03 -7.46074510E-03  5.78945281E-02  1.14499678E-08
  8.13518813E-03  7.52529200E-03  1.16756313E-02  4.65749321E-09 -3.32881960E-03
  4.60761235E-03 -2.94418968E-05  3.73424281E-03 -7.41747037E-10  5.76606796E-10
  3.68303016E-03  2.52420798E-02  3.34696024E-02 -1.32147844E-01  1.79033366E-08
 -5.44216519E-03  1.67050606E-02 -2.47646421E-02  9.15892952E-09 -7.98299850E-03
  1.06250237E-02 -2.27950034E-03  2.91698467E-03 -1.26775836E-10 -3.87917998E-10
 -1.67190619E-01  2.56278029E-01 -8.39140201E-03 -4.84464439E-03  1.17270066E-08
  2.26373382E-01 -9.66614858E-04 -9.37434107E-03  1.81224810E-02 -1.86067884E-02
 -2.14676541E-08 -1.38742028E-02  6.18427817E-03  3.07500301E-03 -1.51625971E-08
  3.90016643E-03 -1.98099219E-03 -1.63785407E-04 -1.17288601E-03 -3.31550831E-10
 -5.66191911E-10  1.15768517E-02 -1.58365023E-02  4.08944620E-03  1.79283367E-02
 -1.67688116E-08 -2.16027643E-02 -5.87690285E-04  5.08885985E-03 -1.37047069E-08
  1.65730156E-03 -1.02796213E-03  3.21950193E-04 -1.87222983E-04 -3.70676485E-10
  7.57288481E-10 -8.25043253E-03  7.94839040E-03 -1.82777373E-02 -1.93807036E-02
  5.99001622E-09 -6.34893757E-03  3.35886757E-03 -1.44365115E-03  5.25920081E-09
  6.30574392E-04 -1.09939593E-03 -3.46623735E-04  1.42293568E-03 -1.48892488E-09
 -4.65116122E-10  2.74472635E-03  5.79722102E-03  3.27666278E-02  2.31551591E-02
  3.08850284E-08  1.67050609E-02  1.71390019E-02  9.53948417E-03  2.21620098E-08
  8.50305720E-04 -1.37592236E-03 -4.07766562E-04 -3.01020377E-03  3.78277932E-10
 -7.09317941E-10  3.58544855E-03 -2.36585028E-02  1.23773488E-01 -3.73221914E-03
  2.16547706E-08 -1.81639351E-02  4.19009951E-02 -8.96863728E-03  1.45901614E-02
 -4.03964255E-02  3.65393653E-03 -1.24179402E-08  6.79167887E-04 -3.07512199E-03
  2.41695762E-03 -1.06204103E-08 -1.78951893E-03  1.40178700E-04 -3.05678125E-04
  2.49748540E-03 -2.88965264E-10 -9.91352085E-10  6.68389483E-03 -9.14323425E-03
  1.79282614E-02 -1.66120418E-02 -1.91664714E-08 -1.24724904E-02  5.08885985E-03
 -6.46369139E-03 -1.52569002E-08 -1.53080049E-03  1.89413404E-03  1.85869938E-04
  1.55033736E-03 -1.39926949E-10  5.55768280E-10  3.64720950E-03 -1.54135393E-02
  2.40910699E-03  4.00544260E-02  4.71117347E-09 -1.23548819E-02  4.70630258E-03
  5.24216497E-03 -1.74955785E-10 -1.96953520E-03  4.45624522E-03  1.09822805E-05
  1.89679443E-03 -1.40981230E-09  3.79986106E-10 -1.08931106E-02  3.79185281E-02
 -8.29826715E-03 -9.06861559E-02  2.33762587E-08  2.47644129E-02 -9.53964458E-03
 -2.37548410E-02  1.52229472E-08 -4.19949389E-03  2.02128061E-03 -1.34822202E-03
 -7.35158798E-06 -3.91719393E-11 -7.49937743E-10  2.07008181E-03 -1.36593482E-02
 -3.73280969E-03  1.28083742E-01  1.67946060E-08 -1.04869405E-02 -2.67253597E-03
  4.49871970E-02  1.05033066E-09 -2.07161122E-09  6.01079206E-10 -4.49971520E-09
 -2.57311660E-02  6.38484738E-09 -4.94070743E-09  5.18395523E-09 -2.63494871E-02
  7.00835753E-10 -3.07048786E-10  1.43612396E-11 -6.95355237E-11 -5.07183654E-03
 -6.25811820E-03 -1.28889877E-09  1.74421675E-09  8.64989791E-09  1.47314516E-08
 -1.08624700E-01 -4.93491248E-09  1.37047069E-08  1.52569002E-08 -8.58359079E-02
 -5.57839488E-11 -1.99347277E-10 -1.66881401E-10  2.92276638E-10 -5.23266911E-05
 -3.02025695E-05  1.50037291E-09 -3.95441741E-09  2.10017242E-09  1.26297087E-09
 -2.57311693E-02  5.32610702E-09  2.84899555E-09 -5.15360087E-09 -2.63495333E-02
  1.03310570E-09 -7.16665872E-10 -4.33339162E-10  4.13073248E-10 -7.95560082E-03
 -1.26328674E-03  1.07757825E-10 -2.41566298E-10 -4.71563994E-09  6.33744517E-09
  1.40056156E-01 -1.33641463E-08 -9.61981443E-09  1.14649957E-08  9.26231467E-02
 -8.88652057E-12 -4.84733394E-10  6.07818529E-10 -8.47182889E-10 -8.00373105E-04
 -8.72425874E-03  8.84682301E-11 -9.00012529E-11  1.38129991E-08  6.91702067E-09
  2.22949743E-01  7.46697429E-09  1.93134218E-08  1.49486969E-08  1.52109596E-01
 -1.98542654E-03  4.37065346E-03 -1.08635988E-02 -4.51279981E-03  4.71252353E-10
  5.42420677E-03 -3.90017484E-03 -1.78952859E-03  1.76394324E-10  2.61629269E-04
 -3.64879621E-04 -1.93606875E-04  3.26622794E-04 -1.45160431E-11 -2.96601587E-12
  8.97695556E-05 -4.54750748E-04 -1.01906280E-03  2.09490345E-03  3.85374925E-11
  7.14752311E-04 -1.65730156E-03  1.53080049E-03 -5.57839488E-11  1.13396175E-04
  5.86549045E-05 -2.46258072E-05  3.32040287E-04  4.09338340E-11 -2.91044179E-11
 -2.47459912E-04  9.76012635E-04 -1.41361331E-03 -8.92295456E-04 -9.37589764E-10
 -1.77164931E-04 -2.10303435E-03  7.88156490E-04 -5.91001635E-10  1.23059935E-04
 -3.91630921E-04  2.43476719E-05 -2.53680118E-04  1.52381272E-12 -2.59577991E-11
  3.14283936E-03 -7.51272926E-03  1.32281498E-04  1.22382272E-02 -1.19392168E-11
 -7.98299282E-03  8.50313755E-04  4.19949347E-03  5.96699036E-11  4.50852064E-04
 -1.20486443E-04  2.72518594E-04  2.06577039E-04 -3.86794223E-11 -7.68846593E-11
 -1.96163442E-02  1.18448113E-03 -4.69140232E-03 -1.73471673E-02  2.58709113E-09
  2.90905318E-03 -1.22396425E-03 -4.16354147E-03  9.87875203E-10  1.37129899E-03
  1.20525374E-03 -2.25240651E-03  4.68039911E-03  2.30485276E-03 -1.17908165E-09
 -4.14540164E-03  1.98099415E-03  1.40180576E-04 -8.80179259E-10 -3.64881681E-04
  4.00577213E-04  1.06377938E-04  3.27504097E-05  2.62299260E-11 -8.63759865E-12
 -1.60288308E-04  4.18606111E-04  9.66918352E-04 -2.12494682E-03 -2.39156978E-10
  1.05157737E-03  1.02796213E-03 -1.89413404E-03 -1.99347277E-10  5.86549045E-05
 -1.32918732E-04 -1.02304099E-06 -8.57312928E-05 -3.67923659E-11  6.77766215E-11
 -5.32728391E-04  1.14226955E-03 -3.59006242E-03 -3.35859165E-03  1.05713864E-09
  1.45599235E-03 -2.84902620E-04 -1.62553892E-03  8.88534657E-10  1.47430436E-04
  5.35790754E-05 -1.11577093E-04  3.63892037E-04 -3.69156470E-11 -2.20002109E-11
 -6.78437033E-03  1.20613776E-02  8.03148085E-04 -5.81400632E-03  1.34151538E-09
  1.06250241E-02 -1.37593798E-03 -2.02129901E-03  8.52520089E-10 -1.20487899E-04
 -8.36471740E-05 -4.76273761E-04 -6.58503905E-06  5.78837087E-11  2.87920104E-11
 -1.74405602E-02 -2.49129120E-03 -2.59726032E-03  1.31390661E-02 -8.58837516E-10
 -2.58504797E-03 -4.51103097E-04  3.19644258E-03 -2.88605357E-10 -6.32130321E-04
  1.05300502E-03  1.39243437E-04  4.09741791E-05  4.01157634E-04  7.22987710E-05
  3.90190726E-10 -2.94146436E-05  1.63784142E-04 -3.05678633E-04  2.61073777E-10
 -1.93606657E-04  1.06377635E-04  4.19803399E-05  9.37820783E-06 -1.08114416E-11
 -2.15855881E-11 -4.37344839E-04  5.15276008E-04 -1.38627952E-04 -8.00293511E-05
 -2.39511516E-10  1.37051042E-03 -3.21950193E-04 -1.85869938E-04 -1.66881401E-10
 -2.46258072E-05 -1.02304099E-06  2.30094650E-08 -2.36018065E-05  2.38214351E-11
 -2.47101424E-11  1.39250697E-04  4.09606623E-05  2.63217401E-04  3.11285257E-04
 -6.88722592E-10 -2.94328435E-05 -1.82827796E-04  2.94690330E-04 -4.27453757E-10
  3.84171306E-05 -1.25640488E-04  4.19816889E-05 -1.45304163E-04  1.11445001E-11
  1.13667059E-11  1.89569189E-03 -4.34644388E-03 -7.97150411E-04  6.25819972E-03
 -7.52868511E-10 -2.27950805E-03 -4.07771648E-04  1.34822757E-03 -3.69617559E-10
  2.72518670E-04 -4.76274238E-04  2.88732593E-04 -3.01447448E-05 -1.60271872E-11
  1.78457479E-11 -1.12893563E-02 -1.60151423E-02  5.85955242E-04  3.38276852E-04
 -3.65693684E-10 -1.13342313E-02  1.26430084E-03  7.29941832E-04 -1.51410428E-10
 -1.06515893E-05  2.21384368E-04  9.16395693E-04 -8.73367649E-04  2.09681698E-03
 -3.03188006E-03 -1.83805041E-03  8.64608301E-10  2.10108259E-03 -1.17289393E-03
 -2.49748592E-03  5.89270445E-10 -3.26619607E-04 -3.27522480E-05 -9.37868064E-06
  3.23760663E-05  1.85566598E-11  2.46072016E-11  2.50052717E-04 -8.73340931E-04
  1.11232197E-03 -1.14660268E-03  6.05716556E-10 -3.36842974E-04  1.87222983E-04
 -1.55033736E-03  2.92276638E-10  3.32040287E-04 -8.57312928E-05 -2.36018065E-05
  2.32898023E-04  5.60089678E-11 -4.34686832E-11 -2.03203502E-03  4.35996647E-03
 -8.39198320E-03 -5.87969178E-03 -1.15806866E-09  5.83536032E-03 -3.68052669E-03
 -1.94769360E-03 -6.70541575E-10 -1.39502584E-04 -1.09668835E-04 -1.54681855E-04
  3.56085204E-04  4.20922666E-11 -7.23438359E-12  1.68610991E-04  1.36942363E-04
  1.35977871E-02 -1.07806401E-03  1.74148769E-11 -2.91699482E-03  3.01021158E-03
 -7.34347136E-06 -4.69981680E-10 -2.06579236E-04  6.58845760E-06  3.01453560E-05
  1.22757761E-03 -7.87207180E-11 -3.29436418E-11 -2.17574472E-03  3.67568372E-03
 -1.89973174E-02 -1.20907257E-03  1.58548752E-09  5.49404896E-03 -4.76449029E-03
 -4.46191347E-04  1.93379138E-10  4.10428926E-04 -9.21361189E-05 -2.32036072E-04
  1.56456147E-03  1.69064175E-10 -3.54837029E-10  1.06535706E-09  3.71529017E-10
  7.77566582E-03 -1.36200440E-09  1.05755302E-09  2.16113064E-10  5.07184459E-03
  3.66271861E-11 -2.26282945E-11  3.72443939E-11 -5.90688076E-11 -3.47389730E-04
 -1.65062686E-04  1.71148405E-11 -9.57131272E-11 -2.50462092E-10 -8.95006409E-11
  7.81034197E-04  1.50146616E-10 -3.70676485E-10 -1.39926949E-10  5.23266911E-05
 -4.09338340E-11  3.67923659E-11 -2.38214351E-11 -5.60089678E-11  7.61604722E-05
 -3.65551372E-04  1.14994990E-10 -2.34514969E-10  9.08230609E-10  6.27351629E-10
 -3.31040238E-03 -8.57813643E-10  7.35265405E-10  7.81919782E-10 -2.88378094E-03
 -1.38053000E-11  3.88942099E-11 -4.38238266E-12  2.59195831E-12  3.80128893E-05
 -5.74492561E-05 -1.76016545E-10  3.51760635E-10 -6.98724375E-10 -4.45792577E-10
 -4.07198669E-04  1.21699764E-09  1.90035295E-10 -2.59952069E-10 -8.00378778E-04
  1.11471857E-11 -4.66456671E-11 -4.53626513E-12 -1.88713701E-10 -7.20856323E-05
 -3.24010223E-04  1.20976216E-09 -2.47698385E-09  4.57563801E-09  2.58480691E-09
  6.58743642E-03 -2.70092200E-09  1.32933227E-09  8.62171287E-10  4.21914093E-03
 -1.58603911E-10  5.04305355E-11  1.46473035E-10 -2.47855034E-10  3.51464839E-04
  1.04245654E-11 -1.43778016E-10 -3.47222277E-10 -2.84880038E-11 -8.31179034E-03
  8.63385473E-10 -1.04861436E-09  5.61185075E-10 -6.25812459E-03  4.18608754E-11
  2.16872283E-11 -2.93904313E-11  1.32137758E-11  1.65061609E-04  1.66478695E-04
 -3.27746315E-11  1.95103452E-10 -1.56091687E-10  2.22583932E-10  4.50911131E-04
 -8.58313026E-10  7.57288481E-10  5.55768280E-10  3.02025695E-05  2.91044179E-11
 -6.77766215E-11  2.47101424E-11  4.34686832E-11 -3.65551372E-04  4.98261214E-04
  1.30546812E-10 -3.78911135E-10 -2.04701521E-10 -1.03717622E-09  1.08898018E-02
  3.32287335E-10 -1.25109621E-10 -1.79730346E-09  7.52139583E-03  5.89306839E-11
 -3.96705412E-12 -1.57158430E-11 -4.01508646E-13 -3.87574998E-04 -2.18924376E-04
  1.89044411E-10 -1.66253679E-10 -1.97530239E-10  6.90422844E-10  1.25659887E-02
 -1.21069931E-09 -1.11482119E-09  7.56365517E-10  8.72426339E-03  2.15958646E-11
 -1.17533012E-10  6.54115491E-11 -1.08359971E-10  3.24008946E-04  7.47100361E-05
  8.99266386E-10 -2.08940691E-09  2.13646257E-09  6.87954905E-10  3.80328919E-03
 -7.00340460E-10  1.78005022E-09  8.59735630E-10  2.43593727E-03 -5.29294595E-11
  6.09203403E-11  5.59740564E-11 -1.29939280E-10 -2.06603880E-04  5.90029847E-04
  1.70543546E-02 -3.43366730E-02  6.94963963E-02  3.93983679E-02  1.11570752E-09
  3.68290185E-03  8.06127813E-03  7.82361395E-03  2.61707507E-09 -4.17610571E-03
  5.34581594E-04  1.89567497E-03 -5.04791635E-03  1.36512844E-10  2.38668286E-10
 -3.19555618E-03  8.63880960E-03 -5.69116840E-03 -1.37700664E-02 -2.21518423E-10
 -5.95584623E-03  8.25043253E-03 -3.64720950E-03  1.50037291E-09 -2.47459912E-04
 -5.32728391E-04  1.39250697E-04 -2.03203502E-03 -1.14994990E-10 -1.30546812E-10
 -3.63263859E-03  6.18824233E-03 -1.12548595E-10 -8.48996793E-03 -8.87583149E-10
  2.74961384E-02  6.72268524E-09 -1.33678378E-02 -1.24965460E-09 -2.85306752E-04
  2.14807005E-04 -4.37342431E-04 -5.70283467E-10  3.76437504E-11  3.16923193E-12
 -3.19555240E-03  8.63881575E-03  5.69117410E-03 -1.37700456E-02 -5.12542995E-10
 -5.95590499E-03 -8.25043819E-03 -3.64716372E-03 -1.30384229E-09 -2.47461820E-04
 -5.32731298E-04  1.39254005E-04  2.03203801E-03 -7.92077956E-11 -3.30754290E-11
  1.70543549E-02 -3.43366702E-02 -6.94964452E-02  3.93983018E-02  1.35892469E-09
  3.68309378E-03 -8.06120266E-03  7.82366500E-03  5.29551376E-11 -4.17611940E-03
  5.34594163E-04  1.89567732E-03  5.04791228E-03 -1.35592315E-10 -9.42563996E-11
  2.05265529E+00 -3.43366816E-02  5.98805222E-02 -1.41340394E-01 -8.51939382E-02
 -5.22653229E-09  2.52424427E-02 -3.57369457E-02 -1.39388823E-02 -6.72665839E-09
  7.27055638E-03 -2.72191298E-03 -4.34641431E-03  9.71860456E-03 -2.52886038E-10
 -4.96326872E-10  8.63880577E-03 -2.03055048E-02  1.33191615E-02  3.68572104E-02
 -1.64922183E-09 -7.67696434E-03 -7.94839040E-03  1.54135393E-02 -3.95441741E-09
  9.76012635E-04  1.14226955E-03  4.09606623E-05  4.35996647E-03  2.34514969E-10
  3.78911135E-10  6.18824233E-03 -1.28719719E-02  3.77248892E-08  1.83145442E-02
  1.32030519E-09 -3.97464659E-02  5.29326323E-11  1.82865408E-02  1.61009693E-09
  8.55261679E-04 -8.91436262E-04  5.15271726E-04  8.18124823E-10 -2.21644286E-10
 -1.58109110E-11  8.63880751E-03 -2.03055454E-02 -1.33192279E-02  3.68571438E-02
  2.79832869E-09 -7.67688847E-03  7.94841102E-03  1.54134297E-02  4.03756302E-09
  9.76018569E-04  1.14227575E-03  4.09549171E-05 -4.35997687E-03  1.32847201E-10
 -3.19734821E-11 -3.43366773E-02  5.98804852E-02  1.41340456E-01 -8.51937803E-02
 -4.18762204E-10  2.52420634E-02  3.57367945E-02 -1.39389292E-02  6.83229132E-10
  7.27058857E-03 -2.72193924E-03 -4.34641740E-03 -9.71859791E-03  3.33010537E-10
  3.55569115E-10 -6.34914894E-02  3.29733571E-01 -6.88680648E-02  1.44449877E-01
 -2.34834053E-01 -1.47125211E-01  1.04826223E-08  9.77090347E-02 -5.33897803E-02
 -7.28975282E-02  2.63732215E-09 -3.58999861E-03 -2.44121952E-03 -5.02118196E-03
  1.05817273E-02 -4.57869377E-11 -4.54098736E-10  9.07965370E-03 -2.52596687E-02
  1.74005539E-02  2.92961974E-02  4.25788239E-09  7.46074510E-03 -1.82777373E-02
  2.40910699E-03 -2.10017242E-09  1.41361331E-03  3.59006242E-03 -2.63217401E-04
  8.39198320E-03  9.08230609E-10 -2.04701521E-10  1.12548595E-10 -3.77248892E-08
 -3.54033444E-02  1.69247345E-08 -9.88298848E-09  2.26824798E-07 -2.69631684E-02
 -3.72950036E-07 -8.48825189E-09 -6.53726057E-09  1.15168791E-08 -3.68663656E-09
  3.09833171E-03  2.19349283E-10  1.78484965E-10 -9.07963431E-03  2.52596892E-02
  1.74005013E-02 -2.92962049E-02 -1.27210482E-09 -7.46150334E-03 -1.82781249E-02
 -2.40879533E-03 -2.95758092E-09 -1.41361561E-03 -3.59008833E-03  2.63227625E-04
  8.39199115E-03 -7.63284431E-10 -4.19759464E-10  6.88681826E-02 -1.44450151E-01
 -2.34834438E-01  1.47125167E-01  8.97051194E-09 -9.77083563E-02 -5.33893716E-02
  7.28979765E-02 -5.21991504E-10  3.58997977E-03  2.44128617E-03  5.02118892E-03
  1.05817229E-02 -7.78662919E-10 -2.50514968E-10  2.47653959E-08 -2.05242490E-08
  4.20917047E-01 -4.04865151E-02  7.98074300E-02 -1.41866640E-01 -6.79852524E-02
  1.88674577E-08  9.50594691E-02 -4.14439580E-02 -4.53008598E-03  1.33608893E-08
  1.04371027E-02 -1.28390564E-02 -3.81940249E-03 -1.35388649E-03 -7.70554068E-10
  1.57920829E-10  1.18137259E-02 -2.99633547E-02  8.98618184E-03  3.95028138E-02
  2.49006254E-09 -5.78945281E-02 -1.93807036E-02  4.00544260E-02 -1.26297087E-09
  8.92295456E-04  3.35859165E-03 -3.11285257E-04  5.87969178E-03  6.27351629E-10
 -1.03717622E-09  8.48996793E-03 -1.83145442E-02  1.69247345E-08  2.57304410E-02
 -1.62735973E-08 -5.58082304E-02  5.40394224E-08  1.44406182E-02 -1.46365559E-08
  4.20070225E-04 -3.59980594E-04  1.60061042E-04 -3.58875066E-09  1.10599478E-10
 -2.36233336E-10  1.18137488E-02 -2.99634488E-02 -8.98619796E-03  3.95028501E-02
 -2.57563987E-09 -5.78947292E-02  1.93808922E-02  4.00545425E-02 -1.56301199E-09
  8.92310933E-04  3.35859652E-03 -3.11292444E-04 -5.87971784E-03 -3.72680308E-10
 -1.52153538E-09 -4.04865449E-02  7.98075374E-02  1.41866726E-01 -6.79852126E-02
  2.53556517E-08  9.50593166E-02  4.14437682E-02 -4.52998711E-03  1.88527228E-08
  1.04370964E-02 -1.28390977E-02 -3.81939335E-03  1.35395560E-03  2.70211018E-10
  1.82815032E-13  3.95402056E-04  6.05845408E-03 -1.12286873E-07  4.22538326E-01
  3.84576446E-09 -6.28126748E-09  2.11666535E-08  9.35557267E-09  2.14119078E-01
 -2.63429800E-08  2.36711018E-08 -1.24616760E-09  1.40056220E-01 -4.74287216E-10
 -1.04713093E-10  1.17684772E-09 -8.73851389E-10 -1.06788473E-02 -6.63560999E-03
 -2.26899337E-10 -1.55329233E-09 -5.60149146E-11 -4.84025478E-09 -1.69034528E-02
  1.14499678E-08 -5.99001622E-09 -4.71117347E-09 -2.57311693E-02 -9.37589764E-10
  1.05713864E-09 -6.88722592E-10 -1.15806866E-09  3.31040238E-03 -1.08898018E-02
 -8.87583149E-10  1.32030519E-09  9.88298848E-09  1.62735973E-08 -1.32414867E-01
 -4.03182520E-09  8.28711571E-09  2.29666029E-08 -1.08624783E-01 -6.08494371E-10
  4.29107760E-10 -2.42266152E-10  1.66060899E-10 -6.79000042E-09 -9.01856493E-04
 -5.75198717E-10  1.04913376E-09 -3.50687630E-09 -9.00696175E-09 -1.69034489E-02
  1.19639885E-08  7.37053154E-09 -5.24844852E-09 -2.57312457E-02 -2.64617852E-10
  3.95994504E-10  5.97061559E-11 -5.16643884E-10 -3.31038525E-03 -1.08898108E-02
  1.40829761E-09 -6.30996870E-10  1.77819058E-08  2.04808850E-08  2.14119175E-01
 -1.59477114E-08  2.07229072E-09  8.10083657E-09  1.40056192E-01 -3.04021798E-10
  1.90200450E-12  6.21704180E-10 -2.67707707E-10  1.06788717E-02 -6.63560221E-03
 -6.10052683E-10 -1.80608853E-11 -5.34642253E-09 -5.65643912E-09  3.29630553E-01
  3.68293460E-03  2.52423582E-02 -1.31177837E-01 -3.70886652E-02  1.79776759E-08
 -5.44187515E-03 -2.97990426E-02  2.08443261E-03  9.22963972E-09  3.78525494E-03
 -1.14325064E-03 -2.27947457E-03  1.07625340E-02 -2.43052985E-10 -2.48695297E-10
 -5.95573983E-03 -7.67719830E-03  5.38691846E-02  2.24858008E-02  1.24823644E-08
  8.13518813E-03  6.34893757E-03  1.23548819E-02  5.32610702E-09 -1.77164931E-04
  1.45599235E-03 -2.94328435E-05  5.83536032E-03  8.57813643E-10 -3.32287335E-10
  2.74961384E-02 -3.97464659E-02 -2.26824798E-07  5.58082304E-02 -4.03182520E-09
 -6.45321429E-02 -1.28856864E-07  2.49447945E-02 -4.29531567E-09  1.21999850E-03
  5.46368937E-04  1.37051253E-03  9.81550760E-09  8.50891970E-10  2.78408548E-10
 -5.95578749E-03 -7.67711742E-03 -5.38690661E-02  2.24861131E-02 -1.94249419E-08
  8.13522845E-03 -6.34894204E-03  1.23549135E-02 -1.14135546E-08 -1.77150386E-04
  1.45598159E-03 -2.94411843E-05 -5.83536660E-03  3.77226764E-11  3.27230993E-10
  3.68299001E-03  2.52422390E-02  1.31177833E-01 -3.70888065E-02 -1.69611053E-08
 -5.44225898E-03  2.97989560E-02  2.08432095E-03 -9.29598364E-09  3.78529358E-03
 -1.14327107E-03 -2.27947839E-03 -1.07625230E-02  1.19733363E-09 -3.83482428E-10
 -1.67190675E-01  2.56278305E-01 -5.46447709E-08 -9.68954144E-03  1.07143046E-08
  2.26373569E-01 -1.08060541E-02  2.99397411E-02 -6.62559543E-02 -6.54690456E-02
  4.72692865E-09  1.30944156E-02 -1.35313870E-02 -2.72470200E-02  2.04444320E-09
 -3.10724865E-04 -1.31282547E-03 -9.63710381E-04  3.99959838E-03 -1.43951171E-10
 -3.42223954E-10  7.28376460E-03 -1.73226199E-02  3.28203912E-02  3.19104270E-02
  1.06078081E-09 -7.52529200E-03  3.35886757E-03  4.70630258E-03 -2.84899555E-09
  2.10303435E-03  2.84902620E-04  1.82827796E-04  3.68052669E-03  7.35265405E-10
 -1.25109621E-10 -6.72268524E-09 -5.29326323E-11 -2.69631684E-02  5.40394224E-08
 -8.28711571E-09  1.28856864E-07 -9.40185134E-03 -1.26995838E-07 -6.41542218E-09
 -1.18977744E-08  1.57179663E-08 -1.78130267E-09  2.87248480E-03  5.64125405E-11
  1.07844638E-10 -7.28379488E-03  1.73227104E-02  3.28204529E-02 -3.19107406E-02
  5.43861575E-13  7.52511965E-03  3.35873057E-03 -4.70632017E-03 -1.60210682E-09
 -2.10305108E-03 -2.84901587E-04 -1.82826184E-04  3.68054009E-03 -4.59488161E-10
 -3.66874992E-10  1.08060930E-02 -2.99398316E-02 -6.62561889E-02  6.54693654E-02
  6.11277644E-09 -1.30942611E-02 -1.35313144E-02  2.72472696E-02  2.87814223E-09
  3.10697874E-04  1.31286735E-03  9.63712170E-04  3.99959440E-03 -9.29029656E-11
 -2.37302172E-10 -1.78982301E-09  2.46617405E-08  1.30238493E-01 -3.06184355E-07
  3.73601188E-09  1.30063557E-08  4.65300913E-02 -3.06939114E-03  2.39795414E-02
 -3.40147316E-02  8.33718668E-03  3.81136030E-08  2.68489386E-02 -8.16769546E-03
  6.91557122E-03  2.65813317E-08  1.48137018E-03 -3.02566127E-03 -1.02722347E-03
 -7.14065774E-04 -9.69352299E-10 -1.69909936E-10 -5.32147790E-03 -8.23269834E-04
  1.01212446E-02 -1.10442045E-02  8.50237996E-09 -1.16756313E-02 -1.44365115E-03
  5.24216497E-03  5.15360087E-09 -7.88156490E-04  1.62553892E-03 -2.94690330E-04
  1.94769360E-03  7.81919782E-10 -1.79730346E-09  1.33678378E-02 -1.82865408E-02
 -3.72950036E-07  1.44406182E-02 -2.29666029E-08 -2.49447945E-02 -1.26995838E-07
  2.35039999E-03 -1.86374126E-08 -2.49699569E-04  9.76370415E-04  3.71751407E-04
  4.78550938E-09  1.03288175E-09  1.15205568E-10 -5.32147891E-03 -8.23241585E-04
 -1.01208245E-02 -1.10436535E-02 -2.47380293E-08 -1.16756927E-02  1.44382409E-03
  5.24239021E-03 -1.83861795E-08 -7.88147970E-04  1.62553305E-03 -2.94694073E-04
 -1.94769222E-03 -6.02973145E-10 -7.99860057E-10 -3.06946132E-03  2.39796630E-02
  3.40150132E-02  8.33661397E-03  4.63185512E-09  2.68490109E-02  8.16775164E-03
  6.91540216E-03  3.72125964E-09  1.48137460E-03 -3.02567604E-03 -1.02722582E-03
  7.14086898E-04  1.07685388E-09 -1.37575737E-09  4.14019633E-03 -2.73186620E-02
 -3.69262375E-07  1.21617499E-01  2.59382374E-08 -2.09740125E-02 -1.83434627E-07
  4.03574778E-02  1.40485120E-10 -3.79135499E-10  7.97213252E-09 -8.82103086E-10
  1.40056242E-01 -1.26679747E-08  1.41921851E-08 -2.29269186E-09  9.26234193E-02
  2.68136151E-10 -7.44508895E-10  5.98978716E-10 -6.58569357E-10 -7.15523581E-03
 -5.05525398E-03  1.46722252E-09 -3.82463241E-09 -2.89993758E-12  2.43507413E-09
 -2.57309936E-02  4.65749321E-09 -5.25920081E-09  1.74955785E-10 -2.63495333E-02
 -5.91001635E-10  8.88534657E-10 -4.27453757E-10 -6.70541575E-10  2.88378094E-03
 -7.52139583E-03 -1.24965460E-09  1.61009693E-09  8.48825189E-09  1.46365559E-08
 -1.08624783E-01 -4.29531567E-09  6.41542218E-09  1.86374126E-08 -8.58360094E-02
 -3.71661743E-10  1.32904857E-10 -1.68483329E-10  7.55121689E-11 -2.20765270E-09
 -6.04194863E-05  1.01271808E-09 -1.92121724E-09 -4.17543001E-09 -1.80178118E-09
 -2.57311262E-02  5.70878628E-09  6.38614194E-09 -1.41767842E-09 -2.63496866E-02
 -2.02831974E-12  3.79183896E-10  2.21988068E-11 -5.52490187E-10 -2.88376766E-03
 -7.52139724E-03  1.25220039E-10  4.70804234E-10  1.67418055E-08  9.10599311E-09
  1.40056163E-01 -8.66971357E-09  2.55280566E-09  4.71948541E-09  9.26232941E-02
  3.57207676E-10 -6.79950553E-10  4.29487646E-10 -1.36637058E-10  7.15525327E-03
 -5.05525327E-03  5.64710700E-11  5.86031333E-11 -9.77170722E-10  1.51404910E-08
  2.22949932E-01  6.79800036E-09  3.30034481E-09  2.32371604E-08  1.52109843E-01
 -4.42899261E-03  7.06508456E-03  4.35508123E-03 -8.52788766E-03  9.83863393E-10
  8.16073121E-03  1.13965019E-03 -2.89506660E-03  1.00145695E-09  6.26458901E-04
 -5.46972276E-04 -3.11680922E-04 -5.74525510E-04 -2.24305642E-11  9.45045018E-11
  1.06261978E-03 -2.16927443E-03 -1.79676800E-04  3.64675842E-03  1.44356043E-09
 -3.32881960E-03 -6.30574392E-04  1.96953520E-03  1.03310570E-09  1.23059935E-04
  1.47430436E-04  3.84171306E-05 -1.39502584E-04  1.38053000E-11 -5.89306839E-11
 -2.85306752E-04  8.55261679E-04  6.53726057E-09 -4.20070225E-04 -6.08494371E-10
  1.21999850E-03  1.18977744E-08  2.49699569E-04 -3.71661743E-10  5.72545203E-05
 -2.54669779E-04  1.07788463E-05 -3.99247936E-10  9.67105247E-11 -1.30211613E-11
  1.06262410E-03 -2.16928489E-03  1.79667059E-04  3.64676641E-03 -1.42977816E-09
 -3.32881731E-03  6.30587876E-04  1.96954275E-03 -1.06969973E-09  1.23060386E-04
  1.47432086E-04  3.84168760E-05  1.39499424E-04 -2.29602586E-11 -9.78251520E-12
 -4.42901339E-03  7.06513524E-03 -4.35500028E-03 -8.52793109E-03  1.10804005E-10
  8.16076366E-03 -1.13963820E-03 -2.89508345E-03 -3.39401493E-10  6.26456588E-04
 -5.46973750E-04 -3.11681975E-04  5.74524440E-04 -1.65777451E-10 -1.07155700E-10
 -1.63527083E-02 -4.32912460E-03 -6.65810607E-08  1.28485796E-02 -1.18913831E-09
 -5.33204154E-03 -3.31019173E-08  3.38215198E-03 -1.31508623E-10  1.27077965E-03
  7.87562710E-04 -2.51662858E-03  7.41052855E-04  1.25500722E-02  3.48098616E-10
 -5.51884909E-03  1.00961705E-03  3.52894126E-03 -8.66867464E-11 -8.46969848E-04
  8.93710502E-04  1.07935532E-04  4.07267333E-04 -2.78720230E-11 -1.00462665E-10
 -1.84276167E-03  4.28746856E-03 -9.99721910E-04 -1.01054281E-02 -1.30464097E-09
  4.60761235E-03  1.09939593E-03 -4.45624522E-03 -7.16665872E-10 -3.91630921E-04
  5.35790754E-05 -1.25640488E-04 -1.09668835E-04 -3.88942099E-11  3.96705412E-12
  2.14807005E-04 -8.91436262E-04 -1.15168791E-08  3.59980594E-04  4.29107760E-10
  5.46368937E-04 -1.57179663E-08 -9.76370415E-04  1.32904857E-10 -2.54669779E-04
  5.49865915E-04 -3.64239941E-05  3.13685551E-10 -6.47246521E-11  3.53003338E-11
 -1.84276765E-03  4.28748584E-03  9.99744232E-04 -1.01054309E-02  7.24636078E-10
  4.60762302E-03 -1.09940697E-03 -4.45625583E-03  3.68168652E-10 -3.91631829E-04
  5.35776749E-05 -1.25640359E-04  1.09671438E-04  7.76597055E-12  1.52220517E-11
  7.87576581E-04 -2.51666037E-03 -7.41097958E-04  1.25500953E-02 -4.30991411E-10
 -5.51886107E-03 -1.00961504E-03  3.52894156E-03  1.96151179E-12 -8.46968484E-04
  8.93713025E-04  1.07935642E-04 -4.07268919E-04  1.55002248E-10  4.52078026E-12
 -2.07041045E-02  3.02207058E-03  3.57945517E-08 -2.12651974E-02  2.88096935E-09
  5.65588561E-03  3.31484145E-08 -5.31643412E-03  8.13238418E-10 -1.00905541E-03
  1.90738014E-03  1.89568196E-03 -4.34642858E-03  5.81828421E-03  2.43873909E-03
 -7.63717157E-10 -2.27949061E-03  1.37146283E-03  3.20976482E-04 -3.78024568E-10
 -2.66466517E-04  6.27110577E-05  2.88730613E-04 -3.89468229E-04  2.35121766E-11
 -5.36383018E-12  1.39254293E-04  4.09547835E-05  1.37976855E-04  3.83604395E-04
 -6.99043221E-10 -2.94418968E-05  3.46623735E-04 -1.09822805E-05 -4.33339162E-10
  2.43476719E-05 -1.11577093E-04  4.19816889E-05 -1.54681855E-04  4.38238266E-12
  1.57158430E-11 -4.37342431E-04  5.15271726E-04  3.68663656E-09 -1.60061042E-04
 -2.42266152E-10  1.37051253E-03  1.78130267E-09 -3.71751407E-04 -1.68483329E-10
  1.07788463E-05 -3.64239941E-05  2.37835991E-08  8.02536397E-12 -3.36974614E-11
  8.43502566E-12  1.39255639E-04  4.09524275E-05 -1.37982621E-04  3.83600799E-04
  3.92146397E-10 -2.94516282E-05 -3.46628718E-04 -1.09783876E-05  2.63031587E-10
  2.43474875E-05 -1.11577623E-04  4.19821748E-05  1.54682638E-04 -1.34414562E-11
 -2.02516341E-11  1.89568758E-03 -4.34643811E-03 -5.81830834E-03  2.43874446E-03
  6.25585169E-10 -2.27948334E-03 -1.37146216E-03  3.20986290E-04  4.29925073E-10
 -2.66467542E-04  6.27121083E-05  2.88731183E-04  3.89468843E-04 -1.78763989E-11
  1.91155341E-11 -1.12893718E-02 -1.60151395E-02  1.96223479E-08  6.76628453E-04
 -3.61468786E-10 -1.13342276E-02  2.10941861E-09  1.45989831E-03 -1.51809461E-10
  3.37405317E-04 -1.26660737E-04  9.16395550E-04 -4.87930944E-03  9.85553873E-03
 -1.18508330E-02  1.39589705E-03  6.87687074E-10  7.84553810E-03 -2.89286703E-03
 -1.21757529E-03  1.62666988E-10 -4.61356906E-04  9.41162219E-05 -3.59325740E-04
  4.58941732E-04  2.73595404E-11  2.64252745E-11 -1.15864812E-03  2.26309873E-03
 -9.71797670E-04 -6.66277411E-03  4.27398299E-10  3.73424281E-03 -1.42293568E-03
 -1.89679443E-03  4.13073248E-10 -2.53680118E-04  3.63892037E-04 -1.45304163E-04
  3.56085204E-04 -2.59195831E-12  4.01508646E-13 -5.70283467E-10  8.18124823E-10
 -3.09833171E-03  3.58875066E-09  1.66060899E-10  9.81550760E-09 -2.87248480E-03
 -4.78550938E-09  7.55121689E-11 -3.99247936E-10  3.13685551E-10  8.02536397E-12
 -1.84867917E-04  2.94110490E-11  3.98952186E-12  1.15865346E-03 -2.26310966E-03
 -9.71814392E-04  6.66278242E-03 -4.01803267E-10 -3.73425135E-03 -1.42295114E-03
  1.89679013E-03 -2.39909764E-10  2.53680400E-04 -3.63893119E-04  1.45305106E-04
  3.56086233E-04 -6.65599396E-12  3.05183599E-11  4.87930961E-03 -9.85554476E-03
 -1.18508605E-02 -1.39592906E-03  1.91784994E-11 -7.84553733E-03 -2.89286272E-03
  1.21757096E-03 -5.96757581E-10  4.61355848E-04 -9.41110388E-05  3.59325687E-04
  4.58937934E-04 -7.65111312E-11 -2.27146515E-12 -2.48542008E-08  5.33175096E-08
  1.69031796E-02 -7.91218788E-08 -9.38950498E-10  4.70735637E-08  3.99166864E-03
 -3.45896808E-08 -5.47721002E-10 -4.82109301E-09  5.14485164E-09 -1.86292145E-09
  1.06199951E-03  2.53417145E-10 -3.20296425E-10  6.33655959E-10  5.76673096E-10
  1.10860295E-02 -1.69279151E-09  1.23614847E-09 -5.38261329E-10  7.95559065E-03
 -5.62143079E-11 -9.44853677E-12  5.94799311E-11 -4.70471810E-11  3.80143369E-05
  3.87576177E-04  5.77711905E-11 -2.17893026E-10 -7.53751949E-10 -1.16503905E-09
  1.10860435E-02  7.41747037E-10 -1.48892488E-09 -1.40981230E-09  7.95560082E-03
 -1.52381272E-12  3.69156470E-11 -1.11445001E-11 -4.20922666E-11  3.80128893E-05
 -3.87574998E-04 -3.76437504E-11  2.21644286E-10  2.19349283E-10  1.10599478E-10
  6.79000042E-09 -8.50891970E-10  5.64125405E-11  1.03288175E-09  2.20765270E-09
 -9.67105247E-11  6.47246521E-11  3.36974614E-11 -2.94110490E-11  7.09312280E-04
  5.87138032E-10 -7.43402869E-11  4.63397417E-11  2.26032527E-10 -8.28943081E-10
 -1.10860567E-02  1.46186792E-09  1.06740616E-09 -1.07522210E-09 -7.95560640E-03
 -3.17030751E-12  5.21734954E-11 -4.45095477E-11  2.63135743E-11  3.80133219E-05
  3.87576763E-04 -1.78608950E-11  1.52621475E-10 -1.94729152E-10  7.46576051E-11
 -1.10860707E-02 -9.57342174E-10 -1.45317659E-09 -1.02702144E-09 -7.95561657E-03
 -8.59868833E-11  1.08497057E-12  2.52579703E-11 -1.49782199E-11  3.80118742E-05
 -3.87575584E-04  1.73967421E-10 -5.75069152E-10 -4.07664247E-10 -7.31443064E-10
 -3.39573556E-08  7.78122148E-10 -1.79344630E-10  9.44362315E-10 -1.79564604E-08
  2.08919501E-11  4.08596065E-11 -2.52466925E-11  2.20974769E-12  7.09312280E-04
 -5.30521090E-11  2.08218066E-10  3.26905250E-10 -6.15403687E-10  5.93039977E-03
  4.41405327E-10  3.21881189E-10 -2.54965534E-10  3.66901987E-03  9.19145709E-11
 -1.69091576E-10  2.88896477E-11 -1.66190437E-10 -2.60446565E-04 -3.53861173E-05
  1.63512331E-10 -3.86595092E-10 -3.23734758E-10  5.89929769E-10  2.57804289E-03
 -5.76606796E-10 -4.65116122E-10  3.79986106E-10  1.26328674E-03  2.59577991E-11
  2.20002109E-11 -1.13667059E-11  7.23438359E-12 -5.74492561E-05 -2.18924376E-04
 -3.16923193E-12  1.58109110E-11  1.78484965E-10 -2.36233336E-10  9.01856493E-04
 -2.78408548E-10  1.07844638E-10  1.15205568E-10  6.04194863E-05  1.30211613E-11
 -3.53003338E-11 -8.43502566E-12 -3.98952186E-12  5.87138032E-10 -1.34892829E-04
  1.49457510E-10 -3.70831237E-10 -1.09724975E-10  7.88232494E-10  2.57803234E-03
 -7.48148191E-10  1.92889726E-10  5.67994340E-10  1.26327828E-03  3.94967035E-11
  3.21858143E-12  1.77604021E-11 -5.24817961E-11  5.74494332E-05 -2.18924200E-04
 -1.57952622E-10  4.49689363E-10  5.96694794E-10 -5.59079046E-10  5.93039322E-03
  8.36064142E-10  3.24850167E-10 -3.85706003E-11  3.66901349E-03  1.01621185E-10
 -1.60641063E-10 -5.57116485E-12  1.30601371E-10  2.60447054E-04 -3.53863460E-05
  1.47054864E-09 -3.12951872E-09 -2.79532673E-10  5.52791766E-09  7.60657809E-03
 -2.65295165E-09 -1.38794312E-12  2.29689906E-09  4.87188618E-03  2.19391292E-10
 -3.07089311E-10  1.51823414E-10 -2.08980602E-11 -5.84937435E-10  2.32184762E-04
 -6.04276744E-02  1.14393178E-01  2.32184353E-01 -1.34051356E-01 -7.11193668E-09
  1.04317491E-01  7.32708668E-02 -4.23027636E-02  1.14651850E-09  9.81481711E-03
 -3.89349405E-03 -6.10302300E-03 -1.37082541E-02 -1.07945914E-09  6.20716678E-10
  1.27284225E-02 -2.70781319E-02 -2.08720903E-02  4.34924370E-02  1.78939550E-09
 -5.39987269E-02 -3.11961758E-04  1.39895496E-02  2.48101486E-09  9.09480575E-04
  1.86038396E-03  7.72556935E-04 -9.03865581E-03 -7.00769050E-10 -1.52798644E-10
 -8.20827695E-03  1.90327314E-02  2.96024323E-02 -1.92591917E-02  1.14370234E-09
  3.82328080E-02  2.86540599E-02 -4.56128986E-03  2.83929245E-09  2.27839504E-04
 -2.57147080E-03 -1.14317414E-04  8.43547758E-04  1.02059777E-10 -2.83958911E-10
 -8.43633664E-04  1.69901930E-03  3.45630554E-03 -1.99551844E-03  1.12299861E-09
  1.60006926E-02  2.94233312E-03 -1.69875968E-03  3.00336008E-10  9.09387582E-04
 -1.46620590E-04  3.13766407E-05 -1.05599323E-03  1.85260252E-10 -1.03877017E-10
 -8.20827224E-03  1.90326938E-02  3.14800446E-02 -1.60068019E-02  1.07420798E-09
  3.82326630E-02  1.82771987E-02 -2.25343760E-02  2.81148574E-09 -2.50432168E-03
  1.60667220E-04 -1.14326708E-04 -9.77877000E-04  3.01150409E-10  5.20932478E-11
  1.27284364E-02 -2.70782448E-02 -4.81016208E-02 -3.67061324E-03  1.84846102E-09
 -5.39985575E-02 -1.22713236E-02 -6.72447470E-03  2.49771997E-09  8.40163952E-03
 -5.63168623E-03  7.72544253E-04 -4.04387133E-03 -2.14016984E-10  6.73474732E-10
  2.17525301E-01 -1.38608873E-02  2.60319940E-02  2.09529655E-01 -1.20971717E-01
 -1.20638713E-08  3.45982540E-02  5.74998425E-02 -3.31974332E-02 -2.58146122E-09
  9.28755894E-03 -3.43624542E-03 -2.23996829E-03 -1.27237843E-02 -8.08987273E-10
  4.52642875E-10  1.61145552E-02 -2.88204243E-02 -4.80246651E-02  8.54348681E-02
  4.82922759E-10 -4.98957475E-02 -7.14037928E-03  2.60768698E-02  1.20462089E-09
  2.64726759E-03 -1.69540939E-03  1.25697972E-03 -9.13157923E-03 -8.50533225E-10
 -4.06668440E-11 -1.34192212E-02  2.85323040E-02  5.65693492E-02 -4.22374167E-02
  4.05091165E-09  3.78852965E-02  3.79324887E-02 -8.18932639E-03  5.93002295E-09
  1.03420629E-03 -4.00985484E-03 -4.22995571E-04  1.19130592E-04 -1.76385722E-10
 -6.09169071E-10  1.30232111E-03 -1.83539130E-03  2.07550003E-03 -1.19840284E-03
  8.09498697E-09  1.99464360E-02  7.96966572E-03 -4.60133667E-03  5.74877035E-09
  2.01568875E-03 -5.48445760E-04 -1.22427047E-04 -2.56409973E-03  3.60394365E-10
 -2.15793242E-10 -1.34191696E-02  2.85321512E-02  6.48628612E-02 -2.78715391E-02
  4.26773971E-09  3.78851005E-02  2.60583379E-02 -2.87556266E-02  6.12822149E-09
 -2.83819339E-03 -1.37448947E-04 -4.23002890E-04 -2.46242881E-03  4.57546157E-10
  4.50347656E-10  1.61146599E-02 -2.88207282E-02 -9.80008076E-02 -1.12729384E-03
  8.67386113E-10 -4.98958724E-02 -2.61533991E-02 -6.85464538E-03  1.45542926E-09
  6.23894373E-03 -5.28699219E-03  1.25697008E-03 -6.73712120E-03 -3.93369826E-10
  7.51198588E-10  1.72531474E-01  1.57661206E-01  1.27284519E-02 -2.70782009E-02
 -2.08720104E-02 -4.34923992E-02  2.87977306E-09 -5.39986521E-02 -3.12015379E-04
 -1.39895400E-02 -4.64742941E-10  9.09472451E-04  1.86039510E-03  7.72559022E-04
  9.03865341E-03  6.33790997E-10  8.69803352E-10 -6.04277080E-02  1.14393247E-01
  2.32184215E-01  1.34051411E-01  3.16283817E-08  1.04317615E-01  7.32708417E-02
  4.23028092E-02  8.69197049E-09  9.81480077E-03 -3.89348121E-03 -6.10301979E-03
  1.37082567E-02  3.86684057E-09  1.87629503E-09  1.27284509E-02 -2.70782681E-02
 -4.81016368E-02  3.67050597E-03 -1.51109497E-09 -5.39984865E-02 -1.22712557E-02
  6.72436851E-03 -1.03024170E-09  8.40162575E-03 -5.63168385E-03  7.72550470E-04
  4.04388181E-03  8.48731613E-10 -7.21655579E-10 -8.20826532E-03  1.90326692E-02
  3.14800517E-02  1.60068483E-02  1.20647695E-09  3.82326060E-02  1.82772110E-02
  2.25344548E-02  2.53152415E-10 -2.50431811E-03  1.60668995E-04 -1.14327684E-04
  9.77877950E-04 -1.12472119E-10 -3.92271680E-11 -8.43613161E-04  1.69896863E-03
  3.45624767E-03  1.99550522E-03 -3.04839371E-10  1.60006158E-02  2.94230146E-03
  1.69882856E-03  2.36450143E-10  9.09392508E-04 -1.46622169E-04  3.13767359E-05
  1.05600503E-03 -3.37353288E-10  1.30540821E-10 -8.20827758E-03  1.90327182E-02
  2.96024314E-02  1.92591485E-02 -7.51060948E-09  3.82327379E-02  2.86539285E-02
  4.56131928E-03 -4.93295462E-09  2.27828534E-04 -2.57145974E-03 -1.14316655E-04
 -8.43545342E-04  1.29597809E-12  8.38973133E-11 -2.20538691E-02 -2.31348726E-02
  2.17525278E-01  1.61146122E-02 -2.88205416E-02 -4.80244270E-02 -8.54346229E-02
  7.21926691E-09 -4.98957326E-02 -7.14038804E-03 -2.60768109E-02  3.55697042E-09
  2.64724957E-03 -1.69538680E-03  1.25698433E-03  9.13158084E-03  5.42748435E-10
  5.95536401E-10 -1.38609023E-02  2.60320332E-02  2.09529610E-01  1.20971537E-01
  2.76389609E-08  3.45983954E-02  5.74998309E-02  3.31973422E-02  7.08480919E-09
  9.28753907E-03 -3.43623044E-03 -2.23996253E-03  1.27237803E-02  3.28003279E-09
  9.46258278E-10  1.61146707E-02 -2.88207346E-02 -9.80010455E-02  1.12718382E-03
 -1.10262681E-08 -4.98957372E-02 -2.61533923E-02  6.85455577E-03 -6.74481257E-09
  6.23891259E-03 -5.28697936E-03  1.25697919E-03  6.73712845E-03  1.07489102E-09
 -4.89500030E-10 -1.34191714E-02  2.85321334E-02  6.48629475E-02  2.78717506E-02
 -7.26081066E-09  3.78850879E-02  2.60584054E-02  2.87557337E-02 -6.21306048E-09
 -2.83818932E-03 -1.37444418E-04 -4.23003712E-04  2.46243684E-03 -4.11706831E-10
 -3.52872141E-11  1.30236718E-03 -1.83548149E-03  2.07539593E-03  1.19826866E-03
 -3.20817158E-09  1.99462829E-02  7.96960713E-03  4.60137036E-03 -2.48059334E-09
  2.01569163E-03 -5.48445792E-04 -1.22423885E-04  2.56411683E-03 -3.86514965E-10
 -2.40225403E-10 -1.34192084E-02  2.85322432E-02  5.65691906E-02  4.22372080E-02
 -7.22668337E-09  3.78852393E-02  3.79322723E-02  8.18932337E-03 -2.88744656E-09
  1.03418287E-03 -4.00982980E-03 -4.22992432E-04 -1.19132373E-04  1.89678601E-10
  2.34794505E-10 -2.31349030E-02 -2.47147282E-02  1.72531398E-01  1.57661092E-01
 -8.20827686E-03  1.90327336E-02 -1.87773720E-03  3.52659688E-02  1.30937439E-09
  3.82326642E-02  1.03768598E-02  2.70957697E-02  3.46009020E-10 -1.23901469E-03
 -1.10467061E-03 -1.14318277E-04  1.82144743E-03  1.91181159E-11 -1.19130470E-10
  1.27284301E-02 -2.70782366E-02  2.72296100E-02 -3.98219917E-02 -1.58782554E-09
 -5.39987445E-02  1.19592038E-02 -7.26496918E-03 -1.03044688E-09 -5.15633725E-03
  7.92620024E-03  7.72530712E-04 -4.99476614E-03 -1.04540939E-09  3.54530748E-10
 -6.04277378E-02  1.14393215E-01  5.76158560E-08  2.68103175E-01  3.10806332E-08
  1.04317616E-01 -1.86741977E-07  8.46051979E-02  8.57791182E-09 -1.07476023E-02
  1.66690630E-02 -6.10304112E-03  6.39015123E-08 -3.10659834E-10  4.19727972E-09
  1.27284349E-02 -2.70782083E-02 -2.72296846E-02 -3.98220706E-02  2.86198949E-09
 -5.39987449E-02 -1.19593062E-02 -7.26511117E-03 -4.48207823E-10 -5.15635256E-03
  7.92618422E-03  7.72540371E-04  4.99471964E-03  4.25974693E-10  9.72496620E-10
 -8.20826309E-03  1.90326847E-02  1.87770116E-03  3.52659847E-02 -7.47721929E-09
  3.82325134E-02 -1.03767589E-02  2.70956595E-02 -4.86795767E-09 -1.23900874E-03
 -1.10466875E-03 -1.14320499E-04 -1.82143856E-03  7.59634026E-11  4.53419314E-11
 -8.43621213E-04  1.69898077E-03  2.34430255E-08  3.99098430E-03 -2.28608513E-10
  1.60006976E-02  6.38738301E-08  3.39760920E-03  2.73742257E-10 -6.74615701E-04
  1.43740942E-03  3.13781598E-05  1.45041754E-09  2.84391931E-10 -2.22194113E-10
 -1.03898523E-02 -2.26450595E-02 -2.20537728E-02 -2.31346671E-02  2.17525313E-01
 -1.34192282E-02  2.85323195E-02 -8.29407882E-03  7.01089613E-02 -7.10226484E-09
  3.78851458E-02  1.18740664E-02  3.69451463E-02 -6.08930419E-09 -2.65951065E-03
 -3.16190145E-04 -4.22995242E-04  2.58162969E-03  1.60822940E-10 -3.90722485E-10
  1.61147057E-02 -2.88208330E-02  4.99771130E-02 -8.43080050E-02 -1.13277640E-08
 -4.98960093E-02  1.90130072E-02 -1.92222515E-02 -6.92217642E-09 -7.45844762E-03
  8.41030725E-03  1.25695967E-03 -2.39442200E-03 -9.52470471E-10  6.58830120E-10
 -1.38608046E-02  2.60316838E-02 -1.51821303E-07  2.41944537E-01  2.69573961E-08
  3.45981177E-02 -2.55825032E-07  6.63945894E-02  6.83574696E-09 -9.79813766E-03
  1.56496144E-02 -2.23997756E-03  5.21684288E-08 -8.33011072E-10  3.24570212E-09
  1.61146476E-02 -2.88206574E-02 -4.99768996E-02 -8.43080397E-02  7.30204202E-09
 -4.98960296E-02 -1.90131007E-02 -1.92223296E-02  3.63043079E-09 -7.45846027E-03
  8.41028216E-03  1.25696359E-03  2.39439827E-03  2.28860672E-10  7.40468593E-10
 -1.34191798E-02  2.85321624E-02  8.29373337E-03  7.01090894E-02 -6.85141124E-09
  3.78850053E-02 -1.18740158E-02  3.69451175E-02 -2.56561354E-09 -2.65949840E-03
 -3.16180207E-04 -4.22997211E-04 -2.58160018E-03  1.26014718E-10  2.84373350E-10
  1.30236263E-03 -1.83548343E-03  2.31840444E-07  2.39647588E-03 -2.79759682E-09
  1.99464655E-02  1.55523892E-07  9.20270490E-03 -2.19564541E-09 -1.83049925E-03
  3.29774798E-03 -1.22424259E-04  7.68693615E-09 -2.14715818E-11 -4.42156340E-10
 -2.26450976E-02 -3.64395493E-02 -2.31345672E-02 -2.47142337E-02  1.72531806E-01
  1.57661926E-01 -8.43633664E-04  1.69901930E-03 -3.45630554E-03  1.99551844E-03
  1.12299861E-09  1.60006926E-02 -2.94233312E-03  1.69875968E-03  3.00336008E-10
  9.09387582E-04 -1.46620590E-04  3.13766407E-05 -1.05599323E-03 -1.85260252E-10
  1.03877017E-10 -8.20827224E-03  1.90326938E-02 -3.14800446E-02  1.60068019E-02
  1.07420798E-09  3.82326630E-02 -1.82771987E-02  2.25343760E-02  2.81148574E-09
 -2.50432168E-03  1.60667220E-04 -1.14326708E-04 -9.77877000E-04 -3.01150409E-10
 -5.20932478E-11  1.27284364E-02 -2.70782448E-02  4.81016208E-02  3.67061324E-03
  1.84846102E-09 -5.39985575E-02  1.22713236E-02  6.72447470E-03  2.49771997E-09
  8.40163952E-03 -5.63168623E-03  7.72544253E-04 -4.04387133E-03  2.14016984E-10
 -6.73474732E-10 -6.04276744E-02  1.14393178E-01 -2.32184353E-01  1.34051356E-01
 -7.11193668E-09  1.04317491E-01 -7.32708668E-02  4.23027636E-02  1.14651850E-09
  9.81481711E-03 -3.89349405E-03 -6.10302300E-03 -1.37082541E-02  1.07945914E-09
 -6.20716678E-10  1.27284225E-02 -2.70781319E-02  2.08720903E-02 -4.34924370E-02
  1.78939550E-09 -5.39987269E-02  3.11961758E-04 -1.39895496E-02  2.48101486E-09
  9.09480575E-04  1.86038396E-03  7.72556935E-04 -9.03865581E-03  7.00769050E-10
  1.52798644E-10 -8.20827695E-03  1.90327314E-02 -2.96024323E-02  1.92591917E-02
  1.14370234E-09  3.82328080E-02 -2.86540599E-02  4.56128986E-03  2.83929245E-09
  2.27839504E-04 -2.57147080E-03 -1.14317414E-04  8.43547758E-04 -1.02059777E-10
  2.83958911E-10  3.31157976E-03  8.02172755E-03 -1.03898522E-02 -2.26449855E-02
 -2.20536804E-02 -2.31345879E-02  2.17525301E-01  1.30232111E-03 -1.83539130E-03
 -2.07550003E-03  1.19840284E-03  8.09498697E-09  1.99464360E-02 -7.96966572E-03
  4.60133667E-03  5.74877035E-09  2.01568875E-03 -5.48445760E-04 -1.22427047E-04
 -2.56409973E-03 -3.60394365E-10  2.15793242E-10 -1.34191696E-02  2.85321512E-02
 -6.48628612E-02  2.78715391E-02  4.26773971E-09  3.78851005E-02 -2.60583379E-02
  2.87556266E-02  6.12822149E-09 -2.83819339E-03 -1.37448947E-04 -4.23002890E-04
 -2.46242881E-03 -4.57546157E-10 -4.50347656E-10  1.61146599E-02 -2.88207282E-02
  9.80008076E-02  1.12729384E-03  8.67386113E-10 -4.98958724E-02  2.61533991E-02
  6.85464538E-03  1.45542926E-09  6.23894373E-03 -5.28699219E-03  1.25697008E-03
 -6.73712120E-03  3.93369826E-10 -7.51198588E-10 -1.38608873E-02  2.60319940E-02
 -2.09529655E-01  1.20971717E-01 -1.20638713E-08  3.45982540E-02 -5.74998425E-02
  3.31974332E-02 -2.58146122E-09  9.28755894E-03 -3.43624542E-03 -2.23996829E-03
 -1.27237843E-02  8.08987273E-10 -4.52642875E-10  1.61145552E-02 -2.88204243E-02
  4.80246651E-02 -8.54348681E-02  4.82922759E-10 -4.98957475E-02  7.14037928E-03
 -2.60768698E-02  1.20462089E-09  2.64726759E-03 -1.69540939E-03  1.25697972E-03
 -9.13157923E-03  8.50533225E-10  4.06668440E-11 -1.34192212E-02  2.85323040E-02
 -5.65693492E-02  4.22374167E-02  4.05091165E-09  3.78852965E-02 -3.79324887E-02
  8.18932639E-03  5.93002295E-09  1.03420629E-03 -4.00985484E-03 -4.22995571E-04
  1.19130592E-04  1.76385722E-10  6.09169071E-10  8.02172755E-03  1.89129627E-02
 -2.26449752E-02 -3.64392826E-02 -2.31345633E-02 -2.47143114E-02  1.72531474E-01
  1.57661206E-01 -8.20826532E-03  1.90326692E-02 -3.14800517E-02 -1.60068483E-02
  1.20647695E-09  3.82326060E-02 -1.82772110E-02 -2.25344548E-02  2.53152415E-10
 -2.50431811E-03  1.60668995E-04 -1.14327684E-04  9.77877950E-04  1.12472119E-10
  3.92271680E-11 -8.43613161E-04  1.69896863E-03 -3.45624767E-03 -1.99550522E-03
 -3.04839371E-10  1.60006158E-02 -2.94230146E-03 -1.69882856E-03  2.36450143E-10
  9.09392508E-04 -1.46622169E-04  3.13767359E-05  1.05600503E-03  3.37353288E-10
 -1.30540821E-10 -8.20827758E-03  1.90327182E-02 -2.96024314E-02 -1.92591485E-02
 -7.51060948E-09  3.82327379E-02 -2.86539285E-02 -4.56131928E-03 -4.93295462E-09
  2.27828534E-04 -2.57145974E-03 -1.14316655E-04 -8.43545342E-04 -1.29597809E-12
 -8.38973133E-11  1.27284519E-02 -2.70782009E-02  2.08720104E-02  4.34923992E-02
  2.87977306E-09 -5.39986521E-02  3.12015379E-04  1.39895400E-02 -4.64742941E-10
  9.09472451E-04  1.86039510E-03  7.72559022E-04  9.03865341E-03 -6.33790997E-10
 -8.69803352E-10 -6.04277080E-02  1.14393247E-01 -2.32184215E-01 -1.34051411E-01
  3.16283817E-08  1.04317615E-01 -7.32708417E-02 -4.23028092E-02  8.69197049E-09
  9.81480077E-03 -3.89348121E-03 -6.10301979E-03  1.37082567E-02 -3.86684057E-09
 -1.87629503E-09  1.27284509E-02 -2.70782681E-02  4.81016368E-02 -3.67050597E-03
 -1.51109497E-09 -5.39984865E-02  1.22712557E-02 -6.72436851E-03 -1.03024170E-09
  8.40162575E-03 -5.63168385E-03  7.72550470E-04  4.04388181E-03 -8.48731613E-10
  7.21655579E-10 -1.03898522E-02 -2.26449752E-02  3.31161630E-03  8.02180691E-03
 -1.03898380E-02 -2.26449584E-02 -2.20538691E-02 -2.31348726E-02  2.17525278E-01
 -1.34191714E-02  2.85321334E-02 -6.48629475E-02 -2.78717506E-02 -7.26081066E-09
  3.78850879E-02 -2.60584054E-02 -2.87557337E-02 -6.21306048E-09 -2.83818932E-03
 -1.37444418E-04 -4.23003712E-04  2.46243684E-03  4.11706831E-10  3.52872141E-11
  1.30236718E-03 -1.83548149E-03 -2.07539593E-03 -1.19826866E-03 -3.20817158E-09
  1.99462829E-02 -7.96960713E-03 -4.60137036E-03 -2.48059334E-09  2.01569163E-03
 -5.48445792E-04 -1.22423885E-04  2.56411683E-03  3.86514965E-10  2.40225403E-10
 -1.34192084E-02  2.85322432E-02 -5.65691906E-02 -4.22372080E-02 -7.22668337E-09
  3.78852393E-02 -3.79322723E-02 -8.18932337E-03 -2.88744656E-09  1.03418287E-03
 -4.00982980E-03 -4.22992432E-04 -1.19132373E-04 -1.89678601E-10 -2.34794505E-10
  1.61146122E-02 -2.88205416E-02  4.80244270E-02  8.54346229E-02  7.21926691E-09
 -4.98957326E-02  7.14038804E-03  2.60768109E-02  3.55697042E-09  2.64724957E-03
 -1.69538680E-03  1.25698433E-03  9.13158084E-03 -5.42748435E-10 -5.95536401E-10
 -1.38609023E-02  2.60320332E-02 -2.09529610E-01 -1.20971537E-01  2.76389609E-08
  3.45983954E-02 -5.74998309E-02 -3.31973422E-02  7.08480919E-09  9.28753907E-03
 -3.43623044E-03 -2.23996253E-03  1.27237803E-02 -3.28003279E-09 -9.46258278E-10
  1.61146707E-02 -2.88207346E-02  9.80010455E-02 -1.12718382E-03 -1.10262681E-08
 -4.98957372E-02  2.61533923E-02 -6.85455577E-03 -6.74481257E-09  6.23891259E-03
 -5.28697936E-03  1.25697919E-03  6.73712845E-03 -1.07489102E-09  4.89500030E-10
 -2.26449855E-02 -3.64392826E-02  8.02180691E-03  1.89130834E-02 -2.26449657E-02
 -3.64392740E-02 -2.31349030E-02 -2.47147282E-02  1.72531398E-01  1.57661092E-01
  1.27284349E-02 -2.70782083E-02  2.72296846E-02  3.98220706E-02  2.86198949E-09
 -5.39987449E-02  1.19593062E-02  7.26511117E-03 -4.48207823E-10 -5.15635256E-03
  7.92618422E-03  7.72540371E-04  4.99471964E-03 -4.25974693E-10 -9.72496620E-10
 -8.20826309E-03  1.90326847E-02 -1.87770116E-03 -3.52659847E-02 -7.47721929E-09
  3.82325134E-02  1.03767589E-02 -2.70956595E-02 -4.86795767E-09 -1.23900874E-03
 -1.10466875E-03 -1.14320499E-04 -1.82143856E-03 -7.59634026E-11 -4.53419314E-11
 -8.43621213E-04  1.69898077E-03 -2.34430255E-08 -3.99098430E-03 -2.28608513E-10
  1.60006976E-02 -6.38738301E-08 -3.39760920E-03  2.73742257E-10 -6.74615701E-04
  1.43740942E-03  3.13781598E-05  1.45041754E-09 -2.84391931E-10  2.22194113E-10
 -8.20827686E-03  1.90327336E-02  1.87773720E-03 -3.52659688E-02  1.30937439E-09
  3.82326642E-02 -1.03768598E-02 -2.70957697E-02  3.46009020E-10 -1.23901469E-03
 -1.10467061E-03 -1.14318277E-04  1.82144743E-03 -1.91181159E-11  1.19130470E-10
  1.27284301E-02 -2.70782366E-02 -2.72296100E-02  3.98219917E-02 -1.58782554E-09
 -5.39987445E-02 -1.19592038E-02  7.26496918E-03 -1.03044688E-09 -5.15633725E-03
  7.92620024E-03  7.72530712E-04 -4.99476614E-03  1.04540939E-09 -3.54530748E-10
 -6.04277378E-02  1.14393215E-01 -5.76158560E-08 -2.68103175E-01  3.10806332E-08
  1.04317616E-01  1.86741977E-07 -8.46051979E-02  8.57791182E-09 -1.07476023E-02
  1.66690630E-02 -6.10304112E-03  6.39015123E-08  3.10659834E-10 -4.19727972E-09
 -2.20536804E-02 -2.31345633E-02 -1.03898380E-02 -2.26449657E-02  3.31159706E-03
  8.02181055E-03 -1.03898523E-02 -2.26450595E-02 -2.20537728E-02 -2.31346671E-02
  2.17525313E-01  1.61146476E-02 -2.88206574E-02  4.99768996E-02  8.43080397E-02
  7.30204202E-09 -4.98960296E-02  1.90131007E-02  1.92223296E-02  3.63043079E-09
 -7.45846027E-03  8.41028216E-03  1.25696359E-03  2.39439827E-03 -2.28860672E-10
 -7.40468593E-10 -1.34191798E-02  2.85321624E-02 -8.29373337E-03 -7.01090894E-02
 -6.85141124E-09  3.78850053E-02  1.18740158E-02 -3.69451175E-02 -2.56561354E-09
 -2.65949840E-03 -3.16180207E-04 -4.22997211E-04 -2.58160018E-03 -1.26014718E-10
 -2.84373350E-10  1.30236263E-03 -1.83548343E-03 -2.31840444E-07 -2.39647588E-03
 -2.79759682E-09  1.99464655E-02 -1.55523892E-07 -9.20270490E-03 -2.19564541E-09
 -1.83049925E-03  3.29774798E-03 -1.22424259E-04  7.68693615E-09  2.14715818E-11
  4.42156340E-10 -1.34192282E-02  2.85323195E-02  8.29407882E-03 -7.01089613E-02
 -7.10226484E-09  3.78851458E-02 -1.18740664E-02 -3.69451463E-02 -6.08930419E-09
 -2.65951065E-03 -3.16190145E-04 -4.22995242E-04  2.58162969E-03 -1.60822940E-10
  3.90722485E-10  1.61147057E-02 -2.88208330E-02 -4.99771130E-02  8.43080050E-02
 -1.13277640E-08 -4.98960093E-02 -1.90130072E-02  1.92222515E-02 -6.92217642E-09
 -7.45844762E-03  8.41030725E-03  1.25695967E-03 -2.39442200E-03  9.52470471E-10
 -6.58830120E-10 -1.38608046E-02  2.60316838E-02  1.51821303E-07 -2.41944537E-01
  2.69573961E-08  3.45981177E-02  2.55825032E-07 -6.63945894E-02  6.83574696E-09
 -9.79813766E-03  1.56496144E-02 -2.23997756E-03  5.21684288E-08  8.33011072E-10
 -3.24570212E-09 -2.31345879E-02 -2.47143114E-02 -2.26449584E-02 -3.64392740E-02
  8.02181055E-03  1.89131357E-02 -2.26450976E-02 -3.64395493E-02 -2.31345672E-02
 -2.47142337E-02  1.72531806E-01  1.57661926E-01
Grdnt Energy                               R     -2.322675516494766E+02
Grdnt NVar                                 I               54
Grdnt IGetFC                               I                4
Internal Forces                            R   N=          54
  3.37143039E-04  3.35850166E-04  7.66397072E-05  3.36862983E-04  7.65389763E-05
  3.35850166E-04  7.67134923E-05  3.37143039E-04  7.66397072E-05  3.36862983E-04
  7.65389763E-05  7.67134923E-05 -3.75784715E-07  4.13153726E-07 -3.73690103E-08
  7.74918597E-08  1.60178206E-07 -2.37670066E-07  2.98292861E-07  2.30980454E-07
 -5.29273314E-07 -3.75784725E-07 -3.73690014E-08  4.13153726E-07  7.74918621E-08
  1.60178206E-07 -2.37670068E-07  2.98292857E-07 -5.29273309E-07  2.30980452E-07
  1.60111581E-09  4.92293606E-09 -6.24143438E-11  3.25940591E-09 -1.60797056E-09
 -4.85697499E-09  5.55661872E-11 -3.19343825E-09  6.84101994E-12  3.25577377E-09
 -3.31501544E-09 -6.60826925E-11 -1.60797056E-09  5.55661871E-11 -4.85697499E-09
 -3.19343825E-09  1.60111581E-09  4.92293606E-09 -6.24143438E-11  3.25940591E-09
  6.84102000E-12  3.25577377E-09 -3.31501544E-09 -6.60826924E-11
Internal Force Constants                   R   N=        1485
  4.03599849E-01  1.90877409E-02  4.03602114E-01  6.20166894E-03  6.20192531E-03
  3.59893964E-01  1.90879027E-02 -7.15245949E-04 -3.73413546E-04  4.03604344E-01
  6.20164943E-03 -3.73415961E-04  7.06727044E-04  6.20190478E-03  3.59893774E-01
 -7.25720341E-04  7.96663238E-02 -3.59452457E-04  1.90582565E-02 -3.73820982E-04
  4.03602114E-01 -3.73674823E-04 -3.59420652E-04  2.02884548E-04  6.20206775E-03
  7.06617868E-04  6.20198881E-03  3.59875049E-01  7.96655945E-02 -7.25720341E-04
 -3.59521828E-04 -7.25744322E-04 -3.59522429E-04  1.90877409E-02 -3.73674869E-04
  4.03599849E-01 -3.59521828E-04 -3.59452457E-04  8.51011723E-05 -3.73814335E-04
  2.02787270E-04  6.20192531E-03  7.06613230E-04  6.20166894E-03  3.59893964E-01
 -7.25744322E-04  1.90582565E-02 -3.73814335E-04  7.96666128E-02 -3.59450967E-04
 -7.15245949E-04 -3.59405531E-04  1.90879027E-02 -3.73413546E-04  4.03604344E-01
 -3.59522429E-04 -3.73820982E-04  2.02787270E-04 -3.59450967E-04  8.51005604E-05
 -3.73415961E-04  2.02881846E-04  6.20164943E-03  7.06727044E-04  6.20190478E-03
  3.59893774E-01 -3.73674869E-04  6.20198881E-03  7.06613230E-04 -3.59405531E-04
  2.02881846E-04 -3.59420652E-04  8.51774544E-05 -3.73674823E-04  2.02884548E-04
  6.20206775E-03  7.06617868E-04  3.59875049E-01 -3.14664915E-02 -3.14635470E-02
 -9.77963933E-03 -1.23201756E-02  5.25969099E-03  4.37836563E-02 -5.29579506E-04
  4.37797189E-02  3.18640229E-04 -1.23120079E-02 -5.29723734E-04  5.25976514E-03
  8.31585484E-02  2.99511176E-02  1.51208221E-03  4.89110044E-03  6.24953907E-03
 -3.29881199E-03 -2.41079469E-02  9.89533014E-04 -1.96758516E-02 -1.59393141E-04
  6.07060237E-03 -4.59826602E-04 -1.96062873E-03 -4.15789331E-02  8.33137781E-02
  1.51537392E-03  2.99514648E-02  4.88853889E-03  6.07063653E-03 -1.96087900E-03
 -1.96757094E-02 -4.59953507E-04 -2.41038672E-02 -1.59247087E-04  6.24140550E-03
  9.89550336E-04 -3.29913641E-03 -4.15796153E-02 -4.17348450E-02  8.33144603E-02
 -3.14664007E-02 -1.23201447E-02  5.25970947E-03 -3.14636557E-02 -9.77961825E-03
 -1.23119557E-02  5.25978457E-03  4.37797467E-02 -5.29716133E-04  4.37839003E-02
  3.18633272E-04 -5.29548597E-04 -3.61548789E-02  2.13352692E-02  1.48196096E-02
  8.31585824E-02  2.99510634E-02  6.24952146E-03 -3.29882302E-03  1.51212472E-03
  4.89109009E-03  6.07058120E-03 -1.96062234E-03 -1.96758650E-02 -4.59829029E-04
 -2.41080642E-02 -1.59389892E-04  9.89513718E-04  2.13352480E-02 -1.32507133E-02
 -8.08453477E-03 -4.15789366E-02  8.33137370E-02  1.51533725E-03  6.07062327E-03
 -1.96088645E-03  2.99515309E-02  4.88852815E-03  6.24137449E-03 -3.29916223E-03
 -2.41038817E-02  9.89545162E-04 -1.96758362E-02 -1.59243380E-04 -4.59965121E-04
  1.48196308E-02 -8.08455597E-03 -6.73507488E-03 -4.15796459E-02 -4.17348004E-02
  8.33144463E-02 -1.23132760E-02  4.37745165E-02 -5.29275126E-04 -3.14627594E-02
  5.26028395E-03 -3.14625253E-02 -9.77931903E-03 -1.23132974E-02  5.26028089E-03
  4.37746982E-02 -5.29266235E-04  3.18897417E-04 -8.43663626E-03 -1.70574669E-03
  1.01423829E-02 -3.61546222E-02  1.48190719E-02  2.13355503E-02  8.31543045E-02
  6.24304872E-03 -2.40996726E-02  9.89507482E-04  2.99472692E-02 -3.29941763E-03
  1.51558294E-03  4.88971097E-03  6.07026413E-03 -1.96086799E-03 -1.96749696E-02
 -4.60231114E-04 -1.59447864E-04 -1.70639540E-03  5.31409976E-03 -3.60770436E-03
  2.13367265E-02 -8.08439482E-03 -1.32523317E-02 -4.15772749E-02  8.33079426E-02
  6.07022724E-03 -1.96748439E-02 -4.60232356E-04  1.51549022E-03 -1.96086632E-03
  2.99469424E-02  4.88960805E-03  6.24303327E-03 -3.29941290E-03 -2.40997287E-02
  9.89497349E-04 -1.59449553E-04  1.01430317E-02 -3.60835307E-03 -6.53467859E-03
  1.48178957E-02 -6.73467706E-03 -8.08321868E-03 -4.15770296E-02 -4.17306677E-02
  8.33076973E-02  4.37797189E-02  4.37836563E-02  3.18640229E-04 -1.23120079E-02
 -5.29723734E-04 -3.14635470E-02  5.25976514E-03 -3.14664915E-02 -9.77963933E-03
 -1.23201756E-02  5.25969099E-03 -5.29579506E-04  6.02781853E-03 -3.01353347E-03
 -3.01428505E-03 -8.44023646E-03  1.01438728E-02 -1.70363632E-03 -3.61546154E-02
  1.48179951E-02  2.13366203E-02  8.31585484E-02 -2.41038672E-02 -1.96757094E-02
 -1.59247087E-04  6.24140550E-03  9.89550336E-04  2.99514648E-02 -3.29913641E-03
  1.51537392E-03  4.88853889E-03  6.07063653E-03 -1.96087900E-03 -4.59953507E-04
 -3.01428505E-03  1.78713635E-03  1.22714871E-03 -1.70364821E-03 -3.60925865E-03
  5.31290686E-03  2.13355560E-02 -8.08325413E-03 -1.32523018E-02 -4.15796153E-02
  8.33144603E-02 -1.96758516E-02 -2.41079469E-02 -1.59393141E-04  6.07060237E-03
 -4.59826602E-04  1.51208221E-03 -1.96062873E-03  2.99511176E-02  4.89110044E-03
  6.24953907E-03 -3.29881199E-03  9.89533014E-04 -3.01353347E-03  1.22639713E-03
  1.78713635E-03  1.01438847E-02 -6.53461413E-03 -3.60927054E-03  1.48190594E-02
 -6.73474093E-03 -8.08431848E-03 -4.15789331E-02 -4.17348450E-02  8.33137781E-02
  4.37797467E-02 -1.23119557E-02 -5.29716133E-04  4.37839003E-02  3.18633272E-04
 -1.23201447E-02 -5.29548597E-04 -3.14664007E-02  5.25970947E-03 -3.14636557E-02
 -9.77961825E-03  5.25978457E-03 -8.44023646E-03  1.01438847E-02 -1.70364821E-03
  6.02784658E-03 -3.01354628E-03 -3.01430030E-03 -8.43669147E-03  1.01430828E-02
 -1.70639134E-03 -3.61548789E-02  1.48196096E-02  2.13352692E-02  8.31585824E-02
 -1.96758650E-02  6.07058120E-03 -4.59829029E-04 -2.41080642E-02 -1.59389892E-04
  6.24952146E-03  9.89513718E-04  2.99510634E-02 -3.29882302E-03  1.51212472E-03
  4.89109009E-03 -1.96062234E-03  1.01438728E-02 -6.53461413E-03 -3.60925865E-03
 -3.01354628E-03  1.22640245E-03  1.78714383E-03 -1.70570985E-03 -3.60837870E-03
  5.31408855E-03  2.13352480E-02 -8.08453477E-03 -1.32507133E-02 -4.15789366E-02
  8.33137370E-02 -2.41038817E-02  6.24137449E-03  9.89545162E-04 -1.96758362E-02
 -1.59243380E-04  6.07062327E-03 -4.59965121E-04  1.51533725E-03 -1.96088645E-03
  2.99515309E-02  4.88852815E-03 -3.29916223E-03 -1.70363632E-03 -3.60927054E-03
  5.31290686E-03 -3.01430030E-03  1.78714383E-03  1.22715648E-03  1.01424013E-02
 -6.53470412E-03 -3.60769721E-03  1.48196308E-02 -6.73507488E-03 -8.08455597E-03
 -4.15796459E-02 -4.17348004E-02  8.33144463E-02 -1.23132974E-02 -3.14625253E-02
  5.26028089E-03  4.37746982E-02 -5.29266235E-04  4.37745165E-02  3.18897417E-04
 -1.23132760E-02 -5.29275126E-04 -3.14627594E-02  5.26028395E-03 -9.77931903E-03
 -3.61546154E-02  1.48190594E-02  2.13355560E-02 -8.43669147E-03 -1.70570985E-03
  1.01424013E-02  6.02826085E-03 -3.01413406E-03 -3.01412679E-03 -8.43663626E-03
  1.01423829E-02 -1.70574669E-03 -3.61546222E-02  1.48190719E-02  2.13355503E-02
  8.31543045E-02  6.24303327E-03  2.99469424E-02 -3.29941290E-03 -2.40997287E-02
  9.89497349E-04 -1.96748439E-02 -1.59449553E-04  6.07022724E-03 -4.60232356E-04
  1.51549022E-03 -1.96086632E-03  4.88960805E-03  2.13366203E-02 -8.08431848E-03
 -1.32523018E-02 -1.70639134E-03  5.31408855E-03 -3.60769721E-03 -3.01412679E-03
  1.78656028E-03  1.22756651E-03  1.01430317E-02 -6.53467859E-03 -3.60835307E-03
  1.48178957E-02 -6.73467706E-03 -8.08321868E-03 -4.15770296E-02  8.33076973E-02
  6.07026413E-03  1.51558294E-03 -1.96086799E-03 -1.96749696E-02 -4.60231114E-04
 -2.40996726E-02 -1.59447864E-04  6.24304872E-03  9.89507482E-04  2.99472692E-02
 -3.29941763E-03  4.88971097E-03  1.48179951E-02 -6.73474093E-03 -8.08325413E-03
  1.01430828E-02 -3.60837870E-03 -6.53470412E-03 -3.01413406E-03  1.22757379E-03
  1.78656028E-03 -1.70639540E-03 -3.60770436E-03  5.31409976E-03  2.13367265E-02
 -8.08439482E-03 -1.32523317E-02 -4.15772749E-02 -4.17306677E-02  8.33079426E-02
  8.73383921E-10  2.85853526E-09  1.30638225E-10  1.10820589E-09 -1.58036651E-10
  1.73457355E-09  5.47083703E-11 -3.52166980E-09 -1.34419315E-10 -2.16236404E-09
 -1.87731157E-11 -2.66334238E-10  1.11326903E-10 -1.51724484E-10  1.47422289E-10
 -2.10843672E-09  7.91316255E-10  5.80638057E-10  5.65454942E-10 -1.09272637E-09
  7.98864576E-10  1.38998577E-09 -4.20706310E-10 -9.43230115E-10 -7.31244263E-10
  5.46988309E-10  4.99928670E-12  1.33615141E-09  8.86906860E-11 -1.69643655E-09
  9.32402418E-03  1.08769045E-09  2.03928648E-09  3.62762102E-10  7.43725953E-10
  2.83574749E-10  1.21285120E-09  1.07186243E-10 -2.66426112E-09 -7.42814559E-11
  7.07867846E-10  1.10419577E-10 -3.01525410E-10 -8.48917770E-10  2.67558820E-10
  6.79228260E-10 -6.57060380E-10 -4.15027754E-09  5.44898534E-09  3.35044300E-10
 -2.00525830E-09  1.88037599E-09  1.16168646E-09 -3.37711289E-10 -7.85244866E-10
 -9.21501703E-10  7.94033439E-10  1.89881676E-10  1.25557616E-09 -1.16575597E-09
 -2.76398144E-10  3.42153650E-03  8.56397573E-03  6.00740104E-11  1.68125397E-09
  6.43643334E-11  1.10852457E-09  1.12141941E-11  2.32003576E-09 -8.38195993E-12
 -2.89565765E-09 -3.53323151E-11 -2.13360857E-09 -9.88282766E-11 -8.26378053E-11
 -2.56579678E-10  6.90978913E-10 -5.27642736E-10 -1.80977440E-09  1.88512975E-09
 -7.48835758E-10  8.91033429E-10 -3.07580175E-10 -3.96875255E-10 -2.57215273E-11
  2.72152063E-10 -2.55500341E-10 -2.61938571E-10 -7.13545992E-10  7.08965142E-10
  1.54943381E-09  1.22173458E-09 -2.98133275E-09  3.42155255E-03 -1.97600995E-03
  8.56398318E-03  2.74380491E-10  8.62005175E-10  2.96488163E-10  7.44044601E-10
  4.52825646E-10  1.79831348E-09  4.40958889E-11 -2.03824892E-09  2.48056103E-11
  7.36623409E-10  3.03644359E-11 -1.17829084E-10 -1.21682432E-09  1.11026219E-09
  4.16323135E-12 -3.58398062E-10 -3.05646405E-09  4.11951153E-09  6.60622800E-10
 -1.22011213E-09  6.84636178E-10 -2.54020856E-10  3.55147099E-10 -9.75150957E-11
 -4.52196047E-10 -4.66500846E-10  8.93847553E-10  1.46885857E-09 -3.27121102E-11
 -1.56129431E-09 -2.48093513E-03  3.16642928E-03  3.16642068E-03  8.81378509E-03
 -2.86643819E-09 -8.70881046E-10 -1.31128289E-10  2.14354119E-09  2.68256799E-10
  3.51131736E-09  1.76163234E-11 -1.73037345E-09  1.33923998E-10 -1.10354927E-09
 -5.76214290E-11  1.52037162E-10 -1.04390589E-10 -1.41327726E-10  1.38696934E-10
 -1.32593708E-09 -1.14757442E-10  1.71932997E-09  7.21887277E-10 -1.43100560E-11
 -5.32734056E-10 -1.38290750E-09  9.37678192E-10  4.19183238E-10 -5.63006441E-10
 -8.25032541E-10  1.10944902E-09  2.09110309E-09 -7.77073540E-10 -5.95999097E-10
 -6.43413639E-03 -4.20103173E-03 -5.31848231E-04  1.70125643E-03  9.32422516E-03
 -2.04289100E-09 -1.10429259E-09 -3.58877375E-10 -7.01179567E-10  3.02959123E-10
  2.68125717E-09 -1.10680507E-10 -1.23086142E-09  7.57861453E-11 -6.71316479E-10
 -1.06840124E-10 -2.74888289E-10  8.45198627E-10 -6.76402740E-10 -2.66660076E-10
 -1.24191505E-09  1.16067974E-09  2.72661702E-10  9.26659582E-10 -2.03204530E-10
 -7.84245948E-10 -1.17732460E-09  7.90327392E-10  3.48278191E-10 -3.24890484E-10
 -1.93782251E-09  2.04713846E-09  6.47462034E-10  4.04022156E-09 -5.31298186E-09
 -4.20132555E-03 -2.66715187E-03  1.19593836E-03  2.73011205E-03  3.42121015E-03
  8.56186263E-03 -1.70939367E-09 -3.73780108E-11 -6.48235293E-11  2.14538494E-09
  8.28328118E-11  2.87227806E-09  9.82282571E-11 -2.30285896E-09  3.48351504E-11
 -1.13436970E-09  4.91348596E-12 -1.54791611E-11  2.63525843E-10  5.27569654E-10
 -6.97848531E-10 -1.54583816E-09 -1.27102068E-09  3.03249225E-09  2.53086884E-10
 -6.91609037E-10  6.98380525E-10  3.28099239E-11  2.51588498E-10 -2.75325315E-10
 -8.89098214E-10  4.00140748E-10  2.97630316E-10  1.79904779E-09 -1.84764666E-09
  7.05199183E-10 -5.31660712E-04  1.19651842E-03 -5.67428239E-03 -3.94610326E-03
  3.42193295E-03 -1.97605747E-03  8.56455815E-03 -8.85846473E-10 -2.70789562E-10
 -2.92572679E-10 -6.99335844E-10  1.17535123E-10  2.04221783E-09 -3.00686043E-11
 -1.80334686E-09 -2.33027014E-11 -7.02136915E-10 -4.43051777E-11 -4.42404654E-10
  1.21311509E-09 -7.50538820E-12 -1.10320554E-09 -1.46181613E-09  4.41650206E-12
  1.58582398E-09  4.57859170E-10 -8.80503494E-10  4.46868634E-10  2.38392846E-10
  1.04237666E-10 -3.46230350E-10 -6.50982262E-10 -7.12649205E-10  1.23531975E-09
  3.55406697E-10  2.96964846E-09 -4.01178356E-09  1.70115013E-03  2.73039828E-03
 -3.94649579E-03 -2.91724764E-03 -2.48108206E-03  3.16459501E-03  3.16656773E-03
  8.81224481E-03  9.78310051E-10  1.15674075E-09  1.96004567E-10  1.25117401E-12
  1.81263816E-11 -9.78743577E-10 -1.16173333E-11 -1.14462770E-09 -1.94992373E-10
  1.24631954E-11  1.61674689E-10 -1.60000274E-10 -1.87308731E-09  8.90685358E-10
  9.41911030E-10  1.70692515E-09  1.93060867E-10 -1.16352707E-09 -1.69617298E-09
  1.15917574E-09 -1.81031995E-10  1.85925249E-09 -8.79995795E-10 -9.38772378E-10
 -4.00734240E-10  6.87154300E-10 -1.07186036E-10  4.03830047E-10 -6.75324790E-10
  9.66523311E-11 -6.43413220E-03 -5.31832460E-04 -4.20103532E-03  1.70126442E-03
  6.54157605E-04  2.09155818E-03 -1.57894080E-03 -1.41540234E-04  9.32421156E-03
  4.64791374E-10  2.34559471E-09  1.36580155E-10 -2.73655428E-09  1.75888179E-10
  1.56023887E-09  4.15303337E-10 -1.95415592E-09 -7.57919246E-11  2.49834063E-09
  2.44534221E-10 -3.17040977E-11 -1.11777157E-09  2.38051463E-10  8.51902090E-10
  9.40202944E-10  1.41529129E-09 -1.68205052E-09 -2.52558125E-10 -4.26346619E-09
  5.14131964E-09  1.43829269E-09 -8.93819154E-10 -5.13146390E-10 -1.44564935E-09
  1.35262624E-10  1.57682953E-09  1.99055953E-10 -4.69142056E-10  3.30877030E-10
 -4.20133906E-03  1.19592933E-03 -2.66715983E-03  2.73010856E-03  2.09155994E-03
  1.59179041E-03  5.57379666E-04  5.76101348E-05  3.42122479E-03  8.56183731E-03
 -1.60136880E-09  1.96111093E-09  7.51736179E-11  2.73141957E-09 -4.23697035E-10
 -4.42811734E-10 -1.75440253E-10 -2.37038098E-09 -1.34566533E-10 -2.48909097E-09
  3.24939982E-11 -2.45381333E-10 -1.45482654E-09  9.01136266E-10  5.22354755E-10
  2.55475464E-10 -5.26728226E-09  4.37013462E-09 -9.23694383E-10  1.64181923E-09
 -1.37472287E-09  1.10203862E-09 -2.20815604E-10 -8.53419665E-10 -2.10540252E-10
  4.86753713E-10 -3.38649743E-10  1.46997145E-09 -1.63020087E-10 -1.56681036E-09
 -5.31638969E-04 -5.67427652E-03  1.19653225E-03 -3.94610530E-03 -1.57894915E-03
  5.57383052E-04 -3.30712156E-03 -1.17078935E-03  3.42190628E-03 -1.97604868E-03
  8.56454866E-03 -2.11488751E-09  3.14996478E-09  1.57491956E-11 -6.38580175E-12
 -2.65935267E-10  2.09617068E-09  2.51480475E-10 -3.17990926E-09 -1.53661140E-11
 -3.21350845E-12  1.15353516E-10 -1.17085173E-10 -6.99510804E-10  2.48502386E-10
  4.32345802E-10 -5.11246727E-10 -4.04505187E-09  3.85161118E-09  5.19920426E-10
 -3.78082265E-09  3.94762876E-09  6.81078832E-10 -2.34638963E-10 -4.27793683E-10
 -1.25545534E-09 -6.51379899E-11  1.34536584E-09  1.26519736E-09  4.31626155E-11
 -1.33258564E-09  1.70115417E-03 -3.94651473E-03  2.73040774E-03 -2.91726116E-03
 -1.41546813E-04  5.76152907E-05 -1.17080109E-03 -9.71638985E-04 -2.48108050E-03
  3.16456385E-03  3.16659370E-03  8.81223805E-03 -1.73037360E-09  3.51131743E-09
  1.33923836E-10 -1.10354915E-09 -5.76214607E-11 -8.70880881E-10  1.52037196E-10
 -2.86643826E-09 -1.31128369E-10  2.14354119E-09  2.68256999E-10  1.76163878E-11
 -1.38290745E-09  4.19183185E-10  9.37678191E-10 -5.63006490E-10 -8.25032555E-10
  1.10944909E-09  2.09110308E-09 -5.95999066E-10 -7.77073560E-10 -1.04390576E-10
  1.38696950E-10 -1.41327753E-10 -1.32593710E-09 -1.14757457E-10  1.71933000E-09
  7.21887304E-10 -5.32734038E-10 -1.43100981E-11  6.54366111E-04 -1.57837400E-03
  2.09082152E-03 -1.41918591E-04  2.23572685E-03  7.98320071E-04  7.99270455E-04
 -6.38136321E-04 -6.43433467E-03 -5.31337888E-04 -4.20159246E-03  1.70140432E-03
  9.32422516E-03 -2.30285887E-09  2.87227795E-09  3.48351588E-11 -1.13436971E-09
  4.91349614E-12 -3.73779917E-11 -1.54792127E-11 -1.70939370E-09 -6.48234987E-11
  2.14538480E-09  8.28328922E-11  9.82282093E-11  3.28099568E-11 -2.75325297E-10
  2.51588443E-10 -8.89098234E-10  4.00140728E-10  2.97630355E-10  1.79904772E-09
  7.05199217E-10 -1.84764662E-09  2.63525867E-10 -6.97848462E-10  5.27569561E-10
 -1.54583811E-09 -1.27102071E-09  3.03249222E-09  2.53086859E-10  6.98380537E-10
 -6.91609020E-10  2.09100333E-03  5.57625015E-04  1.59061664E-03  5.72383232E-05
  7.99270455E-04 -1.33705661E-03  1.29965749E-03 -8.36669575E-04 -4.20160107E-03
  1.19637269E-03 -2.66822131E-03  2.72975244E-03  3.42193295E-03  8.56455815E-03
 -1.23086154E-09  2.68125725E-09  7.57860518E-11 -6.71316514E-10 -1.06840205E-10
 -1.10429252E-09 -2.74888308E-10 -2.04289107E-09 -3.58877425E-10 -7.01179537E-10
  3.02959238E-10 -1.10680474E-10 -1.17732460E-09  3.48278183E-10  7.90327394E-10
 -3.24890491E-10 -1.93782247E-09  2.04713844E-09  6.47462068E-10 -5.31298189E-09
  4.04022156E-09  8.45198614E-10 -2.66660054E-10 -6.76402748E-10 -1.24191508E-09
  1.16067975E-09  2.72661721E-10  9.26659594E-10 -7.84245939E-10 -2.03204553E-10
 -1.57843392E-03 -3.30614113E-03  5.56941293E-04 -1.17076591E-03  7.98320071E-04
  1.29808938E-03 -1.33705661E-03 -8.37287305E-04 -5.31329670E-04 -5.67196628E-03
  1.19637916E-03 -3.94425746E-03  3.42121015E-03 -1.97605747E-03  8.56186263E-03
 -1.80334688E-09  2.04221778E-09 -2.33026353E-11 -7.02136989E-10 -4.43052217E-11
 -2.70789582E-10 -4.42404682E-10 -8.85846547E-10 -2.92572548E-10 -6.99335885E-10
  1.17535134E-10 -3.00686808E-11  2.38392811E-10 -3.46230296E-10  1.04237645E-10
 -6.50982238E-10 -7.12649216E-10  1.23531974E-09  3.55406704E-10 -4.01178359E-09
  2.96964849E-09  1.21311505E-09 -1.10320545E-09 -7.50544481E-12 -1.46181609E-09
  4.41648986E-12  1.58582395E-09  4.57859169E-10  4.46868615E-10 -8.80503474E-10
 -1.41796703E-04 -1.17014211E-03  5.67364147E-05 -9.71608995E-04 -6.38136321E-04
 -8.37287305E-04 -8.36669575E-04 -1.03582056E-03  1.70140394E-03 -3.94425571E-03
  2.72975031E-03 -2.91590933E-03 -2.48108206E-03  3.16656773E-03  3.16459501E-03
  8.81224481E-03 -3.52166977E-09  1.73457341E-09 -1.34419204E-10 -2.16236416E-09
 -1.87731398E-11  2.85853502E-09 -2.66334215E-10  8.73383962E-10  1.30638283E-10
  1.10820592E-09 -1.58036811E-10  5.47082903E-11  1.38998570E-09 -9.43230057E-10
 -4.20706287E-10 -7.31244194E-10  5.46988303E-10  4.99922381E-12  1.33615144E-09
 -1.69643660E-09  8.86906984E-11  1.11326874E-10  1.47422269E-10 -1.51724437E-10
 -2.10843671E-09  7.91316299E-10  5.80638014E-10  5.65454945E-10  7.98864539E-10
 -1.09272634E-09  2.23551749E-03  7.98877212E-04  7.98881254E-04 -6.37759023E-04
  6.54366111E-04 -1.57843392E-03  2.09100333E-03 -1.41796703E-04  6.54364268E-04
 -1.57843968E-03  2.09100589E-03 -1.41798050E-04 -6.43413639E-03 -5.31660712E-04
 -4.20132555E-03  1.70115013E-03  9.32402418E-03 -2.66426110E-09  1.21285105E-09
 -7.42814162E-11  7.07867880E-10  1.10419587E-10  2.03928650E-09 -3.01525403E-10
  1.08769042E-09  3.62762105E-10  7.43725944E-10  2.83574671E-10  1.07186271E-10
  1.16168645E-09 -7.85244845E-10 -3.37711302E-10 -9.21501684E-10  7.94033438E-10
  1.89881654E-10  1.25557613E-09 -2.76398127E-10 -1.16575595E-09 -8.48917797E-10
  6.79228281E-10  2.67558826E-10 -6.57060348E-10 -4.15027756E-09  5.44898534E-09
  3.35044317E-10  1.88037596E-09 -2.00525828E-09  7.98877212E-04  1.29908520E-03
 -1.33712034E-03 -8.36912346E-04 -1.57837400E-03 -3.30614113E-03  5.57625015E-04
 -1.17014211E-03  2.09082304E-03  5.56947915E-04  1.59061458E-03  5.67394562E-05
 -4.20103173E-03  1.19651842E-03 -2.66715187E-03  2.73039828E-03  3.42153650E-03
  8.56397573E-03 -2.89565778E-09  2.32003583E-09 -3.53323243E-11 -2.13360854E-09
 -9.88282818E-11  1.68125391E-09 -8.26378014E-11  6.00739778E-11  6.43642303E-11
  1.10852467E-09  1.12141739E-11 -8.38191083E-12 -2.57215478E-11 -2.55500385E-10
  2.72152133E-10 -2.61938568E-10 -7.13545974E-10  7.08965128E-10  1.54943387E-09
 -2.98133277E-09  1.22173454E-09 -2.56579678E-10 -5.27642806E-10  6.90978981E-10
 -1.80977446E-09  1.88512979E-09 -7.48835743E-10  8.91033456E-10 -3.96875271E-10
 -3.07580190E-10  7.98881254E-04 -1.33712034E-03  1.29908579E-03 -8.36915800E-04
  2.09082152E-03  5.56941293E-04  1.59061664E-03  5.67364146E-05 -1.57836781E-03
 -3.30614907E-03  5.57635791E-04 -1.17014547E-03 -5.31848231E-04 -5.67428239E-03
  1.19593836E-03 -3.94649579E-03  3.42155255E-03 -1.97600995E-03  8.56398318E-03
 -2.03824905E-09  1.79831355E-09  2.48054376E-11  7.36623451E-10  3.03644919E-11
  8.62005402E-10 -1.17828996E-10  2.74380386E-10  2.96488042E-10  7.44044608E-10
  4.52825649E-10  4.40960432E-11 -2.54020806E-10 -9.75151576E-11  3.55147111E-10
 -4.52196108E-10 -4.66500793E-10  8.93847562E-10  1.46885859E-09 -1.56129433E-09
 -3.27121186E-11 -1.21682432E-09  4.16320319E-12  1.11026222E-09 -3.58398107E-10
 -3.05646405E-09  4.11951158E-09  6.60622845E-10  6.84636181E-10 -1.22011218E-09
 -6.37759023E-04 -8.36912346E-04 -8.36915800E-04 -1.03606912E-03 -1.41918591E-04
 -1.17076591E-03  5.72383232E-05 -9.71608995E-04 -1.41909034E-04 -1.17076148E-03
  5.72444775E-05 -9.71607964E-04  1.70125643E-03 -3.94610326E-03  2.73011205E-03
 -2.91724764E-03 -2.48093513E-03  3.16642928E-03  3.16642068E-03  8.81378509E-03
 -1.14462765E-09 -9.78743523E-10 -1.94992491E-10  1.24632285E-11  1.61674774E-10
  1.15674086E-09 -1.60000232E-10  9.78310140E-10  1.96004467E-10  1.25120318E-12
  1.81264634E-11 -1.16173146E-11  1.85925254E-09 -9.38772409E-10 -8.79995822E-10
 -4.00734251E-10  6.87154311E-10 -1.07186041E-10  4.03830004E-10  9.66523439E-11
 -6.75324759E-10 -1.87308727E-09  9.41910998E-10  8.90685346E-10  1.70692513E-09
  1.93060849E-10 -1.16352702E-09 -1.69617300E-09 -1.81031988E-10  1.15917575E-09
  6.54364268E-04  2.09082304E-03 -1.57836781E-03 -1.41909034E-04 -6.43433467E-03
 -5.31329670E-04 -4.20160107E-03  1.70140394E-03  2.23572532E-03  7.98329185E-04
  7.99265196E-04 -6.38130936E-04  6.54157605E-04 -1.57894080E-03  2.09155818E-03
 -1.41540234E-04 -6.43413220E-03 -5.31832460E-04 -4.20103532E-03  1.70126442E-03
  9.32421156E-03 -1.95415597E-09  1.56023883E-09 -7.57920194E-11  2.49834070E-09
  2.44534215E-10  2.34559478E-09 -3.17041080E-11  4.64791260E-10  1.36580109E-10
 -2.73655435E-09  1.75888137E-10  4.15303371E-10  1.43829270E-09 -5.13146396E-10
 -8.93819162E-10 -1.44564937E-09  1.35262643E-10  1.57682953E-09  1.99055924E-10
  3.30877061E-10 -4.69142062E-10 -1.11777159E-09  8.51902108E-10  2.38051459E-10
  9.40202992E-10  1.41529127E-09 -1.68205055E-09 -2.52558121E-10  5.14131966E-09
 -4.26346621E-09 -1.57843968E-03  5.56947915E-04 -3.30614907E-03 -1.17076148E-03
 -5.31337888E-04 -5.67196628E-03  1.19637269E-03 -3.94425571E-03  7.98329185E-04
  1.29809717E-03 -1.33706041E-03 -8.37292425E-04  2.09155994E-03  5.57379665E-04
  1.59179041E-03  5.76101348E-05 -4.20133906E-03  1.19592933E-03 -2.66715983E-03
  2.73010856E-03  3.42122479E-03  8.56183731E-03 -2.37038102E-09 -4.42811616E-10
 -1.34566530E-10 -2.48909104E-09  3.24940612E-11  1.96111074E-09 -2.45381316E-10
 -1.60136876E-09  7.51735799E-11  2.73141967E-09 -4.23697085E-10 -1.75440317E-10
  1.10203860E-09 -8.53419679E-10 -2.20815567E-10 -2.10540228E-10  4.86753690E-10
 -3.38649748E-10  1.46997150E-09 -1.56681039E-09 -1.63020104E-10 -1.45482651E-09
  5.22354702E-10  9.01136283E-10  2.55475427E-10 -5.26728224E-09  4.37013464E-09
 -9.23694428E-10 -1.37472287E-09  1.64181927E-09  2.09100589E-03  1.59061458E-03
  5.57635791E-04  5.72444775E-05 -4.20159246E-03  1.19637916E-03 -2.66822131E-03
  2.72975031E-03  7.99265196E-04 -1.33706041E-03  1.29965698E-03 -8.36668629E-04
 -1.57894915E-03 -3.30712156E-03  5.57383052E-04 -1.17078935E-03 -5.31638969E-04
 -5.67427652E-03  1.19653225E-03 -3.94610530E-03  3.42190628E-03 -1.97604868E-03
  8.56454866E-03 -3.17990925E-09  2.09617070E-09 -1.53660733E-11 -3.21353048E-12
  1.15353500E-10  3.14996464E-09 -1.17085189E-10 -2.11488746E-09  1.57492346E-11
 -6.38577705E-12 -2.65935302E-10  2.51480400E-10  6.81078789E-10 -4.27793665E-10
 -2.34638936E-10 -1.25545532E-09 -6.51379930E-11  1.34536581E-09  1.26519740E-09
 -1.33258566E-09  4.31625970E-11 -6.99510814E-10  4.32345779E-10  2.48502419E-10
 -5.11246725E-10 -4.04505181E-09  3.85161112E-09  5.19920422E-10  3.94762877E-09
 -3.78082265E-09 -1.41798050E-04  5.67394562E-05 -1.17014547E-03 -9.71607964E-04
  1.70140432E-03 -3.94425746E-03  2.72975244E-03 -2.91590933E-03 -6.38130936E-04
 -8.37292425E-04 -8.36668629E-04 -1.03583012E-03 -1.41546813E-04 -1.17080109E-03
  5.76152907E-05 -9.71638985E-04  1.70115417E-03 -3.94651473E-03  2.73040774E-03
 -2.91726116E-03 -2.48108050E-03  3.16456385E-03  3.16659370E-03  8.81223805E-03
Mulliken Charges                           R   N=          12
 -1.28428817E-01 -1.28428343E-01 -1.28426577E-01 -1.28428817E-01 -1.28428343E-01
 -1.28426577E-01  1.28428047E-01  1.28428207E-01  1.28427483E-01  1.28428047E-01
  1.28428207E-01  1.28427483E-01
Optimization MaxStp                        I                2
Optimization Job offset                    I                0
Optimization Num results per geometry      I                2
Optimization Num geometry variables        I               36
Opt point       1 Results for each geome   R   N=           2
 -2.32267552E+02  0.00000000E+00
Opt point       1 Geometries               R   N=          36
  2.28415472E+00 -1.31875514E+00 -8.56751912E-08  2.28415472E+00  1.31875933E+00
  0.00000000E+00 -2.60406984E-07  2.63751636E+00  0.00000000E+00 -2.28415472E+00
  1.31875514E+00 -8.56751912E-08 -2.28415472E+00 -1.31875933E+00  0.00000000E+00
  2.60406984E-07 -2.63751636E+00  0.00000000E+00  4.06231026E+00 -2.34537074E+00
 -1.81837385E-07  4.06230989E+00  2.34537595E+00  3.22888028E-07  3.71612102E-06
  4.69075165E+00  3.16447254E-07 -4.06231026E+00  2.34537074E+00 -1.81837385E-07
 -4.06230989E+00 -2.34537595E+00  3.22888028E-07 -3.71612102E-06 -4.69075165E+00
  3.16447254E-07
Opt point       1 Gradient at each geome   R   N=          36
 -2.25081099E-04  1.31090613E-04  2.19109611E-09 -2.25229319E-04 -1.30192977E-04
 -5.86389975E-09  2.39241361E-07 -2.59341955E-04 -5.56859746E-09  2.25081099E-04
 -1.31090613E-04  2.19109611E-09  2.25229319E-04  1.30192977E-04 -5.86389975E-09
 -2.39241382E-07  2.59341955E-04 -5.56859746E-09 -6.62622841E-05  3.85097722E-05
 -3.55901367E-09 -6.61878302E-05 -3.84372681E-05  6.49101363E-09  3.70148170E-07
 -7.67134930E-05  6.30940115E-09  6.62622841E-05 -3.85097722E-05 -3.55901367E-09
  6.61878302E-05  3.84372681E-05  6.49101363E-09 -3.70148170E-07  7.67134930E-05
  6.30940115E-09
Optimization Number of geometries          I   N=           1
           1
ONIOM Charges                              I   N=          16
           0           0           0           0           0           0
           0           0           0           0           0           0
           0           0           0           0
ONIOM Multiplicities                       I   N=          16
           1           0           0           0           0           0
           0           0           0           0           0           0
           0           0           0           0
Atom Layers                                I   N=          12
           1           1           1           1           1           1
           1           1           1           1           1           1
Atom Modifiers                             I   N=          12
           0           0           0           0           0           0
           0           0           0           0           0           0
Force Field                                I                0
Atom Modified Types                        C   N=          12
                                                            
                                                            
                        
Int Atom Modified Types                    I   N=          12
           0           0           0           0           0           0
           0           0           0           0           0           0
Link Atoms                                 I   N=          12
           0           0           0           0           0           0
           0           0           0           0           0           0
Atom Modified MM Charges                   R   N=          12
  0.00000000E+00  0.00000000E+00  0.00000000E+00  0.00000000E+00  0.00000000E+00
  0.00000000E+00  0.00000000E+00  0.00000000E+00  0.00000000E+00  0.00000000E+00
  0.00000000E+00  0.00000000E+00
Link Distances                             R   N=          48
  0.00000000E+00  0.00000000E+00  0.00000000E+00  0.00000000E+00  0.00000000E+00
  0.00000000E+00  0.00000000E+00  0.00000000E+00  0.00000000E+00  0.00000000E+00
  0.00000000E+00  0.00000000E+00  0.00000000E+00  0.00000000E+00  0.00000000E+00
  0.00000000E+00  0.00000000E+00  0.00000000E+00  0.00000000E+00  0.00000000E+00
  0.00000000E+00  0.00000000E+00  0.00000000E+00  0.00000000E+00  0.00000000E+00
  0.00000000E+00  0.00000000E+00  0.00000000E+00  0.00000000E+00  0.00000000E+00
  0.00000000E+00  0.00000000E+00  0.00000000E+00  0.00000000E+00  0.00000000E+00
  0.00000000E+00  0.00000000E+00  0.00000000E+00  0.00000000E+00  0.00000000E+00
  0.00000000E+00  0.00000000E+00  0.00000000E+00  0.00000000E+00  0.00000000E+00
  0.00000000E+00  0.00000000E+00  0.00000000E+00
Cartesian Gradient                         R   N=          36
 -2.25081099E-04  1.31090613E-04  2.19109611E-09 -2.25229319E-04 -1.30192977E-04
 -5.86389975E-09  2.39241361E-07 -2.59341955E-04 -5.56859746E-09  2.25081099E-04
 -1.31090613E-04  2.19109611E-09  2.25229319E-04  1.30192977E-04 -5.86389975E-09
 -2.39241382E-07  2.59341955E-04 -5.56859746E-09 -6.62622841E-05  3.85097722E-05
 -3.55901367E-09 -6.61878302E-05 -3.84372681E-05  6.49101363E-09  3.70148170E-07
 -7.67134930E-05  6.30940115E-09  6.62622841E-05 -3.85097722E-05 -3.55901367E-09
  6.61878302E-05  3.84372681E-05  6.49101363E-09 -3.70148170E-07  7.67134930E-05
  6.30940115E-09
Cartesian Force Constants                  R   N=         666
  7.29052309E-01 -3.03156461E-02  6.94068177E-01 -2.00703537E-08  1.17292797E-08
  1.31069397E-01 -1.29748170E-01 -3.34125009E-02 -3.39030516E-09  7.29053919E-01
  3.34124350E-02 -3.43007338E-01 -1.07852734E-08  3.03146017E-02  6.94068522E-01
 -5.95942198E-09 -1.78335161E-08 -6.07556444E-02  4.42962999E-08  4.65638829E-08
  1.31069281E-01  3.49188219E-02  7.86648315E-02  5.51178976E-10 -2.89713899E-01
  5.89153289E-02 -4.17210734E-09  6.76629732E-01  2.88786214E-02 -2.71465935E-02
 -5.75295735E-10  1.25744481E-01 -1.83068259E-01 -4.53647797E-09 -4.29271204E-07
  7.46524317E-01  2.18121328E-09 -9.71370953E-10  7.99005661E-03 -1.93998165E-09
 -5.77660834E-09 -6.07524259E-02  1.83123001E-08  6.05858795E-08  1.31058444E-01
 -1.85059299E-02 -2.95461521E-02 -8.66573393E-10 -5.81803440E-02  2.48957188E-02
 -1.95122046E-09 -2.89712025E-01 -1.25743542E-01 -1.24491136E-08  7.29052309E-01
 -2.95461521E-02 -5.26371734E-02  5.21449734E-10 -2.48958040E-02  6.59727019E-02
  1.47392190E-09 -5.89145583E-02 -1.83068119E-01 -1.40333668E-08 -3.03156461E-02
  6.94068177E-01  8.66573393E-10 -5.21449734E-10 -8.66694259E-03 -7.85853807E-10
  2.51328663E-10  7.99506920E-03 -7.57099348E-09 -8.30356467E-09 -6.07525056E-02
  2.00703537E-08 -1.17292797E-08  1.31069397E-01 -5.81803440E-02 -2.48958040E-02
  7.85853807E-10 -1.85059066E-02  2.95462036E-02  1.62544933E-10  3.49189310E-02
 -2.88784874E-02 -3.11719964E-09 -1.29748170E-01 -3.34125009E-02  3.39030516E-09
  7.29053919E-01  2.48957188E-02  6.59727019E-02 -2.51328663E-10  2.95462036E-02
 -5.26371158E-02  3.00237114E-10 -7.86647069E-02 -2.71465573E-02  2.37547375E-09
  3.34124350E-02 -3.43007338E-01  1.07852734E-08  3.03146017E-02  6.94068522E-01
  1.95122046E-09 -1.47392190E-09  7.99506920E-03 -1.62544933E-10 -3.00237114E-10
 -8.66699244E-03 -3.61556016E-09  1.54317216E-09  7.98999211E-03  5.95942198E-09
  1.78335161E-08 -6.07556444E-02 -4.42962999E-08 -4.65638829E-08  1.31069281E-01
 -2.89712025E-01 -5.89145583E-02  7.57099348E-09  3.49189310E-02 -7.86647069E-02
  3.61556016E-09 -6.96892991E-02 -4.18100222E-08  1.93736211E-10  3.49188219E-02
  7.86648315E-02 -5.51178976E-10 -2.89713899E-01  5.89153289E-02  4.17210734E-09
  6.76629732E-01 -1.25743542E-01 -1.83068119E-01  8.30356467E-09 -2.88784874E-02
 -2.71465573E-02 -1.54317216E-09 -4.18100232E-08 -1.46700367E-03  2.70874427E-10
  2.88786214E-02 -2.71465935E-02  5.75295735E-10  1.25744481E-01 -1.83068259E-01
  4.53647797E-09 -4.29271227E-07  7.46524317E-01  1.24491136E-08  1.40333668E-08
 -6.07525056E-02  3.11719964E-09 -2.37547375E-09  7.98999211E-03 -1.93736211E-10
 -2.70874427E-10 -8.66302465E-03 -2.18121328E-09  9.71370953E-10  7.99005661E-03
  1.93998165E-09  5.77660834E-09 -6.07524259E-02 -1.83123001E-08 -6.05858795E-08
  1.31058444E-01 -2.68965026E-01  1.20329627E-01  1.09262994E-08  3.69973878E-03
 -1.93948454E-03 -3.15700660E-11  1.56177855E-03 -4.07797225E-04  2.38845161E-10
  2.59575961E-04 -9.43052990E-04  7.58106748E-12 -2.88720637E-03 -4.40607143E-03
  1.06122662E-09 -1.92789703E-02  1.65919461E-02  6.96120947E-11  2.84741723E-01
  1.20329297E-01 -1.30023495E-01 -6.32054425E-09  2.98586580E-02 -1.08187882E-02
 -1.00687128E-10 -1.83744817E-03 -5.66600065E-03 -1.08267837E-09 -9.43346781E-04
 -8.29743850E-04 -7.03105983E-12 -2.97600070E-03 -1.21716313E-03  3.40385194E-10
 -1.52059379E-02  1.21595492E-02  7.05993488E-11 -1.30166461E-01  1.34440839E-01
  1.25160594E-08 -7.28710365E-09 -3.55846824E-02 -2.61819026E-10  7.90605019E-10
  2.42010270E-03 -2.15388856E-10 -5.37694684E-10  7.04886422E-03 -4.41668304E-10
  2.38383468E-10 -2.33215407E-04  3.38621458E-10  4.66002442E-10  7.04920189E-03
 -7.60074827E-10 -1.50426634E-10  2.41916479E-03 -1.17548681E-08  6.79693656E-09
  2.53896170E-02  3.69975842E-03  1.93949758E-03  3.91022735E-10 -2.68964799E-01
 -1.20329597E-01 -3.79237008E-08 -1.92789432E-02 -1.65919763E-02 -2.98650195E-09
 -2.88720405E-03  4.40607252E-03 -1.00876578E-09  2.59570396E-04  9.43047063E-04
  1.00478672E-10  1.56177327E-03  4.07812938E-04 -1.05696705E-09  8.67677110E-04
 -3.72911559E-04  6.39368905E-10  2.84741457E-01 -2.98586083E-02 -1.08188004E-02
 -3.43821639E-09 -1.20329318E-01 -1.30023601E-01 -2.36822144E-08  1.52059089E-02
  1.21595264E-02  1.88565849E-09  2.97599264E-03 -1.21715146E-03 -6.06707662E-10
  9.43345287E-04 -8.29741179E-04 -8.83936052E-11  1.83744931E-03 -5.66598288E-03
 -6.81743883E-10  3.72909786E-04  1.06792870E-03  4.13169373E-10  1.30166449E-01
  1.34440919E-01 -4.62614161E-10  2.93159008E-09  2.42008046E-03 -4.06283984E-08
 -2.86576460E-08 -3.55846936E-02 -1.35163702E-09  3.02910396E-10  2.41917402E-03
  1.17618552E-09  7.06258462E-10  7.04919166E-03  1.03543626E-09 -1.04168318E-09
 -2.33212275E-04 -6.08543745E-10 -5.10399827E-10  7.04885436E-03 -8.60340926E-11
  2.92167607E-10 -3.92777877E-03  4.12273552E-08  2.51760229E-08  2.53896533E-02
 -4.83113248E-03  1.85364539E-03 -2.56404282E-11  4.89929613E-03  2.91661481E-02
  3.07432096E-09 -6.05438392E-02 -5.87915597E-07 -1.54895769E-09  4.89936637E-03
 -2.91659600E-02 -3.12580800E-09 -4.83113073E-03 -1.85362372E-03 -5.03604643E-11
 -1.37406078E-03  1.31222470E-09 -1.28340991E-10  9.89948945E-05  1.58349386E-03
 -1.04898334E-10  1.01817018E-03 -4.59799772E-04  1.91652864E-10  5.92829448E-02
  3.28343867E-03  7.26849489E-04 -1.15069578E-09 -2.63177772E-03 -1.20195343E-02
 -1.61940696E-09 -4.02599121E-07 -3.38419306E-01 -4.38230926E-08  2.63179235E-03
 -1.20193139E-02 -1.35297985E-09 -3.28340106E-03  7.26874265E-04 -1.22884668E-09
  6.22813033E-09  8.04428958E-04  4.17335765E-11 -1.77272292E-04 -7.12818242E-04
 -8.54975314E-11  2.85989112E-04  9.17886498E-04  8.71059617E-10  3.51721580E-07
  3.59875049E-01  2.79760325E-11  1.38164861E-09  7.04913004E-03  9.85758557E-10
 -1.07929563E-09  2.42019030E-03 -4.54571515E-09 -4.84995430E-08 -3.55731380E-02
  2.76521307E-09  1.04368253E-09  2.42006404E-03 -1.44712182E-10 -7.93900278E-10
  7.04913272E-03 -1.43303026E-09  3.69437772E-10 -2.33456243E-04  4.32826465E-11
  1.52502989E-10  3.52253195E-04  6.70904998E-10  6.07188658E-10 -3.92798019E-03
  1.18617997E-09  4.73625582E-08  2.53773857E-02  2.59575961E-04 -9.43052990E-04
 -7.58106748E-12 -2.88720637E-03 -4.40607143E-03 -1.06122662E-09 -1.92789703E-02
  1.65919461E-02 -6.96120947E-11 -2.68965026E-01  1.20329627E-01 -1.09262994E-08
  3.69973878E-03 -1.93948454E-03  3.15700660E-11  1.56177855E-03 -4.07797225E-04
 -2.38845161E-10  2.21596140E-06  1.51246845E-04  6.63549386E-11 -1.11867582E-03
  8.80407472E-04  1.09426002E-10  1.01817509E-03 -2.85997297E-04  2.98226444E-10
  2.84741723E-01 -9.43346781E-04 -8.29743850E-04  7.03105983E-12 -2.97600070E-03
 -1.21716313E-03 -3.40385194E-10 -1.52059379E-02  1.21595492E-02 -7.05993488E-11
  1.20329297E-01 -1.30023495E-01  6.32054425E-09  2.98586580E-02 -1.08187882E-02
  1.00687128E-10 -1.83744817E-03 -5.66600065E-03  1.08267837E-09  1.51246845E-04
  1.76881957E-04 -3.90588164E-11 -8.80409692E-04  5.04940660E-04  1.10680913E-10
  4.59820923E-04  9.17868752E-04  6.97490870E-11 -1.30166461E-01  1.34440839E-01
  4.41668304E-10 -2.38383468E-10 -2.33215407E-04 -3.38621458E-10 -4.66002442E-10
  7.04920189E-03  7.60074827E-10  1.50426634E-10  2.41916479E-03 -1.25160594E-08
  7.28710365E-09 -3.55846824E-02  2.61819026E-10 -7.90605019E-10  2.42010270E-03
  2.15388856E-10  5.37694684E-10  7.04886422E-03 -6.63549386E-11  3.90588164E-11
 -1.35779112E-03 -1.71424145E-11 -1.39374528E-10  3.52247042E-04  3.83964396E-11
  7.44828125E-10 -3.92798318E-03  1.17548681E-08 -6.79693656E-09  2.53896170E-02
 -2.88720405E-03  4.40607252E-03  1.00876578E-09  2.59570396E-04  9.43047063E-04
 -1.00478672E-10  1.56177327E-03  4.07812938E-04  1.05696705E-09  3.69975842E-03
  1.93949758E-03 -3.91022735E-10 -2.68964799E-01 -1.20329597E-01  3.79237008E-08
 -1.92789432E-02 -1.65919763E-02  2.98650195E-09 -1.11867582E-03 -8.80409692E-04
  1.71424145E-11  2.21646565E-06 -1.51246738E-04 -1.76181768E-10  9.89989679E-05
  1.77272705E-04  2.12058443E-10  8.67677110E-04 -3.72911559E-04 -6.39368905E-10
  2.84741457E-01  2.97599264E-03 -1.21715146E-03  6.06707662E-10  9.43345287E-04
 -8.29741179E-04  8.83936052E-11  1.83744931E-03 -5.66598288E-03  6.81743883E-10
 -2.98586083E-02 -1.08188004E-02  3.43821639E-09 -1.20329318E-01 -1.30023601E-01
  2.36822144E-08  1.52059089E-02  1.21595264E-02 -1.88565849E-09  8.80407472E-04
  5.04940660E-04  1.39374528E-10 -1.51246738E-04  1.76882494E-04 -1.77515203E-10
 -1.58348995E-03 -7.12807335E-04 -3.77104512E-10  3.72909786E-04  1.06792870E-03
 -4.13169373E-10  1.30166449E-01  1.34440919E-01 -1.17618552E-09 -7.06258462E-10
  7.04919166E-03 -1.03543626E-09  1.04168318E-09 -2.33212275E-04  6.08543745E-10
  5.10399827E-10  7.04885436E-03  4.62614161E-10 -2.93159008E-09  2.42008046E-03
  4.06283984E-08  2.86576460E-08 -3.55846936E-02  1.35163702E-09 -3.02910396E-10
  2.41917402E-03 -1.09426002E-10 -1.10680913E-10  3.52247042E-04  1.76181768E-10
  1.77515203E-10 -1.35779760E-03  4.27691341E-10  4.35977311E-12  3.52261448E-04
  8.60340926E-11 -2.92167607E-10 -3.92777877E-03 -4.12273552E-08 -2.51760229E-08
  2.53896533E-02  4.89936637E-03 -2.91659600E-02  3.12580800E-09 -4.83113073E-03
 -1.85362372E-03  5.03604643E-11 -1.37406078E-03  1.31222639E-09  1.28340991E-10
 -4.83113248E-03  1.85364539E-03  2.56404282E-11  4.89929613E-03  2.91661481E-02
 -3.07432096E-09 -6.05438392E-02 -5.87915595E-07  1.54895769E-09  1.01817509E-03
  4.59820923E-04 -3.83964396E-11  9.89989679E-05 -1.58348995E-03 -4.27691341E-10
  2.64216913E-04  1.27573499E-10 -6.60882066E-11  9.89948945E-05  1.58349386E-03
  1.04898334E-10  1.01817018E-03 -4.59799772E-04 -1.91652864E-10  5.92829448E-02
  2.63179235E-03 -1.20193139E-02  1.35297985E-09 -3.28340106E-03  7.26874265E-04
  1.22884668E-09  6.22813198E-09  8.04428958E-04 -4.17335765E-11  3.28343867E-03
  7.26849489E-04  1.15069578E-09 -2.63177772E-03 -1.20195343E-02  1.61940696E-09
 -4.02599119E-07 -3.38419306E-01  4.38230926E-08 -2.85997297E-04  9.17868752E-04
 -7.44828125E-10  1.77272705E-04 -7.12807335E-04 -4.35977311E-12  1.27573501E-10
 -8.51774602E-05 -2.37140821E-10 -1.77272292E-04 -7.12818242E-04  8.54975314E-11
  2.85989112E-04  9.17886498E-04 -8.71059617E-10  3.51721552E-07  3.59875049E-01
 -2.76521307E-09 -1.04368253E-09  2.42006404E-03  1.44712182E-10  7.93900278E-10
  7.04913272E-03  1.43303026E-09 -3.69437772E-10 -2.33456243E-04 -2.79760325E-11
 -1.38164861E-09  7.04913004E-03 -9.85758557E-10  1.07929563E-09  2.42019030E-03
  4.54571515E-09  4.84995430E-08 -3.55731380E-02 -2.98226444E-10 -6.97490870E-11
 -3.92798318E-03 -2.12058443E-10  3.77104512E-10  3.52261448E-04  6.60882066E-11
  2.37140821E-10 -1.35785992E-03 -4.32826465E-11 -1.52502989E-10  3.52253195E-04
 -6.70904998E-10 -6.07188658E-10 -3.92798019E-03 -1.18617997E-09 -4.73625582E-08
  2.53773857E-02
Nonadiabatic coupling                      R   N=          36
 -0.00000000E+00  0.00000000E+00  0.00000000E+00 -0.00000000E+00  0.00000000E+00
  0.00000000E+00 -0.00000000E+00  0.00000000E+00  0.00000000E+00 -0.00000000E+00
  0.00000000E+00  0.00000000E+00 -0.00000000E+00  0.00000000E+00  0.00000000E+00
 -0.00000000E+00  0.00000000E+00  0.00000000E+00 -0.00000000E+00  0.00000000E+00
  0.00000000E+00 -0.00000000E+00  0.00000000E+00  0.00000000E+00 -0.00000000E+00
  0.00000000E+00  0.00000000E+00 -0.00000000E+00  0.00000000E+00  0.00000000E+00
 -0.00000000E+00  0.00000000E+00  0.00000000E+00 -0.00000000E+00  0.00000000E+00
  0.00000000E+00
Dipole Moment                              R   N=           3
  1.02489219E-14  5.69807771E-15  1.20200211E-07
Dipole Derivatives                         R   N=         108
  8.61473853E-02 -8.83721460E-02 -1.50609247E-08 -8.83457293E-02 -1.59039707E-02
  8.50567187E-09 -7.98754289E-08  4.53756008E-08 -1.10933576E-01  8.61472735E-02
  8.83720877E-02  3.80145079E-08  8.83461018E-02 -1.59031202E-02  1.39014326E-08
  1.02525702E-07  2.32632968E-08 -1.10933633E-01 -6.69367901E-02  5.25879094E-07
 -7.12456317E-09 -3.41732915E-07  1.37171284E-01  3.92277425E-08 -3.17474771E-08
  9.67758176E-08 -1.10935235E-01  8.61473856E-02 -8.83721477E-02  1.50608788E-08
 -8.83457318E-02 -1.59039706E-02 -8.50573641E-09  7.98662451E-08 -4.53788747E-08
 -1.10933576E-01  8.61472757E-02  8.83720901E-02 -3.80149771E-08  8.83461039E-02
 -1.59031203E-02 -1.39010011E-08 -1.02527217E-07 -2.32567474E-08 -1.10933633E-01
 -6.69367893E-02  5.25556127E-07  7.12493187E-09 -3.39921200E-07  1.37171288E-01
 -3.92286210E-08  3.17654360E-08 -9.67778945E-08 -1.10935234E-01 -8.10533521E-02
  7.95666066E-02  8.34803096E-09  7.95614025E-02  1.08157915E-02 -4.80720265E-09
  1.40876696E-08 -8.24441492E-09  1.10933994E-01 -8.10527841E-02 -7.95664397E-02
 -1.40958564E-08 -7.95614643E-02  1.08158489E-02 -9.30919154E-09 -4.19683415E-08
 -3.82419706E-08  1.10934052E-01  5.67482654E-02 -6.34890784E-07 -9.93013420E-10
  3.01182344E-08 -1.26995834E-01 -1.66014843E-08 -1.22564388E-08 -5.39806624E-08
  1.10934398E-01 -8.10533515E-02  7.95666082E-02 -8.34776874E-09  7.95614014E-02
  1.08157903E-02  4.80721036E-09 -1.40886561E-08  8.24623124E-09  1.10933994E-01
 -8.10527813E-02 -7.95664381E-02  1.40957625E-08 -7.95614628E-02  1.08158494E-02
  9.30912664E-09  4.19662714E-08  3.82389638E-08  1.10934052E-01  5.67482646E-02
 -6.35610732E-07  9.92991525E-10  3.11273793E-08 -1.26995835E-01  1.66020530E-08
  1.22522351E-08  5.39806543E-08  1.10934398E-01
Polarizability                             R   N=           6
  7.11891205E+01  3.53511444E-05  7.11901954E+01 -3.61143798E-11 -4.69321034E-11
  2.09544014E+01
Quadrupole Moment                          R   N=           6
  1.77926099E+00  1.77924394E+00 -3.55850493E+00  1.39989406E-05 -2.14310466E-22
  7.48375169E-22
QEq coupling tensors                       R   N=          72
  1.19226127E-01  2.00814639E-02  1.42414584E-01 -1.50495674E-08  9.12515745E-09
 -2.61640711E-01  1.19226710E-01 -2.00824030E-02  1.42414387E-01  6.29226834E-09
  3.25605643E-08 -2.61641097E-01  1.54008946E-01 -4.91751831E-07  1.07631402E-01
  2.54300699E-08  2.12617051E-08 -2.61640348E-01  1.19226127E-01  2.00814639E-02
  1.42414584E-01  1.50495674E-08 -9.12515745E-09 -2.61640711E-01  1.19226710E-01
 -2.00824030E-02  1.42414387E-01 -6.29226834E-09 -3.25605643E-08 -2.61641097E-01
  1.54008946E-01 -4.91751839E-07  1.07631402E-01 -2.54300699E-08 -2.12617051E-08
 -2.61640348E-01 -1.89082037E-01  1.90200350E-01  3.05435697E-02  1.59070616E-08
 -9.18931706E-09  1.58538467E-01 -1.89081715E-01 -1.90200336E-01  3.05433453E-02
 -5.76558304E-08 -3.43948726E-08  1.58538370E-01  1.40355635E-01 -6.33205775E-07
 -2.98894214E-01 -9.63726508E-10 -6.58421863E-08  1.58538579E-01 -1.89082037E-01
  1.90200350E-01  3.05435697E-02 -1.59070616E-08  9.18931706E-09  1.58538467E-01
 -1.89081715E-01 -1.90200336E-01  3.05433453E-02  5.76558304E-08  3.43948726E-08
  1.58538370E-01  1.40355635E-01 -6.33205775E-07 -2.98894214E-01  9.63726508E-10
  6.58421863E-08  1.58538579E-01
Number of Normal Modes                     I               30
Vib-LE2Fix                                 I               14
Vib-NDFDPol                                I                0
Vib-NumROA                                 I                0
Vib-NDim                                   I               12
Vib-NDim0                                  I               12
Vib-LFlags                                 I                8
Vib-IFlags                                 I   N=         240
           0           0           1           0           0           0
           0           0           0           0           2           0
           0           0           0           0           0           0
           3           0           0           0           0           0
           0           0           4           0           0           0
           0           0           0           0           5           0
           0           0           0           0           0           0
           6           0           0           0           0           0
           0           0           7           0           0           0
           0           0           0           0           8           0
           0           0           0           0           0           0
           9           0           0           0           0           0
           0           0          10           0           0           0
           0           0           0           0          11           0
           0           0           0           0           0           0
          12           0           0           0           0           0
           0           0          13           0           0           0
           0           0           0           0          14           0
           0           0           0           0           0           0
          15           0           0           0           0           0
           0           0          16           0           0           0
           0           0           0           0          17           0
           0           0           0           0           0           0
          18           0           0           0           0           0
           0           0          19           0           0           0
           0           0           0           0          20           0
           0           0           0           0           0           0
          21           0           0           0           0           0
           0           0          22           0           0           0
           0           0           0           0          23           0
           0           0           0           0           0           0
          24           0           0           0           0           0
           0           0          25           0           0           0
           0           0           0           0          26           0
           0           0           0           0           0           0
          27           0           0           0           0           0
           0           0          28           0           0           0
           0           0           0           0          29           0
           0           0           0           0           0           0
          30           0           0           0           0           0
Vib-AtMass                                 R   N=          12
  1.20000000E+01  1.20000000E+01  1.20000000E+01  1.20000000E+01  1.20000000E+01
  1.20000000E+01  1.00782504E+00  1.00782504E+00  1.00782504E+00  1.00782504E+00
  1.00782504E+00  1.00782504E+00
Vib-E2                                     R   N=         420
  4.13977710E+02  4.13983131E+02  6.23128388E+02  6.23148419E+02  6.92569739E+02
  7.17498733E+02  8.63396646E+02  8.63524277E+02  9.68491996E+02  9.68599776E+02
  1.01059166E+03  1.02194425E+03  1.02515538E+03  1.07089347E+03  1.07093142E+03
  1.18708230E+03  1.20912843E+03  1.20915370E+03  1.36099424E+03  1.38732325E+03
  1.53306759E+03  1.53308815E+03  1.65930104E+03  1.65930713E+03  3.17760476E+03
  3.18727699E+03  3.18733249E+03  3.20306833E+03  3.20312809E+03  3.21380908E+03
  2.96335542E+00  2.96394089E+00  6.07434404E+00  6.07397145E+00  1.08481595E+00
  3.92184833E+00  1.24771017E+00  1.24771046E+00  1.35480527E+00  1.35468168E+00
  1.21863941E+00  6.55365900E+00  6.02846698E+00  1.69315302E+00  1.69282685E+00
  1.07480627E+00  1.13533273E+00  1.13536445E+00  6.88853106E+00  1.24771028E+00
  2.02650560E+00  2.02696264E+00  5.37077236E+00  5.37176053E+00  1.08344414E+00
  1.08749619E+00  1.08749577E+00  1.09491824E+00  1.09492137E+00  1.09927627E+00
  2.99218100E-01  2.99285055E-01  1.38964754E+00  1.38965164E+00  3.06572565E-01
  1.18955157E+00  5.48005142E-01  5.48167294E-01  7.48719515E-01  7.48817850E-01
  7.33291822E-01  4.03263067E+00  3.73281507E+00  1.14403405E+00  1.14389474E+00
  8.92364019E-01  9.77953555E-01  9.78021744E-01  7.51777631E+00  1.41487895E+00
  2.80621289E+00  2.80692107E+00  8.71239025E+00  8.71405712E+00  6.44549810E+00
  6.50904933E+00  6.50927348E+00  6.61857203E+00  6.61883791E+00  6.68955462E+00
  2.63047970E-06  1.12822716E-08  2.98674653E-15  1.27015077E-14  7.74232219E+01
  1.47368429E-12  5.16279663E-12  1.88852353E-12  8.62118440E-06  6.57646763E-11
  1.96442924E-12  9.02414964E-10  1.94370903E-13  3.30452154E+00  3.30560005E+00
  9.71947309E-09  2.36684931E-14  7.95851798E-15  1.14666365E-09  2.60837488E-17
  6.52028487E+00  6.51730232E+00  2.13860673E-14  1.29834075E-13  1.22503116E-04
  2.59563603E-14  7.08873860E-14  5.20019319E+01  5.19950229E+01  4.04193374E-15
  0.00000000E+00  0.00000000E+00  0.00000000E+00  0.00000000E+00  0.00000000E+00
  0.00000000E+00  0.00000000E+00  0.00000000E+00  0.00000000E+00  0.00000000E+00
  0.00000000E+00  0.00000000E+00  0.00000000E+00  0.00000000E+00  0.00000000E+00
  0.00000000E+00  0.00000000E+00  0.00000000E+00  0.00000000E+00  0.00000000E+00
  0.00000000E+00  0.00000000E+00  0.00000000E+00  0.00000000E+00  0.00000000E+00
  0.00000000E+00  0.00000000E+00  0.00000000E+00  0.00000000E+00  0.00000000E+00
  0.00000000E+00  0.00000000E+00  0.00000000E+00  0.00000000E+00  0.00000000E+00
  0.00000000E+00  0.00000000E+00  0.00000000E+00  0.00000000E+00  0.00000000E+00
  0.00000000E+00  0.00000000E+00  0.00000000E+00  0.00000000E+00  0.00000000E+00
  0.00000000E+00  0.00000000E+00  0.00000000E+00  0.00000000E+00  0.00000000E+00
  0.00000000E+00  0.00000000E+00  0.00000000E+00  0.00000000E+00  0.00000000E+00
  0.00000000E+00  0.00000000E+00  0.00000000E+00  0.00000000E+00  0.00000000E+00
  0.00000000E+00  0.00000000E+00  0.00000000E+00  0.00000000E+00  0.00000000E+00
  0.00000000E+00  0.00000000E+00  0.00000000E+00  0.00000000E+00  0.00000000E+00
  0.00000000E+00  0.00000000E+00  0.00000000E+00  0.00000000E+00  0.00000000E+00
  0.00000000E+00  0.00000000E+00  0.00000000E+00  0.00000000E+00  0.00000000E+00
  0.00000000E+00  0.00000000E+00  0.00000000E+00  0.00000000E+00  0.00000000E+00
  0.00000000E+00  0.00000000E+00  0.00000000E+00  0.00000000E+00  0.00000000E+00
  0.00000000E+00  0.00000000E+00  0.00000000E+00  0.00000000E+00  0.00000000E+00
  0.00000000E+00  0.00000000E+00  0.00000000E+00  0.00000000E+00  0.00000000E+00
  0.00000000E+00  0.00000000E+00  0.00000000E+00  0.00000000E+00  0.00000000E+00
  0.00000000E+00  0.00000000E+00  0.00000000E+00  0.00000000E+00  0.00000000E+00
  0.00000000E+00  0.00000000E+00  0.00000000E+00  0.00000000E+00  0.00000000E+00
  0.00000000E+00  0.00000000E+00  0.00000000E+00  0.00000000E+00  0.00000000E+00
  0.00000000E+00  0.00000000E+00  0.00000000E+00  0.00000000E+00  0.00000000E+00
  0.00000000E+00  0.00000000E+00  0.00000000E+00  0.00000000E+00  0.00000000E+00
  0.00000000E+00  0.00000000E+00  0.00000000E+00  0.00000000E+00  0.00000000E+00
  0.00000000E+00  0.00000000E+00  0.00000000E+00  0.00000000E+00  0.00000000E+00
  0.00000000E+00  0.00000000E+00  0.00000000E+00  0.00000000E+00  0.00000000E+00
  0.00000000E+00  0.00000000E+00  0.00000000E+00  0.00000000E+00  0.00000000E+00
  1.00000000E+02  1.00000000E+02  1.00000000E+02  1.00000000E+02  1.00000000E+02
  1.00000000E+02  1.00000000E+02  1.00000000E+02  1.00000000E+02  1.00000000E+02
  1.00000000E+02  1.00000000E+02  1.00000000E+02  1.00000000E+02  1.00000000E+02
  1.00000000E+02  1.00000000E+02  1.00000000E+02  1.00000000E+02  1.00000000E+02
  1.00000000E+02  1.00000000E+02  1.00000000E+02  1.00000000E+02  1.00000000E+02
  1.00000000E+02  1.00000000E+02  1.00000000E+02  1.00000000E+02  1.00000000E+02
  0.00000000E+00  0.00000000E+00  0.00000000E+00  0.00000000E+00  0.00000000E+00
  0.00000000E+00  0.00000000E+00  0.00000000E+00  0.00000000E+00  0.00000000E+00
  0.00000000E+00  0.00000000E+00  0.00000000E+00  0.00000000E+00  0.00000000E+00
  0.00000000E+00  0.00000000E+00  0.00000000E+00  0.00000000E+00  0.00000000E+00
  0.00000000E+00  0.00000000E+00  0.00000000E+00  0.00000000E+00  0.00000000E+00
  0.00000000E+00  0.00000000E+00  0.00000000E+00  0.00000000E+00  0.00000000E+00
  0.00000000E+00  0.00000000E+00  0.00000000E+00  0.00000000E+00  0.00000000E+00
  0.00000000E+00  0.00000000E+00  0.00000000E+00  0.00000000E+00  0.00000000E+00
  0.00000000E+00  0.00000000E+00  0.00000000E+00  0.00000000E+00  0.00000000E+00
  0.00000000E+00  0.00000000E+00  0.00000000E+00  0.00000000E+00  0.00000000E+00
  0.00000000E+00  0.00000000E+00  0.00000000E+00  0.00000000E+00  0.00000000E+00
  0.00000000E+00  0.00000000E+00  0.00000000E+00  0.00000000E+00  0.00000000E+00
  0.00000000E+00  0.00000000E+00  0.00000000E+00  0.00000000E+00  0.00000000E+00
  0.00000000E+00  0.00000000E+00  0.00000000E+00  0.00000000E+00  0.00000000E+00
  0.00000000E+00  0.00000000E+00  0.00000000E+00  0.00000000E+00  0.00000000E+00
  0.00000000E+00  0.00000000E+00  0.00000000E+00  0.00000000E+00  0.00000000E+00
  0.00000000E+00  0.00000000E+00  0.00000000E+00  0.00000000E+00  0.00000000E+00
  0.00000000E+00  0.00000000E+00  0.00000000E+00  0.00000000E+00  0.00000000E+00
  0.00000000E+00  0.00000000E+00  0.00000000E+00  0.00000000E+00  0.00000000E+00
  0.00000000E+00  0.00000000E+00  0.00000000E+00  0.00000000E+00  0.00000000E+00
  0.00000000E+00  0.00000000E+00  0.00000000E+00  0.00000000E+00  0.00000000E+00
  0.00000000E+00  0.00000000E+00  0.00000000E+00  0.00000000E+00  0.00000000E+00
  0.00000000E+00  0.00000000E+00  0.00000000E+00  0.00000000E+00  0.00000000E+00
  0.00000000E+00  0.00000000E+00  0.00000000E+00  0.00000000E+00  0.00000000E+00
Vib-Modes                                  R   N=        1080
 -1.63180443E-09 -4.69137687E-09 -1.05249382E-01 -3.94370441E-09 -1.31769700E-09
 -1.37572713E-01 -6.20216887E-09 -6.44993626E-09  2.42790728E-01  1.63180451E-09
  4.69137687E-09 -1.05249382E-01  3.94370444E-09  1.31769713E-09 -1.37572713E-01
  6.20216878E-09  6.44993614E-09  2.42790728E-01 -3.27380800E-09  2.63494330E-09
 -2.26111073E-01  2.59570768E-08 -6.26806415E-09 -2.95582343E-01 -3.34010505E-09
 -4.69614955E-08  5.22066892E-01  3.27380781E-09 -2.63494374E-09 -2.26111073E-01
 -2.59570768E-08  6.26806450E-09 -2.95582343E-01  3.34010510E-09  4.69614955E-08
  5.22066892E-01 -2.70469569E-09 -1.18083414E-09  2.19635670E-01  6.30698666E-09
  1.19763662E-08 -2.00971519E-01  3.86002489E-09  1.04052612E-08 -1.86621048E-02
  2.70469560E-09  1.18083417E-09  2.19635670E-01 -6.30698654E-09 -1.19763662E-08
 -2.00971519E-01 -3.86002491E-09 -1.04052613E-08 -1.86621048E-02  7.81488078E-09
 -4.18975545E-09  4.72051158E-01  2.99171421E-08  3.93546411E-08 -4.31948969E-01
  2.59859365E-08  1.34605839E-08 -4.01265486E-02 -7.81488095E-09  4.18975573E-09
  4.72051158E-01 -2.99171418E-08 -3.93546412E-08 -4.31948969E-01 -2.59859367E-08
 -1.34605841E-08 -4.01265486E-02 -2.20448870E-01 -2.77913589E-02 -5.97735254E-09
 -2.25145607E-01  2.32754977E-02  6.70078795E-09 -1.56237254E-03  3.60354634E-01
  9.93296810E-10  2.20448870E-01  2.77913589E-02 -5.97735242E-09  2.25145607E-01
 -2.32754977E-02  6.70078787E-09  1.56237254E-03 -3.60354634E-01  9.93297263E-10
 -5.49812936E-02  2.57837565E-01 -1.99303625E-08 -6.15832691E-02 -2.59018592E-01
 -2.92185479E-08  2.27995859E-03  3.59372034E-01  2.87080718E-08  5.49812936E-02
 -2.57837565E-01 -1.99303614E-08  6.15832691E-02  2.59018592E-01 -2.92185494E-08
 -2.27995859E-03 -3.59372034E-01  2.87080708E-08  2.33981210E-01 -2.22524241E-01
  1.05471576E-08 -2.29465737E-01 -2.23042093E-01 -4.92232115E-09 -1.54153917E-01
 -3.65205787E-03 -8.39750662E-09 -2.33981210E-01  2.22524241E-01  1.05471569E-08
  2.29465737E-01  2.23042093E-01 -4.92232044E-09  1.54153917E-01  3.65205787E-03
 -8.39750717E-09  3.26312558E-01 -6.08907110E-02  3.44757045E-08 -3.25131257E-01
 -5.56538434E-02 -1.72024857E-08  2.24829201E-01 -3.64270648E-03  1.57404941E-08
 -3.26312558E-01  6.08907110E-02  3.44757023E-08  3.25131257E-01  5.56538434E-02
 -1.72024836E-08 -2.24829201E-01  3.64270648E-03  1.57404909E-08 -3.70151266E-09
  2.10430736E-09 -3.41378240E-02  1.65072842E-09  2.99787160E-09 -3.41372315E-02
  1.73124130E-09  2.98930659E-09 -3.42247954E-02  3.70151273E-09 -2.10430742E-09
 -3.41378240E-02 -1.65072837E-09 -2.99787154E-09 -3.41372315E-02 -1.73124133E-09
 -2.98930664E-09 -3.42247954E-02  1.22754890E-08 -7.18037874E-09  4.06759552E-01
 -4.35495486E-08 -4.75774709E-08  4.06760486E-01 -1.94338756E-08 -6.02312230E-08
  4.06928121E-01 -1.22754891E-08  7.18037863E-09  4.06759552E-01  4.35495483E-08
  4.75774715E-08  4.06760486E-01  1.94338750E-08  6.02312231E-08  4.06928121E-01
 -6.31224002E-10  3.37127237E-10  2.10206305E-01  9.68061571E-09  1.56776988E-08
 -2.10206687E-01 -8.76658158E-09 -1.61885322E-08  2.10181716E-01 -6.31223195E-10
  3.37126678E-10 -2.10206305E-01  9.68061534E-09  1.56776982E-08  2.10206687E-01
 -8.76658199E-09 -1.61885324E-08 -2.10181716E-01  3.95411465E-09 -2.50017556E-09
  3.49922574E-01  1.82656206E-08  3.99848781E-08 -3.49920210E-01 -2.55871081E-08
 -3.54164051E-08  3.50085908E-01  3.95411608E-09 -2.50017501E-09 -3.49922574E-01
  1.82656202E-08  3.99848777E-08  3.49920210E-01 -2.55871072E-08 -3.54164054E-08
 -3.50085908E-01 -4.35687430E-10 -1.10617353E-08  4.25972157E-02 -7.75922330E-10
  1.30916223E-08 -4.26018118E-02  8.52460985E-09  7.23246933E-09 -8.53357773E-02
 -4.35687418E-10 -1.10617354E-08 -4.25972157E-02 -7.75922424E-10  1.30916223E-08
  4.26018118E-02  8.52460983E-09  7.23246951E-09  8.53357773E-02 -1.86568916E-08
 -1.58182760E-08 -2.85280159E-01 -4.33572799E-08 -7.87519932E-09  2.85310368E-01
 -2.50604670E-08 -8.65918151E-08  5.71228144E-01 -1.86568914E-08 -1.58182758E-08
  2.85280159E-01 -4.33572799E-08 -7.87519947E-09 -2.85310368E-01 -2.50604667E-08
 -8.65918149E-08 -5.71228144E-01 -1.07184858E-08 -2.30277792E-10 -7.38651402E-02
  3.26766685E-09  5.29045599E-09 -7.38619381E-02  8.46255788E-09  2.27630767E-09
  2.35007445E-06 -1.07184858E-08 -2.30277824E-10  7.38651402E-02  3.26766683E-09
  5.29045597E-09  7.38619381E-02  8.46255788E-09  2.27630771E-09 -2.35007440E-06
  5.42667792E-09 -1.87595485E-08  4.94523422E-01 -4.83858444E-08 -7.13736782E-08
  4.94504742E-01  3.09125652E-08  2.77894677E-09 -1.68755200E-05  5.42667791E-09
 -1.87595485E-08 -4.94523422E-01 -4.83858445E-08 -7.13736781E-08 -4.94504742E-01
  3.09125650E-08  2.77894677E-09  1.68755201E-05  1.41976196E-08 -2.29438775E-09
  5.14177605E-02  9.38207077E-09  1.98753545E-09  5.11847934E-02  6.92632711E-09
  1.70307023E-08 -1.02564065E-01 -1.41976185E-08  2.29438706E-09  5.14177605E-02
 -9.38207196E-09 -1.98753605E-09  5.11847934E-02 -6.92632700E-09 -1.70307010E-08
 -1.02564065E-01  1.67687547E-09  1.29819149E-09 -2.84880608E-01  4.32207121E-08
  4.27440674E-08 -2.83589234E-01 -1.46611376E-08 -7.73413396E-08  5.68011557E-01
 -1.67687493E-09 -1.29819324E-09 -2.84880608E-01 -4.32207136E-08 -4.27440676E-08
 -2.83589234E-01  1.46611392E-08  7.73413411E-08  5.68011557E-01  1.90469280E-08
 -1.45085999E-08  8.87510790E-02  1.89987656E-08  1.80811999E-08 -8.88856709E-02
  3.75931264E-10  2.08386996E-08  1.34509511E-04 -1.90469288E-08  1.45086004E-08
  8.87510790E-02 -1.89987655E-08 -1.80812002E-08 -8.88856709E-02 -3.75930887E-10
 -2.08386997E-08  1.34509511E-04  1.20881905E-09 -1.88313402E-09 -4.91674571E-01
 -4.51432955E-08 -3.57064613E-08  4.92420681E-01  8.98067585E-09  2.28979370E-08
 -7.45129506E-04 -1.20881989E-09  1.88313406E-09 -4.91674571E-01  4.51432964E-08
  3.57064594E-08  4.92420681E-01 -8.98067245E-09 -2.28979370E-08 -7.45129506E-04
 -1.01355925E-07  5.83385738E-08  5.65609432E-02  1.18849480E-07  7.98418657E-08
 -5.65612037E-02 -9.84940188E-09 -1.42412115E-07  5.64887850E-02 -1.01355927E-07
  5.83385746E-08 -5.65609432E-02  1.18849478E-07  7.98418653E-08  5.65612037E-02
 -9.84940184E-09 -1.42412116E-07 -5.64887850E-02 -1.15650407E-07  6.60637356E-08
 -4.04474739E-01  5.21471089E-08  6.07626219E-08  4.04476933E-01 -2.75142973E-08
 -7.64405150E-08 -4.03991711E-01 -1.15650411E-07  6.60637338E-08  4.04474739E-01
  5.21471068E-08  6.07626223E-08 -4.04476933E-01 -2.75142983E-08 -7.64405165E-08
  4.03991711E-01  2.51115669E-01 -1.44992746E-01  1.42281733E-07 -2.51117920E-01
 -1.44995686E-01 -1.57084011E-07  1.24782949E-06  2.89994619E-01  1.56482805E-07
  2.51115669E-01 -1.44992746E-01 -1.42281734E-07 -2.51117920E-01 -1.44995686E-01
  1.57084009E-07  1.24782978E-06  2.89994619E-01 -1.56482803E-07  2.48830080E-01
 -1.43724194E-01 -9.57276048E-07 -2.48829586E-01 -1.43732430E-01  9.62403023E-07
  1.14601933E-05  2.87382950E-01 -9.58767205E-07  2.48830080E-01 -1.43724194E-01
  9.57276051E-07 -2.48829586E-01 -1.43732430E-01 -9.62403014E-07  1.14601954E-05
  2.87382950E-01  9.58767192E-07  2.38942939E-01 -1.37948188E-01 -5.62336742E-08
  2.38941503E-01  1.37948942E-01  2.59445697E-08  8.65690483E-07  2.75911347E-01
  2.51583637E-08 -2.38942939E-01  1.37948188E-01 -5.62336726E-08 -2.38941503E-01
 -1.37948942E-01  2.59445682E-08 -8.65690943E-07 -2.75911347E-01  2.51583654E-08
  2.60598026E-01 -1.50430858E-01  2.00489391E-07  2.60595203E-01  1.50434173E-01
 -7.15173898E-08  4.88054248E-06  3.00907746E-01 -6.78811542E-08 -2.60598026E-01
  1.50430858E-01  2.00489380E-07 -2.60595203E-01 -1.50434173E-01 -7.15173780E-08
 -4.88054590E-06 -3.00907746E-01 -6.78811667E-08 -8.85002842E-02 -3.06493481E-02
  1.46797457E-08  8.53939200E-02 -3.46348822E-02  7.38905242E-10  1.89920858E-03
  1.17925661E-01  7.13642460E-09 -8.85002842E-02 -3.06493481E-02 -1.46797460E-08
  8.53939200E-02 -3.46348822E-02 -7.38905044E-10  1.89920858E-03  1.17925661E-01
 -7.13642455E-09 -2.89592555E-01 -3.70003233E-01 -4.04615564E-08  2.91479299E-01
 -3.83319963E-01 -3.43843243E-09  1.24866517E-02  1.26530707E-01 -1.64641964E-08
 -2.89592555E-01 -3.70003233E-01  4.04615582E-08  2.91479299E-01 -3.83319963E-01
  3.43843132E-09  1.24866517E-02  1.26530707E-01  1.64641963E-08 -6.57294550E-02
  8.76816127E-02  2.42290021E-08 -6.97134410E-02 -8.61838891E-02 -8.09001440E-09
  8.27963978E-02 -2.70460284E-03  3.16754137E-09 -6.57294550E-02  8.76816127E-02
 -2.42290027E-08 -6.97134410E-02 -8.61838891E-02  8.09001481E-09  8.27963978E-02
 -2.70460284E-03 -3.16754130E-09  4.78495081E-02  2.99110770E-01 -6.73609891E-08
  3.45301800E-02 -2.81838249E-01  1.88331520E-08  5.44473144E-01 -2.90241683E-03
 -6.37602812E-09  4.78495081E-02  2.99110770E-01  6.73609926E-08  3.45301800E-02
 -2.81838249E-01 -1.88331544E-08  5.44473144E-01 -2.90241683E-03  6.37602826E-09
 -1.59281129E-02 -2.76097725E-02 -7.50005474E-11 -1.59284014E-02  2.76100424E-02
  5.65427834E-09  3.18549229E-02 -5.21020401E-07  5.75543893E-09 -1.59281129E-02
 -2.76097725E-02  7.50004239E-11 -1.59284014E-02  2.76100424E-02 -5.65427836E-09
  3.18549230E-02 -5.21020294E-07 -5.75543876E-09 -2.03490831E-01 -3.52477352E-01
  1.37416259E-10 -2.03493540E-01  3.52481356E-01 -8.85154776E-09  4.07003319E-01
 -1.01343198E-06 -9.28548787E-09 -2.03490831E-01 -3.52477352E-01 -1.37415114E-10
 -2.03493540E-01  3.52481356E-01  8.85154796E-09  4.07003319E-01 -1.01343181E-06
  9.28548627E-09  1.34440598E-02  2.88703889E-02 -6.36246743E-09 -1.27399653E-02
  2.77294583E-02  1.63123832E-09  6.20842731E-02 -4.07474979E-05  1.93325481E-09
 -1.34440598E-02 -2.88703889E-02 -6.36246740E-09  1.27399653E-02 -2.77294583E-02
  1.63123828E-09 -6.20842731E-02  4.07474982E-05  1.93325485E-09  1.44208061E-01
  2.55189898E-01  4.70934036E-09 -1.37984832E-01  2.44486673E-01  1.42331887E-08
  5.73993617E-01 -4.01696409E-05  1.43724716E-08 -1.44208061E-01 -2.55189898E-01
  4.70933968E-09  1.37984832E-01 -2.44486673E-01  1.42331895E-08 -5.73993617E-01
  4.01696412E-05  1.43724708E-08 -2.81268529E-02 -4.54152425E-02 -3.80504059E-09
 -2.84528813E-02  4.61199888E-02  1.24426962E-09  7.73226305E-04  3.23899708E-03
  9.18271535E-10  2.81268529E-02  4.54152425E-02 -3.80504069E-09  2.84528813E-02
 -4.61199888E-02  1.24426974E-09 -7.73226306E-04 -3.23899708E-03  9.18271411E-10
 -2.48122719E-01 -4.26557397E-01  2.70146152E-09 -2.51638085E-01  4.32781504E-01
  8.84997629E-09  7.14923335E-03  3.14060097E-03  8.00552118E-09  2.48122719E-01
  4.26557397E-01  2.70146332E-09  2.51638085E-01 -4.32781504E-01  8.84997438E-09
 -7.14923336E-03 -3.14060097E-03  8.00552315E-09 -1.49317651E-01 -2.58590300E-01
 -1.13294833E-10 -1.49316770E-01  2.58588650E-01  1.65000407E-08  2.98608128E-01
  3.49750705E-07  1.66065299E-08 -1.49317651E-01 -2.58590300E-01  1.13294840E-10
 -1.49316770E-01  2.58588650E-01 -1.65000408E-08  2.98608128E-01  3.49751049E-07
 -1.66065299E-08  1.39241461E-01  2.41208919E-01  1.07345177E-09  1.39233543E-01
 -2.41194783E-01 -9.01200111E-08 -2.78161938E-01  1.34204661E-06 -9.09126941E-08
  1.39241461E-01  2.41208919E-01 -1.07345183E-09  1.39233543E-01 -2.41194783E-01
  9.01200117E-08 -2.78161938E-01  1.34204697E-06  9.09126937E-08  3.01506808E-02
  5.22263838E-02  4.17467269E-11 -3.01507066E-02  5.22261535E-02  3.63890643E-09
 -6.03186689E-02 -3.11077465E-09 -3.67182961E-09 -3.01506808E-02 -5.22263838E-02
  4.17466308E-11  3.01507066E-02 -5.22261535E-02  3.63890648E-09  6.03186689E-02
  3.11040498E-09 -3.67182962E-09 -2.01909404E-01 -3.49710097E-01 -5.09710166E-11
  2.01908913E-01 -3.49709098E-01 -1.13406668E-08  4.03683218E-01 -5.44062813E-07
  1.12865775E-08  2.01909404E-01  3.49710097E-01 -5.09706183E-11 -2.01908913E-01
  3.49709098E-01 -1.13406668E-08 -4.03683218E-01  5.44062338E-07  1.12865774E-08
 -1.05442275E-01 -8.65108172E-02  2.67404722E-10  1.04502832E-01 -8.94837352E-02
 -3.28185312E-09  2.10254175E-03  9.38180569E-02  4.42570063E-09 -1.05442275E-01
 -8.65108172E-02 -2.67404690E-10  1.04502832E-01 -8.94837352E-02  3.28185309E-09
  2.10254176E-03  9.38180569E-02 -4.42570060E-09  1.80214922E-01  4.29405362E-01
 -2.61625813E-09 -1.86452160E-01  4.34595772E-01  2.57967072E-08 -7.61157358E-03
  1.14460314E-01  7.84978166E-09  1.80214922E-01  4.29405362E-01  2.61625744E-09
 -1.86452160E-01  4.34595772E-01 -2.57967070E-08 -7.61157359E-03  1.14460314E-01
 -7.84978157E-09  3.17486494E-02 -1.06228464E-01 -5.62653873E-10  3.47206843E-02
  1.03737265E-01  6.76239117E-09 -1.48648043E-01  1.32803431E-03 -6.14414716E-09
  3.17486494E-02 -1.06228464E-01  5.62653842E-10  3.47206843E-02  1.03737265E-01
 -6.76239116E-09 -1.48648043E-01  1.32803431E-03  6.14414711E-09  2.22942033E-01
  1.89451016E-01  4.79153115E-09  2.17752280E-01 -1.77220846E-01 -5.04959932E-09
  5.37793494E-01  1.61943149E-03  2.52031211E-08  2.22942033E-01  1.89451016E-01
 -4.79153050E-09  2.17752280E-01 -1.77220846E-01  5.04959948E-09  5.37793494E-01
  1.61943149E-03 -2.52031211E-08  1.02939864E-01  2.93754439E-01  9.09250291E-10
  5.32789818E-02 -2.73709717E-01 -1.40107882E-08  4.21895762E-02  1.48435364E-01
  1.12362067E-08 -1.02939864E-01 -2.93754439E-01  9.09250158E-10 -5.32789818E-02
  2.73709717E-01 -1.40107880E-08 -4.21895762E-02 -1.48435364E-01  1.12362066E-08
 -2.47721100E-01 -3.00317184E-01 -3.55527965E-09 -2.53098509E-01  2.36071558E-01
  2.66511070E-08 -5.29496825E-02  1.65513075E-01 -8.85647963E-10  2.47721100E-01
  3.00317184E-01 -3.55527920E-09  2.53098509E-01 -2.36071558E-01  2.66511060E-08
  5.29496825E-02 -1.65513075E-01 -8.85647557E-10  1.83530977E-01  4.17194409E-02
 -2.03727350E-09 -2.03576631E-01  1.14531146E-01 -2.04776263E-09  3.28868048E-01
 -1.90462538E-02  8.59880714E-09 -1.83530977E-01 -4.17194409E-02 -2.03727355E-09
  2.03576631E-01 -1.14531146E-01 -2.04776252E-09 -3.28868048E-01  1.90462538E-02
  8.59880708E-09  5.30880757E-02 -2.15983358E-01  7.43732976E-09  1.11710244E-02
 -2.84807653E-01 -2.45909572E-08 -4.12722367E-01 -2.12365249E-02 -3.65910703E-08
 -5.30880757E-02  2.15983358E-01  7.43732988E-09 -1.11710244E-02  2.84807653E-01
 -2.45909577E-08  4.12722367E-01  2.12365249E-02 -3.65910702E-08 -2.92875339E-02
  1.69145448E-02  1.17588817E-09  2.92885460E-02  1.69151799E-02  4.88034316E-09
 -1.01756570E-07 -3.39392891E-02 -4.80533137E-09 -2.92875339E-02  1.69145448E-02
 -1.17588817E-09  2.92885460E-02  1.69151798E-02 -4.88034316E-09 -1.01755703E-07
 -3.39392891E-02  4.80533141E-09  3.51944788E-01 -2.03204148E-01 -1.75969213E-08
 -3.51956196E-01 -2.03211019E-01 -5.93233481E-08  5.68628958E-07  4.07719732E-01
  5.83504329E-08  3.51944787E-01 -2.03204147E-01  1.75969216E-08 -3.51956196E-01
 -2.03211019E-01  5.93233480E-08  5.68627875E-07  4.07719732E-01 -5.83504336E-08
  2.02187259E-02 -1.35827082E-02 -1.00027242E-09  2.05725295E-02  1.37765228E-02
  3.50900785E-09 -9.10088353E-06 -4.91699682E-02 -6.88227555E-09 -2.02187260E-02
  1.35827082E-02 -1.00027244E-09 -2.05725294E-02 -1.37765228E-02  3.50900788E-09
  9.10088286E-06  4.91699682E-02 -6.88227556E-09 -2.45525952E-01  1.44062243E-01
  1.18510308E-08 -2.49622112E-01 -1.46414743E-01 -4.22311803E-08  1.16299419E-05
  5.75839046E-01  8.24551423E-08  2.45525952E-01 -1.44062243E-01  1.18510309E-08
  2.49622112E-01  1.46414743E-01 -4.22311805E-08 -1.16299409E-05 -5.75839046E-01
  8.24551423E-08 -3.74085743E-02  2.05079711E-02  1.75849085E-09  3.72159338E-02
  2.03787026E-02  6.06393235E-09 -1.90391300E-03  2.33551075E-04  5.38356141E-11
  3.74085743E-02 -2.05079711E-02  1.75849084E-09 -3.72159338E-02 -2.03787026E-02
  6.06393237E-09  1.90391300E-03 -2.33551049E-04  5.38356095E-11  4.33176201E-01
 -2.48779240E-01 -2.07992795E-08 -4.30836740E-01 -2.47407012E-01 -7.25597535E-08
  2.29987090E-03 -2.73468710E-03 -4.22230807E-10 -4.33176201E-01  2.48779240E-01
 -2.07992794E-08  4.30836740E-01  2.47407012E-01 -7.25597538E-08 -2.29987090E-03
  2.73468680E-03 -4.22230671E-10  2.35915347E-02 -1.02312190E-02 -1.06514942E-09
 -2.38381148E-02 -1.03864136E-02 -3.25773582E-09  1.10413723E-05 -5.12272236E-02
 -6.77229252E-09  2.35915347E-02 -1.02312189E-02  1.06514942E-09 -2.38381148E-02
 -1.03864136E-02  3.25773583E-09  1.10413727E-05 -5.12272236E-02  6.77229255E-09
 -2.50183962E-01  1.39695769E-01  1.15452841E-08  2.53003304E-01  1.41341678E-01
  4.27792268E-08 -1.48234009E-05  5.74406942E-01  8.23525853E-08 -2.50183962E-01
  1.39695769E-01 -1.15452844E-08  2.53003304E-01  1.41341678E-01 -4.27792270E-08
 -1.48234014E-05  5.74406942E-01 -8.23525853E-08 -3.76924992E-02  2.37042942E-02
  1.86219314E-09 -3.75362581E-02 -2.36362642E-02 -6.10491216E-09  3.38416468E-03
  1.67441443E-04  2.85452644E-10 -3.76924992E-02  2.37042942E-02 -1.86219314E-09
 -3.75362581E-02 -2.36362642E-02  6.10491216E-09  3.38416468E-03  1.67441468E-04
 -2.85452688E-10  4.30920204E-01 -2.51515419E-01 -2.00860588E-08  4.29261245E-01
  2.50588945E-01  7.24174084E-08 -4.74019691E-03 -1.87724420E-03  2.24556154E-10
  4.30920204E-01 -2.51515419E-01  2.00860590E-08  4.29261245E-01  2.50588945E-01
 -7.24174083E-08 -4.74019691E-03 -1.87724448E-03 -2.24555894E-10 -3.22789476E-02
  1.86393860E-02  1.48884345E-09 -3.22780817E-02 -1.86389373E-02 -5.02731080E-09
 -4.85548993E-08 -3.71643902E-02 -4.91837297E-09  3.22789476E-02 -1.86393860E-02
  1.48884345E-09  3.22780817E-02  1.86389373E-02 -5.02731080E-09  4.85534893E-08
  3.71643901E-02 -4.91837297E-09  3.52451524E-01 -2.03493239E-01 -1.65247601E-08
  3.52441339E-01  2.03487608E-01  5.92705808E-08  5.25657408E-07  4.05692601E-01
  5.79483278E-08 -3.52451525E-01  2.03493240E-01 -1.65247600E-08 -3.52441339E-01
 -2.03487608E-01  5.92705807E-08 -5.25655422E-07 -4.05692601E-01  5.79483279E-08
ClPar MaxAn                                I              200
ClPar NIntPar                              I                4
ClPar NRealPar                             I               16
ClPar NBits                                I               30
ClPar LenBitVec                            I                1
ClPar Read BitMap                          I   N=         200
           0           0           0           0           0           0
           0           0           0           0           0           0
           0           0           0           0           0           0
           0           0           0           0           0           0
           0           0           0           0           0           0
           0           0           0           0           0           0
           0           0           0           0           0           0
           0           0           0           0           0           0
           0           0           0           0           0           0
           0           0           0           0           0           0
           0           0           0           0           0           0
           0           0           0           0           0           0
           0           0           0           0           0           0
           0           0           0           0           0           0
           0           0           0           0           0           0
           0           0           0           0           0           0
           0           0           0           0           0           0
           0           0           0           0           0           0
           0           0           0           0           0           0
           0           0           0           0           0           0
           0           0           0           0           0           0
           0           0           0           0           0           0
           0           0           0           0           0           0
           0           0           0           0           0           0
           0           0           0           0           0           0
           0           0           0           0           0           0
           0           0           0           0           0           0
           0           0           0           0           0           0
           0           0           0           0           0           0
           0           0           0           0           0           0
           0           0           0           0           0           0
           0           0           0           0           0           0
           0           0           0           0           0           0
           0           0
ClPar Default BitMap                       I   N=         200
        2016        2016        2016        2016        2016        2016
        2016        2016        2016        2016        2016        2016
        2016        2016        2016        2016        2016        2016
        2016        2016        2016        2016        2016        2016
        2016        2016        2016        2016        2016        2016
        2016        2016        2016        2016        2016        2016
        2016        2016        2016        2016        2016        2016
        2016        2016        2016        2016        2016        2016
        2016        2016        2016        2016        2016        2016
        2016        2016        2016        2016        2016        2016
        2016        2016        2016        2016        2016        2016
        2016        2016        2016        2016        2016        2016
        2016        2016        2016        2016        2016        2016
        2016        2016        2016        2016        2016        2016
        2016        2016         480         480         480         480
         480         480         480         480         480         480
         480         480         480         480         480         480
         480         480         480         480         480         480
         480         480         480         480         480         480
         480         480         480         480         480         480
         480         480         480         480         480         480
         480         480         480         480         480         480
         480         480         480         480         480         480
         480         480         480         480         480         480
         480         480         480         480         480         480
         480         480         480         480         480         480
         480         480         480         480         480         480
         480         480         480         480         480         480
         480         480         480         480         480         480
         480         480         480         480         480         480
         480         480         480         480         480         480
         480         480         480         480         480         480
         480         480         480         480         480         480
         480         480
ClPar Int Params                           I   N=         800
           0           0           0           0           0           0
           0           0           0           0           0           0
           0           0           0           0           0           0
           0           0           0           0           0           0
           0           0           0           0           0           0
           0           0           0           0           0           0
           0           0           0           0           0           0
           0           0           0           0           0           0
           0           0           0           0           0           0
           0           0           0           0           0           0
           0           0           0           0           0           0
           0           0           0           0           0           0
           0           0           0           0           0           0
           0           0           0           0           0           0
           0           0           0           0           0           0
           0           0           0           0           0           0
           0           0           0           0           0           0
           0           0           0           0           0           0
           0           0           0           0           0           0
           0           0           0           0           0           0
           0           0           0           0           0           0
           0           0           0           0           0           0
           0           0           0           0           0           0
           0           0           0           0           0           0
           0           0           0           0           0           0
           0           0           0           0           0           0
           0           0           0           0           0           0
           0           0           0           0           0           0
           0           0           0           0           0           0
           0           0           0           0           0           0
           0           0           0           0           0           0
           0           0           0           0           0           0
           0           0           0           0           0           0
           0           0           0           0           0           0
           0           0           0           0           0           0
           0           0           0           0           0           0
           0           0           0           0           0           0
           0           0           0           0           0           0
           0           0           0           0           0           0
           0           0           0           0           0           0
           0           0           0           0           0           0
           0           0           0           0           0           0
           0           0           0           0           0           0
           0           0           0           0           0           0
           0           0           0           0           0           0
           0           0           0           0           0           0
           0           0           0           0           0           0
           0           0           0           0           0           0
           0           0           0           0           0           0
           0           0           0           0           0           0
           0           0           0           0           0           0
           0           0           0           0           0           0
           0           0           0           0           0           0
           0           0           0           0           0           0
           0           0           0           0           0           0
           0           0           0           0           0           0
           0           0           0           0           0           0
           0           0           0           0           0           0
           0           0           0           0           0           0
           0           0           0           0           0           0
           0           0           0           0           0           0
           0           0           0           0           0           0
           0           0           0           0           0           0
           0           0           0           0           0           0
           0           0           0           0           0           0
           0           0           0           0           0           0
           0           0           0           0           0           0
           0           0           0           0           0           0
           0           0           0           0           0           0
           0           0           0           0           0           0
           0           0           0           0           0           0
           0           0           0           0           0           0
           0           0           0           0           0           0
           0           0           0           0           0           0
           0           0           0           0           0           0
           0           0           0           0           0           0
           0           0           0           0           0           0
           0           0           0           0           0           0
           0           0           0           0           0           0
           0           0           0           0           0           0
           0           0           0           0           0           0
           0           0           0           0           0           0
           0           0           0           0           0           0
           0           0           0           0           0           0
           0           0           0           0           0           0
           0           0           0           0           0           0
           0           0           0           0           0           0
           0           0           0           0           0           0
           0           0           0           0           0           0
           0           0           0           0           0           0
           0           0           0           0           0           0
           0           0           0           0           0           0
           0           0           0           0           0           0
           0           0           0           0           0           0
           0           0           0           0           0           0
           0           0           0           0           0           0
           0           0           0           0           0           0
           0           0           0           0           0           0
           0           0           0           0           0           0
           0           0           0           0           0           0
           0           0           0           0           0           0
           0           0           0           0           0           0
           0           0           0           0           0           0
           0           0           0           0           0           0
           0           0           0           0           0           0
           0           0           0           0           0           0
           0           0           0           0           0           0
           0           0           0           0           0           0
           0           0           0           0           0           0
           0           0           0           0           0           0
           0           0           0           0           0           0
           0           0           0           0           0           0
           0           0           0           0           0           0
           0           0           0           0           0           0
           0           0           0           0           0           0
           0           0           0           0           0           0
           0           0           0           0           0           0
           0           0           0           0           0           0
           0           0           0           0           0           0
           0           0           0           0           0           0
           0           0           0           0           0           0
           0           0           0           0           0           0
           0           0           0           0           0           0
           0           0           0           0           0           0
           0           0           0           0           0           0
           0           0           0           0           0           0
           0           0           0           0           0           0
           0           0           0           0           0           0
           0           0           0           0           0           0
           0           0           0           0           0           0
           0           0           0           0           0           0
           0           0           0           0           0           0
           0           0           0           0           0           0
           0           0
ClPar Real Params                          R   N=        3200
  0.00000000E+00  0.00000000E+00  0.00000000E+00  0.00000000E+00  0.00000000E+00
  0.00000000E+00  0.00000000E+00  0.00000000E+00  0.00000000E+00  0.00000000E+00
  0.00000000E+00  0.00000000E+00  0.00000000E+00  0.00000000E+00  0.00000000E+00
  0.00000000E+00  0.00000000E+00  0.00000000E+00  0.00000000E+00  0.00000000E+00
  0.00000000E+00  0.00000000E+00  0.00000000E+00  0.00000000E+00  0.00000000E+00
  0.00000000E+00  0.00000000E+00  0.00000000E+00  0.00000000E+00  0.00000000E+00
  0.00000000E+00  0.00000000E+00  0.00000000E+00  0.00000000E+00  0.00000000E+00
  0.00000000E+00  0.00000000E+00  0.00000000E+00  0.00000000E+00  0.00000000E+00
  0.00000000E+00  0.00000000E+00  0.00000000E+00  0.00000000E+00  0.00000000E+00
  0.00000000E+00  0.00000000E+00  0.00000000E+00  0.00000000E+00  0.00000000E+00
  0.00000000E+00  0.00000000E+00  0.00000000E+00  0.00000000E+00  0.00000000E+00
  0.00000000E+00  0.00000000E+00  0.00000000E+00  0.00000000E+00  0.00000000E+00
  0.00000000E+00  0.00000000E+00  0.00000000E+00  0.00000000E+00  0.00000000E+00
  0.00000000E+00  0.00000000E+00  0.00000000E+00  0.00000000E+00  0.00000000E+00
  0.00000000E+00  0.00000000E+00  0.00000000E+00  0.00000000E+00  0.00000000E+00
  0.00000000E+00  0.00000000E+00  0.00000000E+00  0.00000000E+00  0.00000000E+00
  0.00000000E+00  0.00000000E+00  0.00000000E+00  0.00000000E+00  0.00000000E+00
  0.00000000E+00  0.00000000E+00  0.00000000E+00  0.00000000E+00  0.00000000E+00
  0.00000000E+00  0.00000000E+00  0.00000000E+00  0.00000000E+00  0.00000000E+00
  0.00000000E+00  0.00000000E+00  0.00000000E+00  0.00000000E+00  0.00000000E+00
  0.00000000E+00  0.00000000E+00  0.00000000E+00  0.00000000E+00  0.00000000E+00
  0.00000000E+00  0.00000000E+00  0.00000000E+00  0.00000000E+00  0.00000000E+00
  0.00000000E+00  0.00000000E+00  0.00000000E+00  0.00000000E+00  0.00000000E+00
  0.00000000E+00  0.00000000E+00  0.00000000E+00  0.00000000E+00  0.00000000E+00
  0.00000000E+00  0.00000000E+00  0.00000000E+00  0.00000000E+00  0.00000000E+00
  0.00000000E+00  0.00000000E+00  0.00000000E+00  0.00000000E+00  0.00000000E+00
  0.00000000E+00  0.00000000E+00  0.00000000E+00  0.00000000E+00  0.00000000E+00
  0.00000000E+00  0.00000000E+00  0.00000000E+00  0.00000000E+00  0.00000000E+00
  0.00000000E+00  0.00000000E+00  0.00000000E+00  0.00000000E+00  0.00000000E+00
  0.00000000E+00  0.00000000E+00  0.00000000E+00  0.00000000E+00  0.00000000E+00
  0.00000000E+00  0.00000000E+00  0.00000000E+00  0.00000000E+00  0.00000000E+00
  0.00000000E+00  0.00000000E+00  0.00000000E+00  0.00000000E+00  0.00000000E+00
  0.00000000E+00  0.00000000E+00  0.00000000E+00  0.00000000E+00  0.00000000E+00
  0.00000000E+00  0.00000000E+00  0.00000000E+00  0.00000000E+00  0.00000000E+00
  0.00000000E+00  0.00000000E+00  0.00000000E+00  0.00000000E+00  0.00000000E+00
  0.00000000E+00  0.00000000E+00  0.00000000E+00  0.00000000E+00  0.00000000E+00
  0.00000000E+00  0.00000000E+00  0.00000000E+00  0.00000000E+00  0.00000000E+00
  0.00000000E+00  0.00000000E+00  0.00000000E+00  0.00000000E+00  0.00000000E+00
  0.00000000E+00  0.00000000E+00  0.00000000E+00  0.00000000E+00  0.00000000E+00
  0.00000000E+00  0.00000000E+00  0.00000000E+00  0.00000000E+00  0.00000000E+00
  2.26000000E-01  4.43000000E-01  1.01000000E-01  1.47000000E-01  1.92000000E-01
  2.40000000E-01  2.75000000E-01  3.03000000E-01  3.25000000E-01  4.13000000E-01
  9.60000000E-02  1.35000000E-01  1.73000000E-01  2.11000000E-01  2.48000000E-01
  2.86000000E-01  3.23000000E-01  3.60000000E-01  8.20000000E-02  1.04000000E-01
  1.17000000E-01  1.23000000E-01  1.29000000E-01  1.34000000E-01  1.40000000E-01
  1.44000000E-01  1.48000000E-01  1.52000000E-01  1.55000000E-01  1.76000000E-01
  1.98000000E-01  2.19000000E-01  2.39000000E-01  2.60000000E-01  2.80000000E-01
  3.00000000E-01  7.90000000E-02  9.90000000E-02  1.19000000E-01  1.26000000E-01
  1.33000000E-01  1.40000000E-01  1.47000000E-01  1.53000000E-01  1.58000000E-01
  1.63000000E-01  1.57000000E-01  1.70000000E-01  1.87000000E-01  2.03000000E-01
  2.19000000E-01  2.34000000E-01  2.50000000E-01  2.65000000E-01  7.40000000E-02
  9.20000000E-02  1.05000000E-01  1.06000000E-01  1.07000000E-01  1.08000000E-01
  1.09000000E-01  1.10000000E-01  1.11000000E-01  1.12000000E-01  1.13000000E-01
  1.14000000E-01  1.15000000E-01  1.16000000E-01  1.17000000E-01  1.17000000E-01
  1.26000000E-01  1.36000000E-01  1.46000000E-01  1.55000000E-01  1.65000000E-01
  1.73000000E-01  1.82000000E-01  1.90000000E-01  1.62000000E-01  1.78000000E-01
  1.10000000E-01  1.35000000E-01  1.59000000E-01  1.83000000E-01  2.07000000E-01
  2.31000000E-01  6.90000000E-02  9.40000000E-02  1.02000000E-01  1.03000000E-01
  1.05000000E-01  1.07000000E-01  1.09000000E-01  1.11000000E-01  1.13000000E-01
  1.15000000E-01  1.17000000E-01  1.19000000E-01  1.20000000E-01  1.22000000E-01
  1.24000000E-01  1.26000000E-01  1.28000000E-01  1.28000000E-01  1.28000000E-01
  1.28000000E-01  1.28000000E-01  1.28000000E-01  1.28000000E-01  1.28000000E-01
  1.28000000E-01  1.28000000E-01  1.28000000E-01  1.28000000E-01  1.28000000E-01
  1.28000000E-01  1.28000000E-01  1.28000000E-01  1.28000000E-01  1.28000000E-01
  1.28000000E-01  1.28000000E-01  1.28000000E-01  1.28000000E-01  1.28000000E-01
  1.28000000E-01  1.28000000E-01  1.28000000E-01  1.28000000E-01  1.28000000E-01
  1.28000000E-01  1.28000000E-01  1.28000000E-01  1.28000000E-01  1.28000000E-01
  1.28000000E-01  1.28000000E-01  1.28000000E-01  1.28000000E-01  1.28000000E-01
  1.28000000E-01  1.28000000E-01  1.28000000E-01  1.28000000E-01  1.28000000E-01
  1.28000000E-01  1.28000000E-01  1.28000000E-01  1.28000000E-01  1.28000000E-01
  1.28000000E-01  1.28000000E-01  1.28000000E-01  1.28000000E-01  1.28000000E-01
  1.28000000E-01  1.28000000E-01  1.28000000E-01  1.28000000E-01  1.28000000E-01
  1.28000000E-01  1.28000000E-01  1.28000000E-01  1.28000000E-01  1.28000000E-01
  1.28000000E-01  1.28000000E-01  1.28000000E-01  1.28000000E-01  1.28000000E-01
  1.28000000E-01  1.28000000E-01  1.28000000E-01  1.28000000E-01  1.28000000E-01
  1.28000000E-01  1.28000000E-01  1.28000000E-01  1.28000000E-01  1.28000000E-01
  1.28000000E-01  1.28000000E-01  1.28000000E-01  1.28000000E-01  1.28000000E-01
  1.28000000E-01  1.28000000E-01  1.28000000E-01  1.28000000E-01  1.28000000E-01
  1.28000000E-01  1.28000000E-01  1.28000000E-01  1.28000000E-01  1.28000000E-01
  1.28000000E-01  1.28000000E-01  1.28000000E-01  1.28000000E-01  1.28000000E-01
  5.47000000E-01  5.92000000E-01  5.99000000E-01  6.68000000E-01  6.98000000E-01
  7.18000000E-01  7.26000000E-01  7.36000000E-01  7.43000000E-01  7.45000000E-01
  6.07000000E-01  6.66000000E-01  6.93000000E-01  7.09000000E-01  7.20000000E-01
  7.29000000E-01  7.35000000E-01  7.40000000E-01  6.08000000E-01  7.34000000E-01
  7.46000000E-01  7.55000000E-01  7.61000000E-01  7.65000000E-01  7.67000000E-01
  7.60000000E-01  7.49000000E-01  7.33000000E-01  7.08000000E-01  6.48000000E-01
  6.88000000E-01  7.09000000E-01  7.22000000E-01  7.31000000E-01  7.38000000E-01
  7.44000000E-01  6.09000000E-01  7.30000000E-01  7.41000000E-01  7.52000000E-01
  7.58000000E-01  7.63000000E-01  7.66000000E-01  7.58000000E-01  7.48000000E-01
  7.33000000E-01  7.01000000E-01  6.45000000E-01  6.86000000E-01  7.08000000E-01
  7.22000000E-01  7.31000000E-01  7.38000000E-01  7.44000000E-01  6.08000000E-01
  7.28000000E-01  7.32000000E-01  7.32000000E-01  7.32000000E-01  7.32000000E-01
  7.32000000E-01  7.32000000E-01  7.32000000E-01  7.32000000E-01  7.32000000E-01
  7.31000000E-01  7.31000000E-01  7.31000000E-01  7.31000000E-01  7.46000000E-01
  7.37000000E-01  7.46000000E-01  7.51000000E-01  7.55000000E-01  7.58000000E-01
  7.47000000E-01  7.32000000E-01  7.11000000E-01  7.41000000E-01  7.07000000E-01
  7.47000000E-01  7.43000000E-01  7.42000000E-01  7.42000000E-01  7.43000000E-01
  7.44000000E-01  6.05000000E-01  7.24000000E-01  7.26000000E-01  7.26000000E-01
  7.27000000E-01  7.27000000E-01  7.27000000E-01  7.28000000E-01  7.28000000E-01
  7.28000000E-01  7.28000000E-01  7.28000000E-01  7.29000000E-01  7.29000000E-01
  7.29000000E-01  7.29000000E-01  7.29000000E-01  7.29000000E-01  7.29000000E-01
  7.29000000E-01  7.29000000E-01  7.29000000E-01  7.29000000E-01  7.29000000E-01
  7.29000000E-01  7.29000000E-01  7.29000000E-01  7.29000000E-01  7.29000000E-01
  7.29000000E-01  7.29000000E-01  7.29000000E-01  7.29000000E-01  7.29000000E-01
  7.29000000E-01  7.29000000E-01  7.29000000E-01  7.29000000E-01  7.29000000E-01
  7.29000000E-01  7.29000000E-01  7.29000000E-01  7.29000000E-01  7.29000000E-01
  7.29000000E-01  7.29000000E-01  7.29000000E-01  7.29000000E-01  7.29000000E-01
  7.29000000E-01  7.29000000E-01  7.29000000E-01  7.29000000E-01  7.29000000E-01
  7.29000000E-01  7.29000000E-01  7.29000000E-01  7.29000000E-01  7.29000000E-01
  7.29000000E-01  7.29000000E-01  7.29000000E-01  7.29000000E-01  7.29000000E-01
  7.29000000E-01  7.29000000E-01  7.29000000E-01  7.29000000E-01  7.29000000E-01
  7.29000000E-01  7.29000000E-01  7.29000000E-01  7.29000000E-01  7.29000000E-01
  7.29000000E-01  7.29000000E-01  7.29000000E-01  7.29000000E-01  7.29000000E-01
  7.29000000E-01  7.29000000E-01  7.29000000E-01  7.29000000E-01  7.29000000E-01
  7.29000000E-01  7.29000000E-01  7.29000000E-01  7.29000000E-01  7.29000000E-01
  7.29000000E-01  7.29000000E-01  7.29000000E-01  7.29000000E-01  7.29000000E-01
  7.29000000E-01  7.29000000E-01  7.29000000E-01  7.29000000E-01  7.29000000E-01
  7.29000000E-01  7.29000000E-01  7.29000000E-01  7.29000000E-01  7.29000000E-01
  7.29000000E-01  7.29000000E-01  7.29000000E-01  7.29000000E-01  7.29000000E-01
  7.29000000E-01  7.29000000E-01  7.29000000E-01  7.29000000E-01  7.29000000E-01
  1.00000000E+00  1.70400000E+00  3.23000000E-01  3.89000000E-01  4.67000000E-01
  5.67000000E-01  6.36000000E-01  6.64000000E-01  6.96000000E-01  8.79000000E-01
  3.07000000E-01  3.48000000E-01  4.00000000E-01  4.54000000E-01  5.09000000E-01
  5.65000000E-01  6.21000000E-01  6.77000000E-01  2.56000000E-01  3.50000000E-01
  3.64000000E-01  3.62000000E-01  3.62000000E-01  3.62000000E-01  3.62000000E-01
  3.65000000E-01  3.69000000E-01  3.75000000E-01  3.86000000E-01  4.46000000E-01
  4.55000000E-01  4.74000000E-01  4.96000000E-01  5.20000000E-01  5.45000000E-01
  5.70000000E-01  2.45000000E-01  3.22000000E-01  3.55000000E-01  3.59000000E-01
  3.64000000E-01  3.70000000E-01  3.76000000E-01  3.85000000E-01  3.95000000E-01
  4.08000000E-01  3.76000000E-01  4.23000000E-01  4.22000000E-01  4.32000000E-01
  4.45000000E-01  4.59000000E-01  4.75000000E-01  4.91000000E-01  2.28000000E-01
  2.92000000E-01  2.89000000E-01  2.92000000E-01  2.95000000E-01  2.98000000E-01
  3.00000000E-01  3.03000000E-01  3.06000000E-01  3.09000000E-01  3.12000000E-01
  3.15000000E-01  3.18000000E-01  3.21000000E-01  3.24000000E-01  3.61000000E-01
  3.69000000E-01  3.70000000E-01  3.72000000E-01  3.75000000E-01  3.78000000E-01
  3.85000000E-01  3.94000000E-01  4.07000000E-01  5.26000000E-01  6.21000000E-01
  3.36000000E-01  3.54000000E-01  3.71000000E-01  3.86000000E-01  4.02000000E-01
  4.17000000E-01  2.09000000E-01  2.94000000E-01  2.65000000E-01  2.72000000E-01
  2.78000000E-01  2.84000000E-01  2.91000000E-01  2.97000000E-01  3.03000000E-01
  3.10000000E-01  3.16000000E-01  3.22000000E-01  3.29000000E-01  3.35000000E-01
  3.41000000E-01  3.48000000E-01  3.54000000E-01  3.54000000E-01  3.54000000E-01
  3.54000000E-01  3.54000000E-01  3.54000000E-01  3.54000000E-01  3.54000000E-01
  3.54000000E-01  3.54000000E-01  3.54000000E-01  3.54000000E-01  3.54000000E-01
  3.54000000E-01  3.54000000E-01  3.54000000E-01  3.54000000E-01  3.54000000E-01
  3.54000000E-01  3.54000000E-01  3.54000000E-01  3.54000000E-01  3.54000000E-01
  3.54000000E-01  3.54000000E-01  3.54000000E-01  3.54000000E-01  3.54000000E-01
  3.54000000E-01  3.54000000E-01  3.54000000E-01  3.54000000E-01  3.54000000E-01
  3.54000000E-01  3.54000000E-01  3.54000000E-01  3.54000000E-01  3.54000000E-01
  3.54000000E-01  3.54000000E-01  3.54000000E-01  3.54000000E-01  3.54000000E-01
  3.54000000E-01  3.54000000E-01  3.54000000E-01  3.54000000E-01  3.54000000E-01
  3.54000000E-01  3.54000000E-01  3.54000000E-01  3.54000000E-01  3.54000000E-01
  3.54000000E-01  3.54000000E-01  3.54000000E-01  3.54000000E-01  3.54000000E-01
  3.54000000E-01  3.54000000E-01  3.54000000E-01  3.54000000E-01  3.54000000E-01
  3.54000000E-01  3.54000000E-01  3.54000000E-01  3.54000000E-01  3.54000000E-01
  3.54000000E-01  3.54000000E-01  3.54000000E-01  3.54000000E-01  3.54000000E-01
  3.54000000E-01  3.54000000E-01  3.54000000E-01  3.54000000E-01  3.54000000E-01
  3.54000000E-01  3.54000000E-01  3.54000000E-01  3.54000000E-01  3.54000000E-01
  3.54000000E-01  3.54000000E-01  3.54000000E-01  3.54000000E-01  3.54000000E-01
  3.54000000E-01  3.54000000E-01  3.54000000E-01  3.54000000E-01  3.54000000E-01
  3.54000000E-01  3.54000000E-01  3.54000000E-01  3.54000000E-01  3.54000000E-01
  2.74000000E-01  2.96000000E-01  5.80000000E-02  4.40000000E-02  3.90000000E-02
  3.90000000E-02  3.60000000E-02  3.20000000E-02  2.90000000E-02  3.30000000E-02
  5.50000000E-02  3.90000000E-02  3.30000000E-02  3.00000000E-02  2.80000000E-02
  2.60000000E-02  2.50000000E-02  2.50000000E-02  4.50000000E-02  4.40000000E-02
  3.30000000E-02  2.50000000E-02  2.10000000E-02  1.80000000E-02  1.50000000E-02
  1.80000000E-02  2.10000000E-02  2.50000000E-02  3.30000000E-02  5.00000000E-02
  3.80000000E-02  3.10000000E-02  2.70000000E-02  2.40000000E-02  2.20000000E-02
  2.10000000E-02  4.30000000E-02  4.00000000E-02  3.20000000E-02  2.50000000E-02
  2.10000000E-02  1.80000000E-02  1.60000000E-02  1.90000000E-02  2.20000000E-02
  2.80000000E-02  3.10000000E-02  4.70000000E-02  3.40000000E-02  2.80000000E-02
  2.40000000E-02  2.10000000E-02  1.90000000E-02  1.80000000E-02  3.90000000E-02
  3.60000000E-02  2.50000000E-02  2.50000000E-02  2.50000000E-02  2.60000000E-02
  2.60000000E-02  2.60000000E-02  2.70000000E-02  2.70000000E-02  2.70000000E-02
  2.70000000E-02  2.80000000E-02  2.80000000E-02  2.80000000E-02  3.30000000E-02
  3.30000000E-02  2.60000000E-02  2.10000000E-02  1.80000000E-02  1.60000000E-02
  1.80000000E-02  2.20000000E-02  2.60000000E-02  4.90000000E-02  8.20000000E-02
  3.00000000E-02  2.40000000E-02  2.10000000E-02  1.80000000E-02  1.60000000E-02
  1.50000000E-02  3.50000000E-02  3.60000000E-02  2.20000000E-02  2.30000000E-02
  2.40000000E-02  2.40000000E-02  2.50000000E-02  2.50000000E-02  2.60000000E-02
  2.70000000E-02  2.70000000E-02  2.80000000E-02  2.80000000E-02  2.90000000E-02
  3.00000000E-02  3.00000000E-02  3.10000000E-02  3.10000000E-02  3.10000000E-02
  3.10000000E-02  3.10000000E-02  3.10000000E-02  3.10000000E-02  3.10000000E-02
  3.10000000E-02  3.10000000E-02  3.10000000E-02  3.10000000E-02  3.10000000E-02
  3.10000000E-02  3.10000000E-02  3.10000000E-02  3.10000000E-02  3.10000000E-02
  3.10000000E-02  3.10000000E-02  3.10000000E-02  3.10000000E-02  3.10000000E-02
  3.10000000E-02  3.10000000E-02  3.10000000E-02  3.10000000E-02  3.10000000E-02
  3.10000000E-02  3.10000000E-02  3.10000000E-02  3.10000000E-02  3.10000000E-02
  3.10000000E-02  3.10000000E-02  3.10000000E-02  3.10000000E-02  3.10000000E-02
  3.10000000E-02  3.10000000E-02  3.10000000E-02  3.10000000E-02  3.10000000E-02
  3.10000000E-02  3.10000000E-02  3.10000000E-02  3.10000000E-02  3.10000000E-02
  3.10000000E-02  3.10000000E-02  3.10000000E-02  3.10000000E-02  3.10000000E-02
  3.10000000E-02  3.10000000E-02  3.10000000E-02  3.10000000E-02  3.10000000E-02
  3.10000000E-02  3.10000000E-02  3.10000000E-02  3.10000000E-02  3.10000000E-02
  3.10000000E-02  3.10000000E-02  3.10000000E-02  3.10000000E-02  3.10000000E-02
  3.10000000E-02  3.10000000E-02  3.10000000E-02  3.10000000E-02  3.10000000E-02
  3.10000000E-02  3.10000000E-02  3.10000000E-02  3.10000000E-02  3.10000000E-02
  3.10000000E-02  3.10000000E-02  3.10000000E-02  3.10000000E-02  3.10000000E-02
  3.10000000E-02  3.10000000E-02  3.10000000E-02  3.10000000E-02  3.10000000E-02
  3.10000000E-02  3.10000000E-02  3.10000000E-02  3.10000000E-02  3.10000000E-02
  3.10000000E-02  3.10000000E-02  3.10000000E-02  3.10000000E-02  3.10000000E-02
 -5.92770000E-01 -9.17860000E-01 -2.48668000E+00 -8.36430000E-01 -3.18470000E-01
 -4.55790000E-01 -5.70730000E-01 -6.77940000E-01 -7.69860000E-01 -8.51140000E-01
 -1.51908000E+00 -3.18830000E-01 -2.17900000E-01 -3.01260000E-01 -3.72750000E-01
 -4.15890000E-01 -4.45930000E-01 -5.91320000E-01 -9.56370000E-01 -2.88450000E-01
 -4.87320000E-01 -6.34280000E-01 -7.17490000E-01 -7.91980000E-01 -8.68490000E-01
 -9.17520000E-01 -9.54890000E-01 -9.88460000E-01 -1.50055000E+00 -2.92560000E-01
 -2.14960000E-01 -2.91180000E-01 -3.42080000E-01 -3.84480000E-01 -4.34940000E-01
 -5.24310000E-01 -8.10070000E-01 -2.58460000E-01 -4.35550000E-01 -5.32740000E-01
 -6.08450000E-01 -6.10260000E-01 -7.58920000E-01 -8.90130000E-01 -8.45780000E-01
 -8.69340000E-01 -1.38234000E+00 -2.64850000E-01 -1.97280000E-01 -2.65040000E-01
 -2.94470000E-01 -3.16570000E-01 -3.63590000E-01 -4.57840000E-01 -8.61830000E-01
 -1.33004000E+00 -6.82880000E-01 -6.25540000E-01 -6.35430000E-01 -8.79690000E-01
 -9.02690000E-01 -9.59650000E-01 -1.01869000E+00 -6.81170000E-01 -7.96500000E-01
 -9.04950000E-01 -8.34790000E-01 -9.01560000E-01 -9.74130000E-01 -1.03326000E+00
 -7.15490000E-01 -7.83960000E-01 -8.28380000E-01 -5.61040000E-01 -1.03841000E+00
 -8.62500000E-01 -9.59300000E-01 -1.01755000E+00 -7.64900000E-01 -1.29467000E+00
 -1.92740000E-01 -2.56010000E-01 -3.19820000E-01 -1.94660000E-01 -2.60090000E-01
 -4.27990000E-01  0.00000000E+00  0.00000000E+00  0.00000000E+00  0.00000000E+00
  0.00000000E+00  0.00000000E+00  0.00000000E+00  0.00000000E+00  0.00000000E+00
  0.00000000E+00  0.00000000E+00  0.00000000E+00  0.00000000E+00  0.00000000E+00
  0.00000000E+00  0.00000000E+00  0.00000000E+00  0.00000000E+00  0.00000000E+00
  0.00000000E+00  0.00000000E+00  0.00000000E+00  0.00000000E+00  0.00000000E+00
  0.00000000E+00  0.00000000E+00  0.00000000E+00  0.00000000E+00  0.00000000E+00
  0.00000000E+00  0.00000000E+00  0.00000000E+00  0.00000000E+00  0.00000000E+00
  0.00000000E+00  0.00000000E+00  0.00000000E+00  0.00000000E+00  0.00000000E+00
  0.00000000E+00  0.00000000E+00  0.00000000E+00  0.00000000E+00  0.00000000E+00
  0.00000000E+00  0.00000000E+00  0.00000000E+00  0.00000000E+00  0.00000000E+00
  0.00000000E+00  0.00000000E+00  0.00000000E+00  0.00000000E+00  0.00000000E+00
  0.00000000E+00  0.00000000E+00  0.00000000E+00  0.00000000E+00  0.00000000E+00
  0.00000000E+00  0.00000000E+00  0.00000000E+00  0.00000000E+00  0.00000000E+00
  0.00000000E+00  0.00000000E+00  0.00000000E+00  0.00000000E+00  0.00000000E+00
  0.00000000E+00  0.00000000E+00  0.00000000E+00  0.00000000E+00  0.00000000E+00
  0.00000000E+00  0.00000000E+00  0.00000000E+00  0.00000000E+00  0.00000000E+00
  0.00000000E+00  0.00000000E+00  0.00000000E+00  0.00000000E+00  0.00000000E+00
  0.00000000E+00  0.00000000E+00  0.00000000E+00  0.00000000E+00  0.00000000E+00
  0.00000000E+00  0.00000000E+00  0.00000000E+00  0.00000000E+00  0.00000000E+00
  0.00000000E+00  0.00000000E+00  0.00000000E+00  0.00000000E+00  0.00000000E+00
  0.00000000E+00  0.00000000E+00  0.00000000E+00  0.00000000E+00  0.00000000E+00
  0.00000000E+00  0.00000000E+00  0.00000000E+00  0.00000000E+00  0.00000000E+00
  0.00000000E+00  0.00000000E+00  0.00000000E+00  0.00000000E+00  0.00000000E+00
  1.90440000E+00  1.36430000E+00  4.84000000E-01  7.31600000E+00  9.24030000E+00
  8.78200000E+00  5.61290000E+00  4.83340000E+00  3.24870000E+00  2.71090000E+00
  2.01130000E+00  1.50282000E+01  1.46788000E+01  2.13546000E+01  2.38290000E+01
  1.98022000E+01  1.50468000E+01  1.09745000E+01  1.27219000E+01  1.51949000E+01
  1.57342000E+01  2.79222000E+01  1.61366000E+01  2.21252000E+01  2.45676000E+01
  1.96016000E+01  1.79818000E+01  1.72396000E+01  5.01500000E+00  1.92898000E+01
  2.34477000E+01  2.23993000E+01  2.96586000E+01  2.60081000E+01  2.15580000E+01
  1.69594000E+01  1.56479000E+01  1.86897000E+01  1.93530000E+01  3.43444000E+01
  1.98480000E+01  2.72140000E+01  3.02182000E+01  2.41099000E+01  2.21176000E+01
  2.12047000E+01  7.56690000E+00  2.37264000E+01  2.93879000E+01  3.01278000E+01
  4.19382000E+01  3.85203000E+01  3.39511000E+01  2.75774000E+01  1.56460000E+01
  1.04460000E+01  2.01830000E+01  4.99540000E+01  4.76430000E+01  1.18690000E+01
  1.08670000E+01  9.96100000E+00  9.18700000E+00  3.67980000E+01  1.34070000E+01
  9.38200000E+00  9.81700000E+00  8.90800000E+00  8.40700000E+00  8.05800000E+00
  1.29600000E+01  2.67920000E+01  2.49300000E+01  3.45630000E+01  1.11860000E+01
  1.09440000E+01  1.01270000E+01  9.40400000E+00  1.36660000E+01  7.81000000E+00
  6.93600000E+01  5.86630000E+01  4.79690000E+01  4.52740000E+01  3.92290000E+01
  3.30660000E+01  0.00000000E+00  0.00000000E+00  0.00000000E+00  0.00000000E+00
  0.00000000E+00  0.00000000E+00  0.00000000E+00  0.00000000E+00  0.00000000E+00
  0.00000000E+00  0.00000000E+00  0.00000000E+00  0.00000000E+00  0.00000000E+00
  0.00000000E+00  0.00000000E+00  0.00000000E+00  0.00000000E+00  0.00000000E+00
  0.00000000E+00  0.00000000E+00  0.00000000E+00  0.00000000E+00  0.00000000E+00
  0.00000000E+00  0.00000000E+00  0.00000000E+00  0.00000000E+00  0.00000000E+00
  0.00000000E+00  0.00000000E+00  0.00000000E+00  0.00000000E+00  0.00000000E+00
  0.00000000E+00  0.00000000E+00  0.00000000E+00  0.00000000E+00  0.00000000E+00
  0.00000000E+00  0.00000000E+00  0.00000000E+00  0.00000000E+00  0.00000000E+00
  0.00000000E+00  0.00000000E+00  0.00000000E+00  0.00000000E+00  0.00000000E+00
  0.00000000E+00  0.00000000E+00  0.00000000E+00  0.00000000E+00  0.00000000E+00
  0.00000000E+00  0.00000000E+00  0.00000000E+00  0.00000000E+00  0.00000000E+00
  0.00000000E+00  0.00000000E+00  0.00000000E+00  0.00000000E+00  0.00000000E+00
  0.00000000E+00  0.00000000E+00  0.00000000E+00  0.00000000E+00  0.00000000E+00
  0.00000000E+00  0.00000000E+00  0.00000000E+00  0.00000000E+00  0.00000000E+00
  0.00000000E+00  0.00000000E+00  0.00000000E+00  0.00000000E+00  0.00000000E+00
  0.00000000E+00  0.00000000E+00  0.00000000E+00  0.00000000E+00  0.00000000E+00
  0.00000000E+00  0.00000000E+00  0.00000000E+00  0.00000000E+00  0.00000000E+00
  0.00000000E+00  0.00000000E+00  0.00000000E+00  0.00000000E+00  0.00000000E+00
  0.00000000E+00  0.00000000E+00  0.00000000E+00  0.00000000E+00  0.00000000E+00
  0.00000000E+00  0.00000000E+00  0.00000000E+00  0.00000000E+00  0.00000000E+00
  0.00000000E+00  0.00000000E+00  0.00000000E+00  0.00000000E+00  0.00000000E+00
  0.00000000E+00  0.00000000E+00  0.00000000E+00  0.00000000E+00  0.00000000E+00
  0.00000000E+00  0.00000000E+00  0.00000000E+00  0.00000000E+00  0.00000000E+00
  0.00000000E+00  0.00000000E+00  0.00000000E+00  0.00000000E+00  0.00000000E+00
  0.00000000E+00  0.00000000E+00  0.00000000E+00  0.00000000E+00  0.00000000E+00
  0.00000000E+00  0.00000000E+00  0.00000000E+00  0.00000000E+00  0.00000000E+00
  0.00000000E+00  0.00000000E+00  0.00000000E+00  0.00000000E+00  0.00000000E+00
  0.00000000E+00  0.00000000E+00  0.00000000E+00  0.00000000E+00  0.00000000E+00
  0.00000000E+00  0.00000000E+00  0.00000000E+00  0.00000000E+00  0.00000000E+00
  0.00000000E+00  0.00000000E+00  0.00000000E+00  0.00000000E+00  0.00000000E+00
  0.00000000E+00  0.00000000E+00  0.00000000E+00  0.00000000E+00  0.00000000E+00
  0.00000000E+00  0.00000000E+00  0.00000000E+00  0.00000000E+00  0.00000000E+00
  0.00000000E+00  0.00000000E+00  0.00000000E+00  0.00000000E+00  0.00000000E+00
  0.00000000E+00  0.00000000E+00  0.00000000E+00  0.00000000E+00  0.00000000E+00
  0.00000000E+00  0.00000000E+00  0.00000000E+00  0.00000000E+00  0.00000000E+00
  0.00000000E+00  0.00000000E+00  0.00000000E+00  0.00000000E+00  0.00000000E+00
  0.00000000E+00  0.00000000E+00  0.00000000E+00  0.00000000E+00  0.00000000E+00
  0.00000000E+00  0.00000000E+00  0.00000000E+00  0.00000000E+00  0.00000000E+00
  0.00000000E+00  0.00000000E+00  0.00000000E+00  0.00000000E+00  0.00000000E+00
  0.00000000E+00  0.00000000E+00  0.00000000E+00  0.00000000E+00  0.00000000E+00
  0.00000000E+00  0.00000000E+00  0.00000000E+00  0.00000000E+00  0.00000000E+00
  0.00000000E+00  0.00000000E+00  0.00000000E+00  0.00000000E+00  0.00000000E+00
  0.00000000E+00  0.00000000E+00  0.00000000E+00  0.00000000E+00  0.00000000E+00
  0.00000000E+00  0.00000000E+00  0.00000000E+00  0.00000000E+00  0.00000000E+00
  0.00000000E+00  0.00000000E+00  0.00000000E+00  0.00000000E+00  0.00000000E+00
  0.00000000E+00  0.00000000E+00  0.00000000E+00  0.00000000E+00  0.00000000E+00
  0.00000000E+00  0.00000000E+00  0.00000000E+00  0.00000000E+00  0.00000000E+00
  0.00000000E+00  0.00000000E+00  0.00000000E+00  0.00000000E+00  0.00000000E+00
  0.00000000E+00  0.00000000E+00  0.00000000E+00  0.00000000E+00  0.00000000E+00
  0.00000000E+00  0.00000000E+00  0.00000000E+00  0.00000000E+00  0.00000000E+00
  0.00000000E+00  0.00000000E+00  0.00000000E+00  0.00000000E+00  0.00000000E+00
  0.00000000E+00  0.00000000E+00  0.00000000E+00  0.00000000E+00  0.00000000E+00
  0.00000000E+00  0.00000000E+00  0.00000000E+00  0.00000000E+00  0.00000000E+00
  0.00000000E+00  0.00000000E+00  0.00000000E+00  0.00000000E+00  0.00000000E+00
  0.00000000E+00  0.00000000E+00  0.00000000E+00  0.00000000E+00  0.00000000E+00
  0.00000000E+00  0.00000000E+00  0.00000000E+00  0.00000000E+00  0.00000000E+00
  0.00000000E+00  0.00000000E+00  0.00000000E+00  0.00000000E+00  0.00000000E+00
  0.00000000E+00  0.00000000E+00  0.00000000E+00  0.00000000E+00  0.00000000E+00
  0.00000000E+00  0.00000000E+00  0.00000000E+00  0.00000000E+00  0.00000000E+00
  0.00000000E+00  0.00000000E+00  0.00000000E+00  0.00000000E+00  0.00000000E+00
  0.00000000E+00  0.00000000E+00  0.00000000E+00  0.00000000E+00  0.00000000E+00
  0.00000000E+00  0.00000000E+00  0.00000000E+00  0.00000000E+00  0.00000000E+00
  0.00000000E+00  0.00000000E+00  0.00000000E+00  0.00000000E+00  0.00000000E+00
  0.00000000E+00  0.00000000E+00  0.00000000E+00  0.00000000E+00  0.00000000E+00
  0.00000000E+00  0.00000000E+00  0.00000000E+00  0.00000000E+00  0.00000000E+00
  0.00000000E+00  0.00000000E+00  0.00000000E+00  0.00000000E+00  0.00000000E+00
  0.00000000E+00  0.00000000E+00  0.00000000E+00  0.00000000E+00  0.00000000E+00
  0.00000000E+00  0.00000000E+00  0.00000000E+00  0.00000000E+00  0.00000000E+00
  0.00000000E+00  0.00000000E+00  0.00000000E+00  0.00000000E+00  0.00000000E+00
  0.00000000E+00  0.00000000E+00  0.00000000E+00  0.00000000E+00  0.00000000E+00
  0.00000000E+00  0.00000000E+00  0.00000000E+00  0.00000000E+00  0.00000000E+00
  0.00000000E+00  0.00000000E+00  0.00000000E+00  0.00000000E+00  0.00000000E+00
  0.00000000E+00  0.00000000E+00  0.00000000E+00  0.00000000E+00  0.00000000E+00
  0.00000000E+00  0.00000000E+00  0.00000000E+00  0.00000000E+00  0.00000000E+00
  0.00000000E+00  0.00000000E+00  0.00000000E+00  0.00000000E+00  0.00000000E+00
  0.00000000E+00  0.00000000E+00  0.00000000E+00  0.00000000E+00  0.00000000E+00
  0.00000000E+00  0.00000000E+00  0.00000000E+00  0.00000000E+00  0.00000000E+00
  0.00000000E+00  0.00000000E+00  0.00000000E+00  0.00000000E+00  0.00000000E+00
  0.00000000E+00  0.00000000E+00  0.00000000E+00  0.00000000E+00  0.00000000E+00
  0.00000000E+00  0.00000000E+00  0.00000000E+00  0.00000000E+00  0.00000000E+00
  0.00000000E+00  0.00000000E+00  0.00000000E+00  0.00000000E+00  0.00000000E+00
  0.00000000E+00  0.00000000E+00  0.00000000E+00  0.00000000E+00  0.00000000E+00
  0.00000000E+00  0.00000000E+00  0.00000000E+00  0.00000000E+00  0.00000000E+00
  0.00000000E+00  0.00000000E+00  0.00000000E+00  0.00000000E+00  0.00000000E+00
  0.00000000E+00  0.00000000E+00  0.00000000E+00  0.00000000E+00  0.00000000E+00
  0.00000000E+00  0.00000000E+00  0.00000000E+00  0.00000000E+00  0.00000000E+00
  0.00000000E+00  0.00000000E+00  0.00000000E+00  0.00000000E+00  0.00000000E+00
  0.00000000E+00  0.00000000E+00  0.00000000E+00  0.00000000E+00  0.00000000E+00
  0.00000000E+00  0.00000000E+00  0.00000000E+00  0.00000000E+00  0.00000000E+00
  0.00000000E+00  0.00000000E+00  0.00000000E+00  0.00000000E+00  0.00000000E+00
  0.00000000E+00  0.00000000E+00  0.00000000E+00  0.00000000E+00  0.00000000E+00
  0.00000000E+00  0.00000000E+00  0.00000000E+00  0.00000000E+00  0.00000000E+00
  0.00000000E+00  0.00000000E+00  0.00000000E+00  0.00000000E+00  0.00000000E+00
  0.00000000E+00  0.00000000E+00  0.00000000E+00  0.00000000E+00  0.00000000E+00
  0.00000000E+00  0.00000000E+00  0.00000000E+00  0.00000000E+00  0.00000000E+00
  0.00000000E+00  0.00000000E+00  0.00000000E+00  0.00000000E+00  0.00000000E+00
  0.00000000E+00  0.00000000E+00  0.00000000E+00  0.00000000E+00  0.00000000E+00
  0.00000000E+00  0.00000000E+00  0.00000000E+00  0.00000000E+00  0.00000000E+00
  0.00000000E+00  0.00000000E+00  0.00000000E+00  0.00000000E+00  0.00000000E+00
  0.00000000E+00  0.00000000E+00  0.00000000E+00  0.00000000E+00  0.00000000E+00
  0.00000000E+00  0.00000000E+00  0.00000000E+00  0.00000000E+00  0.00000000E+00
  0.00000000E+00  0.00000000E+00  0.00000000E+00  0.00000000E+00  0.00000000E+00
  0.00000000E+00  0.00000000E+00  0.00000000E+00  0.00000000E+00  0.00000000E+00
  0.00000000E+00  0.00000000E+00  0.00000000E+00  0.00000000E+00  0.00000000E+00
  0.00000000E+00  0.00000000E+00  0.00000000E+00  0.00000000E+00  0.00000000E+00
  0.00000000E+00  0.00000000E+00  0.00000000E+00  0.00000000E+00  0.00000000E+00
  0.00000000E+00  0.00000000E+00  0.00000000E+00  0.00000000E+00  0.00000000E+00
  0.00000000E+00  0.00000000E+00  0.00000000E+00  0.00000000E+00  0.00000000E+00
  0.00000000E+00  0.00000000E+00  0.00000000E+00  0.00000000E+00  0.00000000E+00
  0.00000000E+00  0.00000000E+00  0.00000000E+00  0.00000000E+00  0.00000000E+00
  0.00000000E+00  0.00000000E+00  0.00000000E+00  0.00000000E+00  0.00000000E+00
  0.00000000E+00  0.00000000E+00  0.00000000E+00  0.00000000E+00  0.00000000E+00
  0.00000000E+00  0.00000000E+00  0.00000000E+00  0.00000000E+00  0.00000000E+00
  0.00000000E+00  0.00000000E+00  0.00000000E+00  0.00000000E+00  0.00000000E+00
  0.00000000E+00  0.00000000E+00  0.00000000E+00  0.00000000E+00  0.00000000E+00
  0.00000000E+00  0.00000000E+00  0.00000000E+00  0.00000000E+00  0.00000000E+00
  0.00000000E+00  0.00000000E+00  0.00000000E+00  0.00000000E+00  0.00000000E+00
  0.00000000E+00  0.00000000E+00  0.00000000E+00  0.00000000E+00  0.00000000E+00
  0.00000000E+00  0.00000000E+00  0.00000000E+00  0.00000000E+00  0.00000000E+00
  0.00000000E+00  0.00000000E+00  0.00000000E+00  0.00000000E+00  0.00000000E+00
  0.00000000E+00  0.00000000E+00  0.00000000E+00  0.00000000E+00  0.00000000E+00
  0.00000000E+00  0.00000000E+00  0.00000000E+00  0.00000000E+00  0.00000000E+00
  0.00000000E+00  0.00000000E+00  0.00000000E+00  0.00000000E+00  0.00000000E+00
  0.00000000E+00  0.00000000E+00  0.00000000E+00  0.00000000E+00  0.00000000E+00
  0.00000000E+00  0.00000000E+00  0.00000000E+00  0.00000000E+00  0.00000000E+00
  0.00000000E+00  0.00000000E+00  0.00000000E+00  0.00000000E+00  0.00000000E+00
  0.00000000E+00  0.00000000E+00  0.00000000E+00  0.00000000E+00  0.00000000E+00
  0.00000000E+00  0.00000000E+00  0.00000000E+00  0.00000000E+00  0.00000000E+00
  0.00000000E+00  0.00000000E+00  0.00000000E+00  0.00000000E+00  0.00000000E+00
  0.00000000E+00  0.00000000E+00  0.00000000E+00  0.00000000E+00  0.00000000E+00
  0.00000000E+00  0.00000000E+00  0.00000000E+00  0.00000000E+00  0.00000000E+00
  0.00000000E+00  0.00000000E+00  0.00000000E+00  0.00000000E+00  0.00000000E+00
  0.00000000E+00  0.00000000E+00  0.00000000E+00  0.00000000E+00  0.00000000E+00
  0.00000000E+00  0.00000000E+00  0.00000000E+00  0.00000000E+00  0.00000000E+00
  0.00000000E+00  0.00000000E+00  0.00000000E+00  0.00000000E+00  0.00000000E+00
  0.00000000E+00  0.00000000E+00  0.00000000E+00  0.00000000E+00  0.00000000E+00
  0.00000000E+00  0.00000000E+00  0.00000000E+00  0.00000000E+00  0.00000000E+00
  0.00000000E+00  0.00000000E+00  0.00000000E+00  0.00000000E+00  0.00000000E+00
  0.00000000E+00  0.00000000E+00  0.00000000E+00  0.00000000E+00  0.00000000E+00
  0.00000000E+00  0.00000000E+00  0.00000000E+00  0.00000000E+00  0.00000000E+00
  0.00000000E+00  0.00000000E+00  0.00000000E+00  0.00000000E+00  0.00000000E+00
  0.00000000E+00  0.00000000E+00  0.00000000E+00  0.00000000E+00  0.00000000E+00
  0.00000000E+00  0.00000000E+00  0.00000000E+00  0.00000000E+00  0.00000000E+00
  0.00000000E+00  0.00000000E+00  0.00000000E+00  0.00000000E+00  0.00000000E+00
  0.00000000E+00  0.00000000E+00  0.00000000E+00  0.00000000E+00  0.00000000E+00
  0.00000000E+00  0.00000000E+00  0.00000000E+00  0.00000000E+00  0.00000000E+00
  0.00000000E+00  0.00000000E+00  0.00000000E+00  0.00000000E+00  0.00000000E+00
  0.00000000E+00  0.00000000E+00  0.00000000E+00  0.00000000E+00  0.00000000E+00
  0.00000000E+00  0.00000000E+00  0.00000000E+00  0.00000000E+00  0.00000000E+00
  0.00000000E+00  0.00000000E+00  0.00000000E+00  0.00000000E+00  0.00000000E+00
  0.00000000E+00  0.00000000E+00  0.00000000E+00  0.00000000E+00  0.00000000E+00
  0.00000000E+00  0.00000000E+00  0.00000000E+00  0.00000000E+00  0.00000000E+00
  0.00000000E+00  0.00000000E+00  0.00000000E+00  0.00000000E+00  0.00000000E+00
  0.00000000E+00  0.00000000E+00  0.00000000E+00  0.00000000E+00  0.00000000E+00
  0.00000000E+00  0.00000000E+00  0.00000000E+00  0.00000000E+00  0.00000000E+00
  0.00000000E+00  0.00000000E+00  0.00000000E+00  0.00000000E+00  0.00000000E+00
  0.00000000E+00  0.00000000E+00  0.00000000E+00  0.00000000E+00  0.00000000E+00
  0.00000000E+00  0.00000000E+00  0.00000000E+00  0.00000000E+00  0.00000000E+00
  0.00000000E+00  0.00000000E+00  0.00000000E+00  0.00000000E+00  0.00000000E+00
  0.00000000E+00  0.00000000E+00  0.00000000E+00  0.00000000E+00  0.00000000E+00
  0.00000000E+00  0.00000000E+00  0.00000000E+00  0.00000000E+00  0.00000000E+00
  0.00000000E+00  0.00000000E+00  0.00000000E+00  0.00000000E+00  0.00000000E+00
  0.00000000E+00  0.00000000E+00  0.00000000E+00  0.00000000E+00  0.00000000E+00
  0.00000000E+00  0.00000000E+00  0.00000000E+00  0.00000000E+00  0.00000000E+00
  0.00000000E+00  0.00000000E+00  0.00000000E+00  0.00000000E+00  0.00000000E+00
  0.00000000E+00  0.00000000E+00  0.00000000E+00  0.00000000E+00  0.00000000E+00
  0.00000000E+00  0.00000000E+00  0.00000000E+00  0.00000000E+00  0.00000000E+00
  0.00000000E+00  0.00000000E+00  0.00000000E+00  0.00000000E+00  0.00000000E+00
  0.00000000E+00  0.00000000E+00  0.00000000E+00  0.00000000E+00  0.00000000E+00
  0.00000000E+00  0.00000000E+00  0.00000000E+00  0.00000000E+00  0.00000000E+00
  0.00000000E+00  0.00000000E+00  0.00000000E+00  0.00000000E+00  0.00000000E+00
  0.00000000E+00  0.00000000E+00  0.00000000E+00  0.00000000E+00  0.00000000E+00
  0.00000000E+00  0.00000000E+00  0.00000000E+00  0.00000000E+00  0.00000000E+00
  0.00000000E+00  0.00000000E+00  0.00000000E+00  0.00000000E+00  0.00000000E+00
  0.00000000E+00  0.00000000E+00  0.00000000E+00  0.00000000E+00  0.00000000E+00
  0.00000000E+00  0.00000000E+00  0.00000000E+00  0.00000000E+00  0.00000000E+00
  0.00000000E+00  0.00000000E+00  0.00000000E+00  0.00000000E+00  0.00000000E+00
  0.00000000E+00  0.00000000E+00  0.00000000E+00  0.00000000E+00  0.00000000E+00
  0.00000000E+00  0.00000000E+00  0.00000000E+00  0.00000000E+00  0.00000000E+00
  0.00000000E+00  0.00000000E+00  0.00000000E+00  0.00000000E+00  0.00000000E+00
  0.00000000E+00  0.00000000E+00  0.00000000E+00  0.00000000E+00  0.00000000E+00
  0.00000000E+00  0.00000000E+00  0.00000000E+00  0.00000000E+00  0.00000000E+00
  0.00000000E+00  0.00000000E+00  0.00000000E+00  0.00000000E+00  0.00000000E+00
  0.00000000E+00  0.00000000E+00  0.00000000E+00  0.00000000E+00  0.00000000E+00
  0.00000000E+00  0.00000000E+00  0.00000000E+00  0.00000000E+00  0.00000000E+00
  0.00000000E+00  0.00000000E+00  0.00000000E+00  0.00000000E+00  0.00000000E+00
  0.00000000E+00  0.00000000E+00  0.00000000E+00  0.00000000E+00  0.00000000E+00
  0.00000000E+00  0.00000000E+00  0.00000000E+00  0.00000000E+00  0.00000000E+00
  0.00000000E+00  0.00000000E+00  0.00000000E+00  0.00000000E+00  0.00000000E+00
  0.00000000E+00  0.00000000E+00  0.00000000E+00  0.00000000E+00  0.00000000E+00
  0.00000000E+00  0.00000000E+00  0.00000000E+00  0.00000000E+00  0.00000000E+00
  0.00000000E+00  0.00000000E+00  0.00000000E+00  0.00000000E+00  0.00000000E+00
  0.00000000E+00  0.00000000E+00  0.00000000E+00  0.00000000E+00  0.00000000E+00
  0.00000000E+00  0.00000000E+00  0.00000000E+00  0.00000000E+00  0.00000000E+00
  0.00000000E+00  0.00000000E+00  0.00000000E+00  0.00000000E+00  0.00000000E+00
  0.00000000E+00  0.00000000E+00  0.00000000E+00  0.00000000E+00  0.00000000E+00
  0.00000000E+00  0.00000000E+00  0.00000000E+00  0.00000000E+00  0.00000000E+00
  0.00000000E+00  0.00000000E+00  0.00000000E+00  0.00000000E+00  0.00000000E+00
  0.00000000E+00  0.00000000E+00  0.00000000E+00  0.00000000E+00  0.00000000E+00
  0.00000000E+00  0.00000000E+00  0.00000000E+00  0.00000000E+00  0.00000000E+00
  0.00000000E+00  0.00000000E+00  0.00000000E+00  0.00000000E+00  0.00000000E+00
  0.00000000E+00  0.00000000E+00  0.00000000E+00  0.00000000E+00  0.00000000E+00
  0.00000000E+00  0.00000000E+00  0.00000000E+00  0.00000000E+00  0.00000000E+00
  0.00000000E+00  0.00000000E+00  0.00000000E+00  0.00000000E+00  0.00000000E+00
  0.00000000E+00  0.00000000E+00  0.00000000E+00  0.00000000E+00  0.00000000E+00
  0.00000000E+00  0.00000000E+00  0.00000000E+00  0.00000000E+00  0.00000000E+00
  0.00000000E+00  0.00000000E+00  0.00000000E+00  0.00000000E+00  0.00000000E+00
  0.00000000E+00  0.00000000E+00  0.00000000E+00  0.00000000E+00  0.00000000E+00
  0.00000000E+00  0.00000000E+00  0.00000000E+00  0.00000000E+00  0.00000000E+00
  0.00000000E+00  0.00000000E+00  0.00000000E+00  0.00000000E+00  0.00000000E+00
  0.00000000E+00  0.00000000E+00  0.00000000E+00  0.00000000E+00  0.00000000E+00
  0.00000000E+00  0.00000000E+00  0.00000000E+00  0.00000000E+00  0.00000000E+00
  0.00000000E+00  0.00000000E+00  0.00000000E+00  0.00000000E+00  0.00000000E+00
  0.00000000E+00  0.00000000E+00  0.00000000E+00  0.00000000E+00  0.00000000E+00
  0.00000000E+00  0.00000000E+00  0.00000000E+00  0.00000000E+00  0.00000000E+00
  0.00000000E+00  0.00000000E+00  0.00000000E+00  0.00000000E+00  0.00000000E+00
  0.00000000E+00  0.00000000E+00  0.00000000E+00  0.00000000E+00  0.00000000E+00
  0.00000000E+00  0.00000000E+00  0.00000000E+00  0.00000000E+00  0.00000000E+00
  0.00000000E+00  0.00000000E+00  0.00000000E+00  0.00000000E+00  0.00000000E+00
  0.00000000E+00  0.00000000E+00  0.00000000E+00  0.00000000E+00  0.00000000E+00
  0.00000000E+00  0.00000000E+00  0.00000000E+00  0.00000000E+00  0.00000000E+00
  0.00000000E+00  0.00000000E+00  0.00000000E+00  0.00000000E+00  0.00000000E+00
  0.00000000E+00  0.00000000E+00  0.00000000E+00  0.00000000E+00  0.00000000E+00
  0.00000000E+00  0.00000000E+00  0.00000000E+00  0.00000000E+00  0.00000000E+00
  0.00000000E+00  0.00000000E+00  0.00000000E+00  0.00000000E+00  0.00000000E+00
  0.00000000E+00  0.00000000E+00  0.00000000E+00  0.00000000E+00  0.00000000E+00
  0.00000000E+00  0.00000000E+00  0.00000000E+00  0.00000000E+00  0.00000000E+00
  0.00000000E+00  0.00000000E+00  0.00000000E+00  0.00000000E+00  0.00000000E+00
  0.00000000E+00  0.00000000E+00  0.00000000E+00  0.00000000E+00  0.00000000E+00
  0.00000000E+00  0.00000000E+00  0.00000000E+00  0.00000000E+00  0.00000000E+00
  0.00000000E+00  0.00000000E+00  0.00000000E+00  0.00000000E+00  0.00000000E+00
  0.00000000E+00  0.00000000E+00  0.00000000E+00  0.00000000E+00  0.00000000E+00
  0.00000000E+00  0.00000000E+00  0.00000000E+00  0.00000000E+00  0.00000000E+00
  0.00000000E+00  0.00000000E+00  0.00000000E+00  0.00000000E+00  0.00000000E+00
  0.00000000E+00  0.00000000E+00  0.00000000E+00  0.00000000E+00  0.00000000E+00
  0.00000000E+00  0.00000000E+00  0.00000000E+00  0.00000000E+00  0.00000000E+00
  0.00000000E+00  0.00000000E+00  0.00000000E+00  0.00000000E+00  0.00000000E+00
  0.00000000E+00  0.00000000E+00  0.00000000E+00  0.00000000E+00  0.00000000E+00
  0.00000000E+00  0.00000000E+00  0.00000000E+00  0.00000000E+00  0.00000000E+00
  0.00000000E+00  0.00000000E+00  0.00000000E+00  0.00000000E+00  0.00000000E+00
  0.00000000E+00  0.00000000E+00  0.00000000E+00  0.00000000E+00  0.00000000E+00
  0.00000000E+00  0.00000000E+00  0.00000000E+00  0.00000000E+00  0.00000000E+00
  0.00000000E+00  0.00000000E+00  0.00000000E+00  0.00000000E+00  0.00000000E+00
  0.00000000E+00  0.00000000E+00  0.00000000E+00  0.00000000E+00  0.00000000E+00
  0.00000000E+00  0.00000000E+00  0.00000000E+00  0.00000000E+00  0.00000000E+00
  0.00000000E+00  0.00000000E+00  0.00000000E+00  0.00000000E+00  0.00000000E+00
  0.00000000E+00  0.00000000E+00  0.00000000E+00  0.00000000E+00  0.00000000E+00
  0.00000000E+00  0.00000000E+00  0.00000000E+00  0.00000000E+00  0.00000000E+00
  0.00000000E+00  0.00000000E+00  0.00000000E+00  0.00000000E+00  0.00000000E+00
  0.00000000E+00  0.00000000E+00  0.00000000E+00  0.00000000E+00  0.00000000E+00
  0.00000000E+00  0.00000000E+00  0.00000000E+00  0.00000000E+00  0.00000000E+00
  0.00000000E+00  0.00000000E+00  0.00000000E+00  0.00000000E+00  0.00000000E+00
  0.00000000E+00  0.00000000E+00  0.00000000E+00  0.00000000E+00  0.00000000E+00
  0.00000000E+00  0.00000000E+00  0.00000000E+00  0.00000000E+00  0.00000000E+00
  0.00000000E+00  0.00000000E+00  0.00000000E+00  0.00000000E+00  0.00000000E+00
  0.00000000E+00  0.00000000E+00  0.00000000E+00  0.00000000E+00  0.00000000E+00
  0.00000000E+00  0.00000000E+00  0.00000000E+00  0.00000000E+00  0.00000000E+00
  0.00000000E+00  0.00000000E+00  0.00000000E+00  0.00000000E+00  0.00000000E+00
  0.00000000E+00  0.00000000E+00  0.00000000E+00  0.00000000E+00  0.00000000E+00
  0.00000000E+00  0.00000000E+00  0.00000000E+00  0.00000000E+00  0.00000000E+00
  0.00000000E+00  0.00000000E+00  0.00000000E+00  0.00000000E+00  0.00000000E+00
  0.00000000E+00  0.00000000E+00  0.00000000E+00  0.00000000E+00  0.00000000E+00
  0.00000000E+00  0.00000000E+00  0.00000000E+00  0.00000000E+00  0.00000000E+00
  0.00000000E+00  0.00000000E+00  0.00000000E+00  0.00000000E+00  0.00000000E+00
  0.00000000E+00  0.00000000E+00  0.00000000E+00  0.00000000E+00  0.00000000E+00
  0.00000000E+00  0.00000000E+00  0.00000000E+00  0.00000000E+00  0.00000000E+00
  0.00000000E+00  0.00000000E+00  0.00000000E+00  0.00000000E+00  0.00000000E+00
  0.00000000E+00  0.00000000E+00  0.00000000E+00  0.00000000E+00  0.00000000E+00
  0.00000000E+00  0.00000000E+00  0.00000000E+00  0.00000000E+00  0.00000000E+00
  0.00000000E+00  0.00000000E+00  0.00000000E+00  0.00000000E+00  0.00000000E+00
  0.00000000E+00  0.00000000E+00  0.00000000E+00  0.00000000E+00  0.00000000E+00
  0.00000000E+00  0.00000000E+00  0.00000000E+00  0.00000000E+00  0.00000000E+00
  0.00000000E+00  0.00000000E+00  0.00000000E+00  0.00000000E+00  0.00000000E+00
  0.00000000E+00  0.00000000E+00  0.00000000E+00  0.00000000E+00  0.00000000E+00
  0.00000000E+00  0.00000000E+00  0.00000000E+00  0.00000000E+00  0.00000000E+00
  0.00000000E+00  0.00000000E+00  0.00000000E+00  0.00000000E+00  0.00000000E+00
  0.00000000E+00  0.00000000E+00  0.00000000E+00  0.00000000E+00  0.00000000E+00
  0.00000000E+00  0.00000000E+00  0.00000000E+00  0.00000000E+00  0.00000000E+00
  0.00000000E+00  0.00000000E+00  0.00000000E+00  0.00000000E+00  0.00000000E+00
  0.00000000E+00  0.00000000E+00  0.00000000E+00  0.00000000E+00  0.00000000E+00
  0.00000000E+00  0.00000000E+00  0.00000000E+00  0.00000000E+00  0.00000000E+00
  0.00000000E+00  0.00000000E+00  0.00000000E+00  0.00000000E+00  0.00000000E+00
  0.00000000E+00  0.00000000E+00  0.00000000E+00  0.00000000E+00  0.00000000E+00
  0.00000000E+00  0.00000000E+00  0.00000000E+00  0.00000000E+00  0.00000000E+00
  0.00000000E+00  0.00000000E+00  0.00000000E+00  0.00000000E+00  0.00000000E+00
  0.00000000E+00  0.00000000E+00  0.00000000E+00  0.00000000E+00  0.00000000E+00
  0.00000000E+00  0.00000000E+00  0.00000000E+00  0.00000000E+00  0.00000000E+00
  0.00000000E+00  0.00000000E+00  0.00000000E+00  0.00000000E+00  0.00000000E+00
  0.00000000E+00  0.00000000E+00  0.00000000E+00  0.00000000E+00  0.00000000E+00
  0.00000000E+00  0.00000000E+00  0.00000000E+00  0.00000000E+00  0.00000000E+00
  0.00000000E+00  0.00000000E+00  0.00000000E+00  0.00000000E+00  0.00000000E+00
  0.00000000E+00  0.00000000E+00  0.00000000E+00  0.00000000E+00  0.00000000E+00
  0.00000000E+00  0.00000000E+00  0.00000000E+00  0.00000000E+00  0.00000000E+00
  0.00000000E+00  0.00000000E+00  0.00000000E+00  0.00000000E+00  0.00000000E+00
  0.00000000E+00  0.00000000E+00  0.00000000E+00  0.00000000E+00  0.00000000E+00
  0.00000000E+00  0.00000000E+00  0.00000000E+00  0.00000000E+00  0.00000000E+00
  0.00000000E+00  0.00000000E+00  0.00000000E+00  0.00000000E+00  0.00000000E+00
  0.00000000E+00  0.00000000E+00  0.00000000E+00  0.00000000E+00  0.00000000E+00
  0.00000000E+00  0.00000000E+00  0.00000000E+00  0.00000000E+00  0.00000000E+00
  0.00000000E+00  0.00000000E+00  0.00000000E+00  0.00000000E+00  0.00000000E+00
  0.00000000E+00  0.00000000E+00  0.00000000E+00  0.00000000E+00  0.00000000E+00
  0.00000000E+00  0.00000000E+00  0.00000000E+00  0.00000000E+00  0.00000000E+00
  0.00000000E+00  0.00000000E+00  0.00000000E+00  0.00000000E+00  0.00000000E+00
  0.00000000E+00  0.00000000E+00  0.00000000E+00  0.00000000E+00  0.00000000E+00
  0.00000000E+00  0.00000000E+00  0.00000000E+00  0.00000000E+00  0.00000000E+00
  0.00000000E+00  0.00000000E+00  0.00000000E+00  0.00000000E+00  0.00000000E+00
  0.00000000E+00  0.00000000E+00  0.00000000E+00  0.00000000E+00  0.00000000E+00
  0.00000000E+00  0.00000000E+00  0.00000000E+00  0.00000000E+00  0.00000000E+00
  0.00000000E+00  0.00000000E+00  0.00000000E+00  0.00000000E+00  0.00000000E+00
  0.00000000E+00  0.00000000E+00  0.00000000E+00  0.00000000E+00  0.00000000E+00
  0.00000000E+00  0.00000000E+00  0.00000000E+00  0.00000000E+00  0.00000000E+00
  0.00000000E+00  0.00000000E+00  0.00000000E+00  0.00000000E+00  0.00000000E+00
  0.00000000E+00  0.00000000E+00  0.00000000E+00  0.00000000E+00  0.00000000E+00
  0.00000000E+00  0.00000000E+00  0.00000000E+00  0.00000000E+00  0.00000000E+00
  0.00000000E+00  0.00000000E+00  0.00000000E+00  0.00000000E+00  0.00000000E+00
  0.00000000E+00  0.00000000E+00  0.00000000E+00  0.00000000E+00  0.00000000E+00
  0.00000000E+00  0.00000000E+00  0.00000000E+00  0.00000000E+00  0.00000000E+00
  0.00000000E+00  0.00000000E+00  0.00000000E+00  0.00000000E+00  0.00000000E+00
  0.00000000E+00  0.00000000E+00  0.00000000E+00  0.00000000E+00  0.00000000E+00
  0.00000000E+00  0.00000000E+00  0.00000000E+00  0.00000000E+00  0.00000000E+00
  0.00000000E+00  0.00000000E+00  0.00000000E+00  0.00000000E+00  0.00000000E+00
  0.00000000E+00  0.00000000E+00  0.00000000E+00  0.00000000E+00  0.00000000E+00
  0.00000000E+00  0.00000000E+00  0.00000000E+00  0.00000000E+00  0.00000000E+00
  0.00000000E+00  0.00000000E+00  0.00000000E+00  0.00000000E+00  0.00000000E+00
  0.00000000E+00  0.00000000E+00  0.00000000E+00  0.00000000E+00  0.00000000E+00
  0.00000000E+00  0.00000000E+00  0.00000000E+00  0.00000000E+00  0.00000000E+00
  0.00000000E+00  0.00000000E+00  0.00000000E+00  0.00000000E+00  0.00000000E+00
  0.00000000E+00  0.00000000E+00  0.00000000E+00  0.00000000E+00  0.00000000E+00
  0.00000000E+00  0.00000000E+00  0.00000000E+00  0.00000000E+00  0.00000000E+00
  0.00000000E+00  0.00000000E+00  0.00000000E+00  0.00000000E+00  0.00000000E+00
  0.00000000E+00  0.00000000E+00  0.00000000E+00  0.00000000E+00  0.00000000E+00
  0.00000000E+00  0.00000000E+00  0.00000000E+00  0.00000000E+00  0.00000000E+00
  0.00000000E+00  0.00000000E+00  0.00000000E+00  0.00000000E+00  0.00000000E+00
  0.00000000E+00  0.00000000E+00  0.00000000E+00  0.00000000E+00  0.00000000E+00
  0.00000000E+00  0.00000000E+00  0.00000000E+00  0.00000000E+00  0.00000000E+00
  0.00000000E+00  0.00000000E+00  0.00000000E+00  0.00000000E+00  0.00000000E+00
  0.00000000E+00  0.00000000E+00  0.00000000E+00  0.00000000E+00  0.00000000E+00
  0.00000000E+00  0.00000000E+00  0.00000000E+00  0.00000000E+00  0.00000000E+00
  0.00000000E+00  0.00000000E+00  0.00000000E+00  0.00000000E+00  0.00000000E+00
  0.00000000E+00  0.00000000E+00  0.00000000E+00  0.00000000E+00  0.00000000E+00
  0.00000000E+00  0.00000000E+00  0.00000000E+00  0.00000000E+00  0.00000000E+00
  0.00000000E+00  0.00000000E+00  0.00000000E+00  0.00000000E+00  0.00000000E+00
  0.00000000E+00  0.00000000E+00  0.00000000E+00  0.00000000E+00  0.00000000E+00
  0.00000000E+00  0.00000000E+00  0.00000000E+00  0.00000000E+00  0.00000000E+00
  0.00000000E+00  0.00000000E+00  0.00000000E+00  0.00000000E+00  0.00000000E+00
  0.00000000E+00  0.00000000E+00  0.00000000E+00  0.00000000E+00  0.00000000E+00
  0.00000000E+00  0.00000000E+00  0.00000000E+00  0.00000000E+00  0.00000000E+00
  0.00000000E+00  0.00000000E+00  0.00000000E+00  0.00000000E+00  0.00000000E+00
  0.00000000E+00  0.00000000E+00  0.00000000E+00  0.00000000E+00  0.00000000E+00
  0.00000000E+00  0.00000000E+00  0.00000000E+00  0.00000000E+00  0.00000000E+00
  0.00000000E+00  0.00000000E+00  0.00000000E+00  0.00000000E+00  0.00000000E+00
  0.00000000E+00  0.00000000E+00  0.00000000E+00  0.00000000E+00  0.00000000E+00
  0.00000000E+00  0.00000000E+00  0.00000000E+00  0.00000000E+00  0.00000000E+00
  0.00000000E+00  0.00000000E+00  0.00000000E+00  0.00000000E+00  0.00000000E+00
  0.00000000E+00  0.00000000E+00  0.00000000E+00  0.00000000E+00  0.00000000E+00
  0.00000000E+00  0.00000000E+00  0.00000000E+00  0.00000000E+00  0.00000000E+00
  0.00000000E+00  0.00000000E+00  0.00000000E+00  0.00000000E+00  0.00000000E+00
  0.00000000E+00  0.00000000E+00  0.00000000E+00  0.00000000E+00  0.00000000E+00
  0.00000000E+00  0.00000000E+00  0.00000000E+00  0.00000000E+00  0.00000000E+00
  0.00000000E+00  0.00000000E+00  0.00000000E+00  0.00000000E+00  0.00000000E+00
  0.00000000E+00  0.00000000E+00  0.00000000E+00  0.00000000E+00  0.00000000E+00
  0.00000000E+00  0.00000000E+00  0.00000000E+00  0.00000000E+00  0.00000000E+00
  0.00000000E+00  0.00000000E+00  0.00000000E+00  0.00000000E+00  0.00000000E+00
  0.00000000E+00  0.00000000E+00  0.00000000E+00  0.00000000E+00  0.00000000E+00
  0.00000000E+00  0.00000000E+00  0.00000000E+00  0.00000000E+00  0.00000000E+00
  0.00000000E+00  0.00000000E+00  0.00000000E+00  0.00000000E+00  0.00000000E+00
  0.00000000E+00  0.00000000E+00  0.00000000E+00  0.00000000E+00  0.00000000E+00
  0.00000000E+00  0.00000000E+00  0.00000000E+00  0.00000000E+00  0.00000000E+00
  0.00000000E+00  0.00000000E+00  0.00000000E+00  0.00000000E+00  0.00000000E+00
  0.00000000E+00  0.00000000E+00  0.00000000E+00  0.00000000E+00  0.00000000E+00
  0.00000000E+00  0.00000000E+00  0.00000000E+00  0.00000000E+00  0.00000000E+00
  0.00000000E+00  0.00000000E+00  0.00000000E+00  0.00000000E+00  0.00000000E+00
  0.00000000E+00  0.00000000E+00  0.00000000E+00  0.00000000E+00  0.00000000E+00
  0.00000000E+00  0.00000000E+00  0.00000000E+00  0.00000000E+00  0.00000000E+00
  0.00000000E+00  0.00000000E+00  0.00000000E+00  0.00000000E+00  0.00000000E+00
  0.00000000E+00  0.00000000E+00  0.00000000E+00  0.00000000E+00  0.00000000E+00
  0.00000000E+00  0.00000000E+00  0.00000000E+00  0.00000000E+00  0.00000000E+00
  0.00000000E+00  0.00000000E+00  0.00000000E+00  0.00000000E+00  0.00000000E+00
  0.00000000E+00  0.00000000E+00  0.00000000E+00  0.00000000E+00  0.00000000E+00
  0.00000000E+00  0.00000000E+00  0.00000000E+00  0.00000000E+00  0.00000000E+00
  0.00000000E+00  0.00000000E+00  0.00000000E+00  0.00000000E+00  0.00000000E+00
  0.00000000E+00  0.00000000E+00  0.00000000E+00  0.00000000E+00  0.00000000E+00
Gaussian Version                           C   N=           2
ES64L-G16RevA.03        
