%chk=bz.chk
#p opt freq b3lyp/6-31g(d) EmpiricalDispersion=GD3BJ

OPT F1 - dispersion correction

0 1
C        -1.27286900      -0.57968400       0.00000000
C        -0.13441300      -1.39217500       0.00000000
C         1.13846000      -0.81249200       0.00000000
C         1.27286900       0.57968400       0.00000000
C         0.13441300       1.39217500       0.00000000
C        -1.13846000       0.81249200       0.00000000
H        -2.26249100      -1.03037000      -0.00000100
H        -0.23892200      -2.47455600       0.00000000
H         2.02357800      -1.44418500       0.00000000
H         2.26249100       1.03037000       0.00000000
H         0.23892200       2.47455600       0.00000000
H        -2.02357800       1.44418500       0.00000000



