 Entering Gaussian System, Link 0=g16
 Initial command:
 /sw/cluster/pub/apps//g16/l1.exe "/data/mmaximo/52016/Gau-2883792.inp" -scrdir="/data/mmaximo/52016/"
 Entering Link 1 = /sw/cluster/pub/apps//g16/l1.exe PID=   2883793.
  
 Copyright (c) 1988,1990,1992,1993,1995,1998,2003,2009,2016,
            Gaussian, Inc.  All Rights Reserved.
  
 This is part of the Gaussian(R) 16 program.  It is based on
 the Gaussian(R) 09 system (copyright 2009, Gaussian, Inc.),
 the Gaussian(R) 03 system (copyright 2003, Gaussian, Inc.),
 the Gaussian(R) 98 system (copyright 1998, Gaussian, Inc.),
 the Gaussian(R) 94 system (copyright 1995, Gaussian, Inc.),
 the Gaussian 92(TM) system (copyright 1992, Gaussian, Inc.),
 the Gaussian 90(TM) system (copyright 1990, Gaussian, Inc.),
 the Gaussian 88(TM) system (copyright 1988, Gaussian, Inc.),
 the Gaussian 86(TM) system (copyright 1986, Carnegie Mellon
 University), and the Gaussian 82(TM) system (copyright 1983,
 Carnegie Mellon University). Gaussian is a federally registered
 trademark of Gaussian, Inc.
  
 This software contains proprietary and confidential information,
 including trade secrets, belonging to Gaussian, Inc.
  
 This software is provided under written license and may be
 used, copied, transmitted, or stored only in accord with that
 written license.
  
 The following legend is applicable only to US Government
 contracts under FAR:
  
                    RESTRICTED RIGHTS LEGEND
  
 Use, reproduction and disclosure by the US Government is
 subject to restrictions as set forth in subparagraphs (a)
 and (c) of the Commercial Computer Software - Restricted
 Rights clause in FAR 52.227-19.
  
 Gaussian, Inc.
 340 Quinnipiac St., Bldg. 40, Wallingford CT 06492
  
  
 ---------------------------------------------------------------
 Warning -- This program may not be used in any manner that
 competes with the business of Gaussian, Inc. or will provide
 assistance to any competitor of Gaussian, Inc.  The licensee
 of this program is prohibited from giving any competitor of
 Gaussian, Inc. access to this program.  By using this program,
 the user acknowledges that Gaussian, Inc. is engaged in the
 business of creating and licensing software in the field of
 computational chemistry and represents and warrants to the
 licensee that it is not a competitor of Gaussian, Inc. and that
 it will not use this program in any manner prohibited above.
 ---------------------------------------------------------------
  

 Cite this work as:
 Gaussian 16, Revision A.03,
 M. J. Frisch, G. W. Trucks, H. B. Schlegel, G. E. Scuseria, 
 M. A. Robb, J. R. Cheeseman, G. Scalmani, V. Barone, 
 G. A. Petersson, H. Nakatsuji, X. Li, M. Caricato, A. V. Marenich, 
 J. Bloino, B. G. Janesko, R. Gomperts, B. Mennucci, H. P. Hratchian, 
 J. V. Ortiz, A. F. Izmaylov, J. L. Sonnenberg, D. Williams-Young, 
 F. Ding, F. Lipparini, F. Egidi, J. Goings, B. Peng, A. Petrone, 
 T. Henderson, D. Ranasinghe, V. G. Zakrzewski, J. Gao, N. Rega, 
 G. Zheng, W. Liang, M. Hada, M. Ehara, K. Toyota, R. Fukuda, 
 J. Hasegawa, M. Ishida, T. Nakajima, Y. Honda, O. Kitao, H. Nakai, 
 T. Vreven, K. Throssell, J. A. Montgomery, Jr., J. E. Peralta, 
 F. Ogliaro, M. J. Bearpark, J. J. Heyd, E. N. Brothers, K. N. Kudin, 
 V. N. Staroverov, T. A. Keith, R. Kobayashi, J. Normand, 
 K. Raghavachari, A. P. Rendell, J. C. Burant, S. S. Iyengar, 
 J. Tomasi, M. Cossi, J. M. Millam, M. Klene, C. Adamo, R. Cammi, 
 J. W. Ochterski, R. L. Martin, K. Morokuma, O. Farkas, 
 J. B. Foresman, and D. J. Fox, Gaussian, Inc., Wallingford CT, 2016.
 
 ******************************************
 Gaussian 16:  ES64L-G16RevA.03 25-Dec-2016
                21-Aug-2026 
 ******************************************
 %chk=bz.chk
 ----------------------------------------------------
 #p opt freq b3lyp/6-31g(d) EmpiricalDispersion=GD3BJ
 ----------------------------------------------------
 1/18=20,19=15,26=3,38=1/1,3;
 2/9=110,12=2,17=6,18=5,40=1/2;
 3/5=1,6=6,7=1,11=2,25=1,30=1,71=1,74=-5,124=41/1,2,3;
 4//1;
 5/5=2,38=5/2;
 6/7=2,8=2,9=2,10=2,28=1/1;
 7//1,2,3,16;
 1/18=20,19=15,26=3/3(2);
 2/9=110/2;
 99//99;
 2/9=110/2;
 3/5=1,6=6,7=1,11=2,25=1,30=1,71=1,74=-5,124=41/1,2,3;
 4/5=5,16=3,69=1/1;
 5/5=2,38=5/2;
 7//1,2,3,16;
 1/18=20,19=15,26=3/3(-5);
 2/9=110/2;
 6/7=2,8=2,9=2,10=2,19=2,28=1/1;
 99/9=1/99;
 Leave Link    1 at Fri Aug 21 09:47:54 2026, MaxMem=           0 cpu:               0.0 elap:               0.0
 (Enter /sw/cluster/pub/apps//g16/l101.exe)
 ------------------------------
 OPT F1 - dispersion correction
 ------------------------------
 Symbolic Z-matrix:
 Charge =  0 Multiplicity = 1
 C                    -1.27287  -0.57968   0. 
 C                    -0.13441  -1.39218   0. 
 C                     1.13846  -0.81249   0. 
 C                     1.27287   0.57968   0. 
 C                     0.13441   1.39218   0. 
 C                    -1.13846   0.81249   0. 
 H                    -2.26249  -1.03037  0. 
 H                    -0.23892  -2.47456   0. 
 H                     2.02358  -1.44419   0. 
 H                     2.26249   1.03037   0. 
 H                     0.23892   2.47456   0. 
 H                    -2.02358   1.44419   0. 
 
 ITRead=  0  0  0  0  0  0  0  0  0  0  0  0
 MicOpt= -1 -1 -1 -1 -1 -1 -1 -1 -1 -1 -1 -1
 NAtoms=     12 NQM=       12 NQMF=       0 NMMI=      0 NMMIF=      0
                NMic=       0 NMicF=      0.
                    Isotopes and Nuclear Properties:
 (Nuclear quadrupole moments (NQMom) in fm**2, nuclear magnetic moments (NMagM)
  in nuclear magnetons)

  Atom         1           2           3           4           5           6           7           8           9          10
 IAtWgt=          12          12          12          12          12          12           1           1           1           1
 AtmWgt=  12.0000000  12.0000000  12.0000000  12.0000000  12.0000000  12.0000000   1.0078250   1.0078250   1.0078250   1.0078250
 NucSpn=           0           0           0           0           0           0           1           1           1           1
 AtZEff=  -0.0000000  -0.0000000  -0.0000000  -0.0000000  -0.0000000  -0.0000000  -0.0000000  -0.0000000  -0.0000000  -0.0000000
 NQMom=    0.0000000   0.0000000   0.0000000   0.0000000   0.0000000   0.0000000   0.0000000   0.0000000   0.0000000   0.0000000
 NMagM=    0.0000000   0.0000000   0.0000000   0.0000000   0.0000000   0.0000000   2.7928460   2.7928460   2.7928460   2.7928460
 AtZNuc=   6.0000000   6.0000000   6.0000000   6.0000000   6.0000000   6.0000000   1.0000000   1.0000000   1.0000000   1.0000000

  Atom        11          12
 IAtWgt=           1           1
 AtmWgt=   1.0078250   1.0078250
 NucSpn=           1           1
 AtZEff=  -0.0000000  -0.0000000
 NQMom=    0.0000000   0.0000000
 NMagM=    2.7928460   2.7928460
 AtZNuc=   1.0000000   1.0000000
 Leave Link  101 at Fri Aug 21 09:47:54 2026, MaxMem=   104857600 cpu:               0.0 elap:               0.0
 (Enter /sw/cluster/pub/apps//g16/l103.exe)

 GradGradGradGradGradGradGradGradGradGradGradGradGradGradGradGradGradGrad
 Berny optimization.
 Initialization pass.
                           ----------------------------
                           !    Initial Parameters    !
                           ! (Angstroms and Degrees)  !
 --------------------------                            --------------------------
 ! Name  Definition              Value          Derivative Info.                !
 --------------------------------------------------------------------------------
 ! R1    R(1,2)                  1.3987         estimate D2E/DX2                !
 ! R2    R(1,6)                  1.3986         estimate D2E/DX2                !
 ! R3    R(1,7)                  1.0874         estimate D2E/DX2                !
 ! R4    R(2,3)                  1.3987         estimate D2E/DX2                !
 ! R5    R(2,8)                  1.0874         estimate D2E/DX2                !
 ! R6    R(3,4)                  1.3986         estimate D2E/DX2                !
 ! R7    R(3,9)                  1.0874         estimate D2E/DX2                !
 ! R8    R(4,5)                  1.3987         estimate D2E/DX2                !
 ! R9    R(4,10)                 1.0874         estimate D2E/DX2                !
 ! R10   R(5,6)                  1.3987         estimate D2E/DX2                !
 ! R11   R(5,11)                 1.0874         estimate D2E/DX2                !
 ! R12   R(6,12)                 1.0874         estimate D2E/DX2                !
 ! A1    A(2,1,6)              120.0            estimate D2E/DX2                !
 ! A2    A(2,1,7)              120.0003         estimate D2E/DX2                !
 ! A3    A(6,1,7)              119.9997         estimate D2E/DX2                !
 ! A4    A(1,2,3)              120.0002         estimate D2E/DX2                !
 ! A5    A(1,2,8)              119.9995         estimate D2E/DX2                !
 ! A6    A(3,2,8)              120.0002         estimate D2E/DX2                !
 ! A7    A(2,3,4)              119.9997         estimate D2E/DX2                !
 ! A8    A(2,3,9)              120.0001         estimate D2E/DX2                !
 ! A9    A(4,3,9)              120.0002         estimate D2E/DX2                !
 ! A10   A(3,4,5)              120.0            estimate D2E/DX2                !
 ! A11   A(3,4,10)             119.9997         estimate D2E/DX2                !
 ! A12   A(5,4,10)             120.0003         estimate D2E/DX2                !
 ! A13   A(4,5,6)              120.0002         estimate D2E/DX2                !
 ! A14   A(4,5,11)             119.9995         estimate D2E/DX2                !
 ! A15   A(6,5,11)             120.0002         estimate D2E/DX2                !
 ! A16   A(1,6,5)              119.9997         estimate D2E/DX2                !
 ! A17   A(1,6,12)             120.0002         estimate D2E/DX2                !
 ! A18   A(5,6,12)             120.0001         estimate D2E/DX2                !
 ! D1    D(6,1,2,3)              0.0            estimate D2E/DX2                !
 ! D2    D(6,1,2,8)            180.0            estimate D2E/DX2                !
 ! D3    D(7,1,2,3)            179.9999         estimate D2E/DX2                !
 ! D4    D(7,1,2,8)             -0.0001         estimate D2E/DX2                !
 ! D5    D(2,1,6,5)              0.0            estimate D2E/DX2                !
 ! D6    D(2,1,6,12)           180.0            estimate D2E/DX2                !
 ! D7    D(7,1,6,5)           -179.9999         estimate D2E/DX2                !
 ! D8    D(7,1,6,12)             0.0001         estimate D2E/DX2                !
 ! D9    D(1,2,3,4)              0.0            estimate D2E/DX2                !
 ! D10   D(1,2,3,9)            180.0            estimate D2E/DX2                !
 ! D11   D(8,2,3,4)            180.0            estimate D2E/DX2                !
 ! D12   D(8,2,3,9)              0.0            estimate D2E/DX2                !
 ! D13   D(2,3,4,5)              0.0            estimate D2E/DX2                !
 ! D14   D(2,3,4,10)           180.0            estimate D2E/DX2                !
 ! D15   D(9,3,4,5)            180.0            estimate D2E/DX2                !
 ! D16   D(9,3,4,10)             0.0            estimate D2E/DX2                !
 ! D17   D(3,4,5,6)              0.0            estimate D2E/DX2                !
 ! D18   D(3,4,5,11)           180.0            estimate D2E/DX2                !
 ! D19   D(10,4,5,6)           180.0            estimate D2E/DX2                !
 ! D20   D(10,4,5,11)            0.0            estimate D2E/DX2                !
 ! D21   D(4,5,6,1)              0.0            estimate D2E/DX2                !
 ! D22   D(4,5,6,12)           180.0            estimate D2E/DX2                !
 ! D23   D(11,5,6,1)           180.0            estimate D2E/DX2                !
 ! D24   D(11,5,6,12)            0.0            estimate D2E/DX2                !
 --------------------------------------------------------------------------------
 Trust Radius=3.00D-01 FncErr=1.00D-07 GrdErr=1.00D-06 EigMax=2.50D+02 EigMin=1.00D-04
 Number of steps in this run=     64 maximum allowed number of steps=    100.
 GradGradGradGradGradGradGradGradGradGradGradGradGradGradGradGradGradGrad

 Leave Link  103 at Fri Aug 21 09:47:54 2026, MaxMem=   104857600 cpu:               0.0 elap:               0.0
 (Enter /sw/cluster/pub/apps//g16/l202.exe)
                          Input orientation:                          
 ---------------------------------------------------------------------
 Center     Atomic      Atomic             Coordinates (Angstroms)
 Number     Number       Type             X           Y           Z
 ---------------------------------------------------------------------
      1          6           0       -1.272869   -0.579684    0.000000
      2          6           0       -0.134413   -1.392175    0.000000
      3          6           0        1.138460   -0.812492    0.000000
      4          6           0        1.272869    0.579684    0.000000
      5          6           0        0.134413    1.392175    0.000000
      6          6           0       -1.138460    0.812492    0.000000
      7          1           0       -2.262491   -1.030370   -0.000001
      8          1           0       -0.238922   -2.474556    0.000000
      9          1           0        2.023578   -1.444185    0.000000
     10          1           0        2.262491    1.030370    0.000000
     11          1           0        0.238922    2.474556    0.000000
     12          1           0       -2.023578    1.444185    0.000000
 ---------------------------------------------------------------------
                    Distance matrix (angstroms):
                    1          2          3          4          5
     1  C    0.000000
     2  C    1.398651   0.000000
     3  C    2.422541   1.398656   0.000000
     4  C    2.797305   2.422534   1.398649   0.000000
     5  C    2.422534   2.797297   2.422533   1.398651   0.000000
     6  C    1.398649   2.422533   2.797309   2.422541   1.398656
     7  H    1.087414   2.158615   3.407923   3.884719   3.407913
     8  H    2.158607   1.087415   2.158619   3.407916   3.884712
     9  H    3.407921   2.158618   1.087414   2.158613   3.407915
    10  H    3.884719   3.407913   2.158607   1.087414   2.158615
    11  H    3.407916   3.884712   3.407910   2.158607   1.087415
    12  H    2.158613   3.407915   3.884723   3.407921   2.158618
                    6          7          8          9         10
     6  C    0.000000
     7  H    2.158607   0.000000
     8  H    3.407910   2.486062   0.000000
     9  H    3.884723   4.305999   2.486075   0.000000
    10  H    3.407923   4.972133   4.305993   2.486062   0.000000
    11  H    2.158619   4.305993   4.972127   4.305987   2.486062
    12  H    1.087414   2.486062   4.305987   4.972138   4.305999
                   11         12
    11  H    0.000000
    12  H    2.486075   0.000000
 Stoichiometry    C6H6
 Framework group  C2[X(C6H6)]
 Deg. of freedom    16
 Full point group                 C2      NOp   2
 Largest Abelian subgroup         C2      NOp   2
 Largest concise Abelian subgroup C2      NOp   2
                         Standard orientation:                         
 ---------------------------------------------------------------------
 Center     Atomic      Atomic             Coordinates (Angstroms)
 Number     Number       Type             X           Y           Z
 ---------------------------------------------------------------------
      1          6           0        1.211271    0.699323    0.000000
      2          6           0        0.000004    1.398649    0.000000
      3          6           0       -1.211271    0.699327    0.000000
      4          6           0       -1.211271   -0.699323    0.000000
      5          6           0       -0.000004   -1.398649    0.000000
      6          6           0        1.211271   -0.699327    0.000000
      7          1           0        2.153002    1.243025   -0.000001
      8          1           0        0.000013    2.486063    0.000000
      9          1           0       -2.152997    1.243037    0.000000
     10          1           0       -2.153002   -1.243025   -0.000001
     11          1           0       -0.000013   -2.486063    0.000000
     12          1           0        2.152997   -1.243037    0.000000
 ---------------------------------------------------------------------
 Rotational constants (GHZ):           5.6713757           5.6713293           2.8356763
 Leave Link  202 at Fri Aug 21 09:47:54 2026, MaxMem=   104857600 cpu:               0.0 elap:               0.0
 (Enter /sw/cluster/pub/apps//g16/l301.exe)
 Standard basis: 6-31G(d) (6D, 7F)
 Ernie: Thresh=  0.10000D-02 Tol=  0.10000D-05 Strict=F.
 There are    51 symmetry adapted cartesian basis functions of A   symmetry.
 There are    51 symmetry adapted cartesian basis functions of B   symmetry.
 There are    51 symmetry adapted basis functions of A   symmetry.
 There are    51 symmetry adapted basis functions of B   symmetry.
   102 basis functions,   192 primitive gaussians,   102 cartesian basis functions
    21 alpha electrons       21 beta electrons
       nuclear repulsion energy       202.9242009593 Hartrees.
 IExCor=  402 DFT=T Ex+Corr=B3LYP ExCW=0 ScaHFX=  0.200000
 ScaDFX=  0.800000  0.720000  1.000000  0.810000 ScalE2=  1.000000  1.000000
 IRadAn=      5 IRanWt=     -1 IRanGd=            0 ICorTp=0 IEmpDi=141
 NAtoms=   12 NActive=   12 NUniq=    6 SFac= 4.00D+00 NAtFMM=   60 NAOKFM=F Big=F
 Integral buffers will be    131072 words long.
 Raffenetti 2 integral format.
 Two-electron integral symmetry is turned on.
 R6Disp:  Grimme-D3(BJ) Dispersion energy=       -0.0188859160 Hartrees.
 Nuclear repulsion after empirical dispersion term =      202.9053150433 Hartrees.
 Leave Link  301 at Fri Aug 21 09:47:54 2026, MaxMem=   104857600 cpu:               0.0 elap:               0.0
 (Enter /sw/cluster/pub/apps//g16/l302.exe)
 NPDir=0 NMtPBC=     1 NCelOv=     1 NCel=       1 NClECP=     1 NCelD=      1
         NCelK=      1 NCelE2=     1 NClLst=     1 CellRange=     0.0.
 One-electron integrals computed using PRISM.
 One-electron integral symmetry used in STVInt
 NBasis=   102 RedAO= T EigKep=  5.28D-04  NBF=    51    51
 NBsUse=   102 1.00D-06 EigRej= -1.00D+00 NBFU=    51    51
 Precomputing XC quadrature grid using
 IXCGrd= 4 IRadAn=           5 IRanWt=          -1 IRanGd=           0 AccXCQ= 0.00D+00.
 Generated NRdTot=       0 NPtTot=           0 NUsed=           0 NTot=          32
 NSgBfM=   102   102   102   102   102 MxSgAt=    12 MxSgA2=    12.
 Leave Link  302 at Fri Aug 21 09:47:54 2026, MaxMem=   104857600 cpu:               0.1 elap:               0.1
 (Enter /sw/cluster/pub/apps//g16/l303.exe)
 DipDrv:  MaxL=1.
 Leave Link  303 at Fri Aug 21 09:47:54 2026, MaxMem=   104857600 cpu:               0.0 elap:               0.0
 (Enter /sw/cluster/pub/apps//g16/l401.exe)
 ExpMin= 1.61D-01 ExpMax= 3.05D+03 ExpMxC= 4.57D+02 IAcc=3 IRadAn=         5 AccDes= 0.00D+00
 Harris functional with IExCor=  402 and IRadAn=       5 diagonalized for initial guess.
 HarFok:  IExCor=  402 AccDes= 0.00D+00 IRadAn=         5 IDoV= 1 UseB2=F ITyADJ=14
 ICtDFT=  3500011 ScaDFX=  1.000000  1.000000  1.000000  1.000000
 FoFCou: FMM=F IPFlag=           0 FMFlag=      100000 FMFlg1=           0
         NFxFlg=           0 DoJE=T BraDBF=F KetDBF=T FulRan=T
         wScrn=  0.000000 ICntrl=       500 IOpCl=  0 I1Cent=   200000004 NGrid=           0
         NMat0=    1 NMatS0=      1 NMatT0=    0 NMatD0=    1 NMtDS0=    0 NMtDT0=    0
 Petite list used in FoFCou.
 Harris En= -232.295091197887    
 JPrj=0 DoOrth=F DoCkMO=F.
 Initial guess orbital symmetries:
       Occupied  (A) (B) (B) (A) (A) (B) (A) (B) (B) (A) (A) (A)
                 (B) (B) (B) (B) (A) (A) (A) (B) (B)
       Virtual   (A) (A) (B) (A) (B) (B) (A) (A) (B) (A) (A) (B)
                 (B) (B) (B) (A) (A) (A) (A) (A) (A) (B) (B) (B)
                 (B) (A) (A) (B) (B) (A) (A) (B) (B) (A) (B) (B)
                 (A) (A) (A) (B) (B) (B) (B) (A) (A) (A) (A) (A)
                 (B) (B) (A) (B) (A) (B) (B) (B) (A) (A) (B) (B)
                 (A) (A) (B) (B) (B) (A) (A) (A) (A) (A) (B) (B)
                 (B) (A) (B) (A) (B) (B) (A) (A) (B)
 The electronic state of the initial guess is 1-A.
 Leave Link  401 at Fri Aug 21 09:47:54 2026, MaxMem=   104857600 cpu:               0.4 elap:               0.4
 (Enter /sw/cluster/pub/apps//g16/l502.exe)
 Keep R1 ints in memory in symmetry-blocked form, NReq=20713737.
 FoFCou: FMM=F IPFlag=           0 FMFlag=           0 FMFlg1=           0
         NFxFlg=           0 DoJE=F BraDBF=F KetDBF=F FulRan=T
         wScrn=  0.000000 ICntrl=       600 IOpCl=  0 I1Cent=           0 NGrid=           0
         NMat0=    1 NMatS0=   5253 NMatT0=    0 NMatD0=    1 NMtDS0=    0 NMtDT0=    0
 Petite list used in FoFCou.
 Closed shell SCF:
 Using DIIS extrapolation, IDIIS=  1040.
 NGot=   104857600 LenX=    97921667 LenY=    97910822
 Requested convergence on RMS density matrix=1.00D-08 within 128 cycles.
 Requested convergence on MAX density matrix=1.00D-06.
 Requested convergence on             energy=1.00D-06.
 No special actions if energy rises.
 Integral accuracy reduced to 1.0D-05 until final iterations.

 Cycle   1  Pass 0  IDiag  1:
 E= -232.114171137974    
 DIIS: error= 4.78D-02 at cycle   1 NSaved=   1.
 NSaved= 1 IEnMin= 1 EnMin= -232.114171137974     IErMin= 1 ErrMin= 4.78D-02
 ErrMax= 4.78D-02  0.00D+00 EMaxC= 1.00D-01 BMatC= 1.33D-01 BMatP= 1.33D-01
 IDIUse=3 WtCom= 5.22D-01 WtEn= 4.78D-01
 Coeff-Com:  0.100D+01
 Coeff-En:   0.100D+01
 Coeff:      0.100D+01
 Gap=     0.249 Goal=   None    Shift=    0.000
 GapD=    0.249 DampG=1.000 DampE=0.500 DampFc=0.5000 IDamp=-1.
 Damping current iteration by 5.00D-01
 RMSDP=8.33D-03 MaxDP=1.13D-01              OVMax= 1.57D-01

 Cycle   2  Pass 0  IDiag  1:
 E= -232.187102868113     Delta-E=       -0.072931730139 Rises=F Damp=T
 DIIS: error= 8.11D-03 at cycle   2 NSaved=   2.
 NSaved= 2 IEnMin= 2 EnMin= -232.187102868113     IErMin= 2 ErrMin= 8.11D-03
 ErrMax= 8.11D-03  0.00D+00 EMaxC= 1.00D-01 BMatC= 6.47D-03 BMatP= 1.33D-01
 IDIUse=3 WtCom= 9.19D-01 WtEn= 8.11D-02
 Coeff-Com:  0.590D-02 0.994D+00
 Coeff-En:   0.409D-02 0.996D+00
 Coeff:      0.575D-02 0.994D+00
 Gap=     0.252 Goal=   None    Shift=    0.000
 RMSDP=1.74D-03 MaxDP=1.78D-02 DE=-7.29D-02 OVMax= 9.08D-02

 Cycle   3  Pass 0  IDiag  1:
 E= -232.266599392826     Delta-E=       -0.079496524713 Rises=F Damp=F
 DIIS: error= 4.38D-03 at cycle   3 NSaved=   3.
 NSaved= 3 IEnMin= 3 EnMin= -232.266599392826     IErMin= 3 ErrMin= 4.38D-03
 ErrMax= 4.38D-03  0.00D+00 EMaxC= 1.00D-01 BMatC= 9.92D-04 BMatP= 6.47D-03
 IDIUse=3 WtCom= 9.56D-01 WtEn= 4.38D-02
 Coeff-Com: -0.387D-01 0.240D+00 0.799D+00
 Coeff-En:   0.000D+00 0.000D+00 0.100D+01
 Coeff:     -0.370D-01 0.229D+00 0.808D+00
 Gap=     0.249 Goal=   None    Shift=    0.000
 RMSDP=4.34D-04 MaxDP=3.56D-03 DE=-7.95D-02 OVMax= 7.74D-03

 Cycle   4  Pass 0  IDiag  1:
 E= -232.267494351359     Delta-E=       -0.000894958534 Rises=F Damp=F
 DIIS: error= 6.40D-04 at cycle   4 NSaved=   4.
 NSaved= 4 IEnMin= 4 EnMin= -232.267494351359     IErMin= 4 ErrMin= 6.40D-04
 ErrMax= 6.40D-04  0.00D+00 EMaxC= 1.00D-01 BMatC= 2.99D-05 BMatP= 9.92D-04
 IDIUse=3 WtCom= 9.94D-01 WtEn= 6.40D-03
 Coeff-Com: -0.860D-02 0.177D-01 0.183D+00 0.808D+00
 Coeff-En:   0.000D+00 0.000D+00 0.000D+00 0.100D+01
 Coeff:     -0.855D-02 0.176D-01 0.182D+00 0.809D+00
 Gap=     0.249 Goal=   None    Shift=    0.000
 RMSDP=5.62D-05 MaxDP=4.30D-04 DE=-8.95D-04 OVMax= 9.84D-04

 Cycle   5  Pass 0  IDiag  1:
 E= -232.267521347457     Delta-E=       -0.000026996097 Rises=F Damp=F
 DIIS: error= 2.11D-05 at cycle   5 NSaved=   5.
 NSaved= 5 IEnMin= 5 EnMin= -232.267521347457     IErMin= 5 ErrMin= 2.11D-05
 ErrMax= 2.11D-05  0.00D+00 EMaxC= 1.00D-01 BMatC= 2.60D-08 BMatP= 2.99D-05
 IDIUse=1 WtCom= 1.00D+00 WtEn= 0.00D+00
 Coeff-Com: -0.304D-03-0.311D-03 0.662D-02 0.515D-01 0.942D+00
 Coeff:     -0.304D-03-0.311D-03 0.662D-02 0.515D-01 0.942D+00
 Gap=     0.249 Goal=   None    Shift=    0.000
 RMSDP=2.92D-06 MaxDP=2.48D-05 DE=-2.70D-05 OVMax= 3.95D-05

 Initial convergence to 1.0D-05 achieved.  Increase integral accuracy.
 Cycle   6  Pass 1  IDiag  1:
 E= -232.267512107999     Delta-E=        0.000009239458 Rises=F Damp=F
 DIIS: error= 4.42D-06 at cycle   1 NSaved=   1.
 NSaved= 1 IEnMin= 1 EnMin= -232.267512107999     IErMin= 1 ErrMin= 4.42D-06
 ErrMax= 4.42D-06  0.00D+00 EMaxC= 1.00D-01 BMatC= 6.59D-10 BMatP= 6.59D-10
 IDIUse=1 WtCom= 1.00D+00 WtEn= 0.00D+00
 Coeff-Com:  0.100D+01
 Coeff:      0.100D+01
 Gap=     0.249 Goal=   None    Shift=    0.000
 RMSDP=2.92D-06 MaxDP=2.48D-05 DE= 9.24D-06 OVMax= 1.36D-05

 Cycle   7  Pass 1  IDiag  1:
 E= -232.267512108901     Delta-E=       -0.000000000903 Rises=F Damp=F
 DIIS: error= 1.35D-06 at cycle   2 NSaved=   2.
 NSaved= 2 IEnMin= 2 EnMin= -232.267512108901     IErMin= 2 ErrMin= 1.35D-06
 ErrMax= 1.35D-06  0.00D+00 EMaxC= 1.00D-01 BMatC= 1.34D-10 BMatP= 6.59D-10
 IDIUse=1 WtCom= 1.00D+00 WtEn= 0.00D+00
 Coeff-Com:  0.241D+00 0.759D+00
 Coeff:      0.241D+00 0.759D+00
 Gap=     0.249 Goal=   None    Shift=    0.000
 RMSDP=2.08D-07 MaxDP=2.29D-06 DE=-9.03D-10 OVMax= 3.93D-06

 Cycle   8  Pass 1  IDiag  1:
 E= -232.267512108997     Delta-E=       -0.000000000096 Rises=F Damp=F
 DIIS: error= 6.85D-07 at cycle   3 NSaved=   3.
 NSaved= 3 IEnMin= 3 EnMin= -232.267512108997     IErMin= 3 ErrMin= 6.85D-07
 ErrMax= 6.85D-07  0.00D+00 EMaxC= 1.00D-01 BMatC= 4.27D-11 BMatP= 1.34D-10
 IDIUse=1 WtCom= 1.00D+00 WtEn= 0.00D+00
 Coeff-Com: -0.166D-01 0.354D+00 0.662D+00
 Coeff:     -0.166D-01 0.354D+00 0.662D+00
 Gap=     0.249 Goal=   None    Shift=    0.000
 RMSDP=7.38D-08 MaxDP=9.51D-07 DE=-9.58D-11 OVMax= 1.69D-06

 Cycle   9  Pass 1  IDiag  1:
 E= -232.267512109040     Delta-E=       -0.000000000042 Rises=F Damp=F
 DIIS: error= 7.00D-08 at cycle   4 NSaved=   4.
 NSaved= 4 IEnMin= 4 EnMin= -232.267512109040     IErMin= 4 ErrMin= 7.00D-08
 ErrMax= 7.00D-08  0.00D+00 EMaxC= 1.00D-01 BMatC= 3.75D-13 BMatP= 4.27D-11
 IDIUse=1 WtCom= 1.00D+00 WtEn= 0.00D+00
 Coeff-Com: -0.969D-02 0.103D+00 0.218D+00 0.689D+00
 Coeff:     -0.969D-02 0.103D+00 0.218D+00 0.689D+00
 Gap=     0.249 Goal=   None    Shift=    0.000
 RMSDP=7.50D-09 MaxDP=1.02D-07 DE=-4.23D-11 OVMax= 2.57D-07

 SCF Done:  E(RB3LYP) =  -232.267512109     A.U. after    9 cycles
            NFock=  9  Conv=0.75D-08     -V/T= 2.0103
 KE= 2.298921672309D+02 PE=-9.431584231617D+02 EE= 2.780934287785D+02
 Leave Link  502 at Fri Aug 21 09:47:57 2026, MaxMem=   104857600 cpu:               2.6 elap:               2.6
 (Enter /sw/cluster/pub/apps//g16/l601.exe)
 Copying SCF densities to generalized density rwf, IOpCl= 0 IROHF=0.

 **********************************************************************

            Population analysis using the SCF density.

 **********************************************************************

 Orbital symmetries:
       Occupied  (A) (B) (B) (A) (A) (B) (A) (B) (B) (A) (A) (A)
                 (B) (B) (B) (B) (A) (A) (A) (B) (B)
       Virtual   (A) (A) (A) (B) (B) (B) (A) (A) (B) (A) (A) (B)
                 (B) (B) (A) (B) (A) (A) (A) (A) (A) (B) (B) (B)
                 (B) (A) (A) (B) (A) (A) (B) (B) (B) (B) (B) (A)
                 (A) (A) (A) (B) (B) (B) (B) (A) (A) (A) (A) (A)
                 (B) (B) (A) (B) (A) (B) (B) (B) (A) (A) (A) (A)
                 (B) (B) (B) (B) (B) (A) (A) (A) (A) (A) (B) (B)
                 (B) (A) (B) (A) (B) (B) (A) (A) (B)
 The electronic state is 1-A.
 Alpha  occ. eigenvalues --  -10.18831 -10.18805 -10.18805 -10.18751 -10.18751
 Alpha  occ. eigenvalues --  -10.18725  -0.84535  -0.73934  -0.73934  -0.59726
 Alpha  occ. eigenvalues --   -0.59726  -0.51802  -0.45966  -0.43757  -0.41709
 Alpha  occ. eigenvalues --   -0.41708  -0.35874  -0.34034  -0.34034  -0.24605
 Alpha  occ. eigenvalues --   -0.24604
 Alpha virt. eigenvalues --    0.00317   0.00317   0.09074   0.14461   0.14462
 Alpha virt. eigenvalues --    0.16290   0.18137   0.18137   0.18973   0.30184
 Alpha virt. eigenvalues --    0.30184   0.31803   0.31803   0.47542   0.52754
 Alpha virt. eigenvalues --    0.54672   0.54969   0.56206   0.59250   0.60105
 Alpha virt. eigenvalues --    0.60105   0.60222   0.60222   0.62644   0.62645
 Alpha virt. eigenvalues --    0.66734   0.66734   0.74448   0.83985   0.83986
 Alpha virt. eigenvalues --    0.84009   0.86535   0.86535   0.93816   0.93816
 Alpha virt. eigenvalues --    0.94041   0.95635   1.08193   1.08193   1.14109
 Alpha virt. eigenvalues --    1.14110   1.19938   1.26189   1.39711   1.43527
 Alpha virt. eigenvalues --    1.43527   1.48628   1.48628   1.51519   1.51520
 Alpha virt. eigenvalues --    1.75661   1.78808   1.85642   1.89326   1.97227
 Alpha virt. eigenvalues --    1.97228   2.06274   2.06274   2.15011   2.15012
 Alpha virt. eigenvalues --    2.15145   2.15146   2.30743   2.30744   2.31889
 Alpha virt. eigenvalues --    2.54449   2.54449   2.65288   2.70116   2.70116
 Alpha virt. eigenvalues --    2.71957   2.71957   2.75892   3.01448   3.40389
 Alpha virt. eigenvalues --    4.08275   4.11709   4.11709   4.32979   4.32980
 Alpha virt. eigenvalues --    4.66401
          Condensed to atoms (all electrons):
               1          2          3          4          5          6
     1  C    4.850216   0.550655  -0.031947  -0.040488  -0.031948   0.550654
     2  C    0.550655   4.850220   0.550653  -0.031948  -0.040489  -0.031948
     3  C   -0.031947   0.550653   4.850221   0.550654  -0.031948  -0.040488
     4  C   -0.040488  -0.031948   0.550654   4.850216   0.550655  -0.031947
     5  C   -0.031948  -0.040489  -0.031948   0.550655   4.850220   0.550653
     6  C    0.550654  -0.031948  -0.040488  -0.031947   0.550653   4.850221
     7  H    0.358847  -0.043611   0.004738   0.000568   0.004738  -0.043612
     8  H   -0.043612   0.358847  -0.043612   0.004738   0.000568   0.004738
     9  H    0.004738  -0.043611   0.358847  -0.043612   0.004738   0.000568
    10  H    0.000568   0.004738  -0.043612   0.358847  -0.043611   0.004738
    11  H    0.004738   0.000568   0.004738  -0.043612   0.358847  -0.043612
    12  H   -0.043612   0.004738   0.000568   0.004738  -0.043611   0.358847
               7          8          9         10         11         12
     1  C    0.358847  -0.043612   0.004738   0.000568   0.004738  -0.043612
     2  C   -0.043611   0.358847  -0.043611   0.004738   0.000568   0.004738
     3  C    0.004738  -0.043612   0.358847  -0.043612   0.004738   0.000568
     4  C    0.000568   0.004738  -0.043612   0.358847  -0.043612   0.004738
     5  C    0.004738   0.000568   0.004738  -0.043611   0.358847  -0.043611
     6  C   -0.043612   0.004738   0.000568   0.004738  -0.043612   0.358847
     7  H    0.601452  -0.005794  -0.000179   0.000015  -0.000179  -0.005794
     8  H   -0.005794   0.601454  -0.005794  -0.000179   0.000015  -0.000179
     9  H   -0.000179  -0.005794   0.601451  -0.005794  -0.000179   0.000015
    10  H    0.000015  -0.000179  -0.005794   0.601452  -0.005794  -0.000179
    11  H   -0.000179   0.000015  -0.000179  -0.005794   0.601454  -0.005794
    12  H   -0.005794  -0.000179   0.000015  -0.000179  -0.005794   0.601451
 Mulliken charges:
               1
     1  C   -0.128810
     2  C   -0.128811
     3  C   -0.128812
     4  C   -0.128810
     5  C   -0.128811
     6  C   -0.128812
     7  H    0.128811
     8  H    0.128810
     9  H    0.128811
    10  H    0.128811
    11  H    0.128810
    12  H    0.128811
 Sum of Mulliken charges =  -0.00000
 Mulliken charges with hydrogens summed into heavy atoms:
               1
     1  C    0.000001
     2  C   -0.000001
     3  C   -0.000000
     4  C    0.000001
     5  C   -0.000001
     6  C   -0.000000
 Electronic spatial extent (au):  <R**2>=            459.3131
 Charge=             -0.0000 electrons
 Dipole moment (field-independent basis, Debye):
    X=              0.0000    Y=             -0.0000    Z=             -0.0000  Tot=              0.0000
 Quadrupole moment (field-independent basis, Debye-Ang):
   XX=            -31.3911   YY=            -31.3913   ZZ=            -38.6298
   XY=              0.0000   XZ=              0.0000   YZ=              0.0000
 Traceless Quadrupole moment (field-independent basis, Debye-Ang):
   XX=              2.4129   YY=              2.4128   ZZ=             -4.8257
   XY=              0.0000   XZ=              0.0000   YZ=              0.0000
 Octapole moment (field-independent basis, Debye-Ang**2):
  XXX=              0.0000  YYY=             -0.0000  ZZZ=              0.0000  XYY=             -0.0000
  XXY=             -0.0000  XXZ=             -0.0000  XZZ=              0.0000  YZZ=              0.0000
  YYZ=             -0.0000  XYZ=             -0.0000
 Hexadecapole moment (field-independent basis, Debye-Ang**3):
 XXXX=           -270.6987 YYYY=           -270.6980 ZZZZ=            -40.1066 XXXY=             -0.0002
 XXXZ=              0.0000 YYYX=              0.0001 YYYZ=              0.0000 ZZZX=             -0.0000
 ZZZY=              0.0000 XXYY=            -90.2328 XXZZ=            -60.5299 YYZZ=            -60.5296
 XXYZ=              0.0000 YYXZ=              0.0000 ZZXY=             -0.0000
 N-N= 2.029053150433D+02 E-N=-9.431584271886D+02  KE= 2.298921672309D+02
 Symmetry A    KE= 1.133948755594D+02
 Symmetry B    KE= 1.164972916715D+02
 No NMR shielding tensors so no spin-rotation constants.
 Leave Link  601 at Fri Aug 21 09:47:57 2026, MaxMem=   104857600 cpu:               0.0 elap:               0.0
 (Enter /sw/cluster/pub/apps//g16/l701.exe)
 ... and contract with generalized density number  0.
 Compute integral first derivatives.
 R6Disp: Adding Grimme-D3(BJ) dispersion energy 1st derivatives to the gradient.
 Leave Link  701 at Fri Aug 21 09:47:57 2026, MaxMem=   104857600 cpu:               0.0 elap:               0.0
 (Enter /sw/cluster/pub/apps//g16/l702.exe)
 L702 exits ... SP integral derivatives will be done elsewhere.
 Leave Link  702 at Fri Aug 21 09:47:57 2026, MaxMem=   104857600 cpu:               0.0 elap:               0.0
 (Enter /sw/cluster/pub/apps//g16/l703.exe)
 Integral derivatives from FoFJK, PRISM(SPDF).
 Compute integral first derivatives, UseDBF=F ICtDFT=           0.
 Calling FoFJK, ICntrl=      2127 FMM=F ISym2X=1 I1Cent= 0 IOpClX= 0 NMat=1 NMatS=1 NMatT=0.
 FoFJK:  IHMeth= 1 ICntrl=    2127 DoSepK=F KAlg= 0 I1Cent=           0 FoldK=F
 IRaf=         0 NMat=       1 IRICut=       1 DoRegI=T DoRafI=F ISym2E= 1 IDoP0=0 IntGTp=1.
 FoFCou: FMM=F IPFlag=           0 FMFlag=      100000 FMFlg1=         800
         NFxFlg=           0 DoJE=F BraDBF=F KetDBF=F FulRan=T
         wScrn=  0.000000 ICntrl=      2127 IOpCl=  0 I1Cent=           0 NGrid=           0
         NMat0=    1 NMatS0=      1 NMatT0=    0 NMatD0=    1 NMtDS0=    0 NMtDT0=    0
 Petite list used in FoFCou.
 Leave Link  703 at Fri Aug 21 09:47:58 2026, MaxMem=   104857600 cpu:               1.0 elap:               1.0
 (Enter /sw/cluster/pub/apps//g16/l716.exe)
 Dipole        = 3.55271368D-15-1.77635684D-15-4.20505895D-07
 ***** Axes restored to original set *****
 -------------------------------------------------------------------
 Center     Atomic                   Forces (Hartrees/Bohr)
 Number     Number              X              Y              Z
 -------------------------------------------------------------------
      1        6           0.001779795    0.000810623   -0.000000068
      2        6           0.000190599    0.001946808    0.000000018
      3        6          -0.001596878    0.001133362    0.000000018
      4        6          -0.001779795   -0.000810623   -0.000000068
      5        6          -0.000190599   -0.001946808    0.000000018
      6        6           0.001596878   -0.001133362    0.000000018
      7        1           0.000537136    0.000243627    0.000000046
      8        1           0.000057519    0.000587291   -0.000000007
      9        1          -0.000480434    0.000342543   -0.000000007
     10        1          -0.000537136   -0.000243627    0.000000046
     11        1          -0.000057519   -0.000587291   -0.000000007
     12        1           0.000480434   -0.000342543   -0.000000007
 -------------------------------------------------------------------
 Cartesian Forces:  Max     0.001946808 RMS     0.000834331
 Leave Link  716 at Fri Aug 21 09:47:58 2026, MaxMem=   104857600 cpu:               0.0 elap:               0.0
 (Enter /sw/cluster/pub/apps//g16/l103.exe)

 GradGradGradGradGradGradGradGradGradGradGradGradGradGradGradGradGradGrad
 Berny optimization.
 FormGI is forming the generalized inverse of G from B-inverse, IUseBI=4.
 Internal  Forces:  Max     0.002550193 RMS     0.000871367
 Search for a local minimum.
 Step number   1 out of a maximum of   64
 All quantities printed in internal units (Hartrees-Bohrs-Radians)
 RMS Force = .87137D-03 SwitMx=.10000D-02 MixMth= 2
 Mixed Optimization -- En-DIIS/RFO-DIIS
 Second derivative matrix not updated -- first step.
 ITU=  0
     Eigenvalues ---    0.02107   0.02107   0.02107   0.02107   0.02107
     Eigenvalues ---    0.02107   0.02107   0.02107   0.02107   0.16000
     Eigenvalues ---    0.16000   0.16000   0.16000   0.16000   0.16000
     Eigenvalues ---    0.22000   0.22000   0.22000   0.35113   0.35113
     Eigenvalues ---    0.35113   0.35113   0.35113   0.35113   0.41629
     Eigenvalues ---    0.41630   0.45844   0.45845   0.45845   0.45845
 RFO step:  Lambda=-9.08088909D-05 EMin= 2.10656214D-02
 Linear search not attempted -- first point.
 Iteration  1 RMS(Cart)=  0.00303994 RMS(Int)=  0.00000000
 Iteration  2 RMS(Cart)=  0.00000000 RMS(Int)=  0.00000000
 ITry= 1 IFail=0 DXMaxC= 7.19D-03 DCOld= 1.00D+10 DXMaxT= 3.00D-01 DXLimC= 3.00D+00 Rises=F
 ClnCor:  largest displacement from symmetrization is 1.40D-09 for atom    12.
 Variable       Old X    -DE/DX   Delta X   Delta X   Delta X     New X
                                 (Linear)    (Quad)   (Total)
    R1        2.64307  -0.00255   0.00000  -0.00555  -0.00555   2.63751
    R2        2.64306  -0.00254   0.00000  -0.00555  -0.00555   2.63752
    R3        2.05491  -0.00059   0.00000  -0.00168  -0.00168   2.05324
    R4        2.64308  -0.00255   0.00000  -0.00556  -0.00556   2.63751
    R5        2.05492  -0.00059   0.00000  -0.00168  -0.00168   2.05324
    R6        2.64306  -0.00254   0.00000  -0.00555  -0.00555   2.63752
    R7        2.05492  -0.00059   0.00000  -0.00168  -0.00168   2.05324
    R8        2.64307  -0.00255   0.00000  -0.00555  -0.00555   2.63751
    R9        2.05491  -0.00059   0.00000  -0.00168  -0.00168   2.05324
   R10        2.64308  -0.00255   0.00000  -0.00556  -0.00556   2.63751
   R11        2.05492  -0.00059   0.00000  -0.00168  -0.00168   2.05324
   R12        2.05492  -0.00059   0.00000  -0.00168  -0.00168   2.05324
    A1        2.09440   0.00000   0.00000   0.00000   0.00000   2.09440
    A2        2.09440  -0.00000   0.00000  -0.00001  -0.00001   2.09439
    A3        2.09439   0.00000   0.00000   0.00001   0.00001   2.09440
    A4        2.09440  -0.00000   0.00000  -0.00000  -0.00000   2.09439
    A5        2.09439   0.00000   0.00000   0.00001   0.00001   2.09439
    A6        2.09440  -0.00000   0.00000  -0.00000  -0.00000   2.09440
    A7        2.09439   0.00000   0.00000   0.00000   0.00000   2.09439
    A8        2.09440  -0.00000   0.00000  -0.00000  -0.00000   2.09439
    A9        2.09440  -0.00000   0.00000  -0.00000  -0.00000   2.09440
   A10        2.09440   0.00000   0.00000   0.00000   0.00000   2.09440
   A11        2.09439   0.00000   0.00000   0.00001   0.00001   2.09440
   A12        2.09440  -0.00000   0.00000  -0.00001  -0.00001   2.09439
   A13        2.09440  -0.00000   0.00000  -0.00000  -0.00000   2.09439
   A14        2.09439   0.00000   0.00000   0.00001   0.00001   2.09439
   A15        2.09440  -0.00000   0.00000  -0.00000  -0.00000   2.09440
   A16        2.09439   0.00000   0.00000   0.00000   0.00000   2.09439
   A17        2.09440  -0.00000   0.00000  -0.00000  -0.00000   2.09440
   A18        2.09440  -0.00000   0.00000  -0.00000  -0.00000   2.09439
    D1        0.00000  -0.00000   0.00000  -0.00000  -0.00000  -0.00000
    D2        3.14159  -0.00000   0.00000  -0.00000  -0.00000   3.14159
    D3        3.14159   0.00000   0.00000   0.00000   0.00000   3.14159
    D4       -0.00000   0.00000   0.00000   0.00000   0.00000  -0.00000
    D5        0.00000   0.00000   0.00000   0.00000   0.00000   0.00000
    D6        3.14159   0.00000   0.00000   0.00000   0.00000  -3.14159
    D7       -3.14159  -0.00000   0.00000  -0.00000  -0.00000  -3.14159
    D8        0.00000  -0.00000   0.00000  -0.00000  -0.00000   0.00000
    D9        0.00000  -0.00000   0.00000  -0.00000   0.00000   0.00000
   D10        3.14159  -0.00000   0.00000  -0.00000  -0.00000   3.14159
   D11        3.14159   0.00000   0.00000   0.00000   0.00000  -3.14159
   D12        0.00000   0.00000   0.00000  -0.00000  -0.00000   0.00000
   D13        0.00000   0.00000   0.00000   0.00000   0.00000   0.00000
   D14       -3.14159  -0.00000   0.00000  -0.00000  -0.00000  -3.14159
   D15        3.14159   0.00000   0.00000   0.00000   0.00000  -3.14159
   D16        0.00000  -0.00000   0.00000  -0.00000  -0.00000   0.00000
   D17        0.00000  -0.00000   0.00000  -0.00000  -0.00000  -0.00000
   D18        3.14159  -0.00000   0.00000  -0.00000  -0.00000   3.14159
   D19        3.14159   0.00000   0.00000   0.00000   0.00000   3.14159
   D20       -0.00000   0.00000   0.00000   0.00000   0.00000  -0.00000
   D21        0.00000  -0.00000   0.00000  -0.00000   0.00000   0.00000
   D22        3.14159  -0.00000   0.00000  -0.00000  -0.00000   3.14159
   D23        3.14159   0.00000   0.00000   0.00000   0.00000  -3.14159
   D24        0.00000   0.00000   0.00000  -0.00000  -0.00000   0.00000
         Item               Value     Threshold  Converged?
 Maximum Force            0.002550     0.000450     NO 
 RMS     Force            0.000871     0.000300     NO 
 Maximum Displacement     0.007193     0.001800     NO 
 RMS     Displacement     0.003040     0.001200     NO 
 Predicted change in Energy=-4.541362D-05
 Lowest energy point so far.  Saving SCF results.
 GradGradGradGradGradGradGradGradGradGradGradGradGradGradGradGradGradGrad

 Leave Link  103 at Fri Aug 21 09:47:58 2026, MaxMem=   104857600 cpu:               0.0 elap:               0.0
 (Enter /sw/cluster/pub/apps//g16/l202.exe)
                          Input orientation:                          
 ---------------------------------------------------------------------
 Center     Atomic      Atomic             Coordinates (Angstroms)
 Number     Number       Type             X           Y           Z
 ---------------------------------------------------------------------
      1          6           0       -1.270193   -0.578466   -0.000000
      2          6           0       -0.134130   -1.389253   -0.000000
      3          6           0        1.136063   -0.810788   -0.000000
      4          6           0        1.270193    0.578466   -0.000000
      5          6           0        0.134130    1.389253   -0.000000
      6          6           0       -1.136063    0.810788   -0.000000
      7          1           0       -2.259004   -1.028787   -0.000000
      8          1           0       -0.238549   -2.470750   -0.000000
      9          1           0        2.020456   -1.441966   -0.000000
     10          1           0        2.259004    1.028787   -0.000000
     11          1           0        0.238549    2.470750   -0.000000
     12          1           0       -2.020456    1.441966   -0.000000
 ---------------------------------------------------------------------
                    Distance matrix (angstroms):
                    1          2          3          4          5
     1  C    0.000000
     2  C    1.395713   0.000000
     3  C    2.417445   1.395713   0.000000
     4  C    2.791424   2.417445   1.395714   0.000000
     5  C    2.417445   2.791426   2.417447   1.395713   0.000000
     6  C    1.395714   2.417447   2.791427   2.417445   1.395713
     7  H    1.086526   2.155232   3.402059   3.877950   3.402060
     8  H    2.155232   1.086526   2.155234   3.402061   3.877952
     9  H    3.402059   2.155232   1.086525   2.155236   3.402062
    10  H    3.877950   3.402060   2.155234   1.086526   2.155232
    11  H    3.402061   3.877952   3.402061   2.155232   1.086526
    12  H    2.155236   3.402062   3.877952   3.402059   2.155232
                    6          7          8          9         10
     6  C    0.000000
     7  H    2.155234   0.000000
     8  H    3.402061   2.482236   0.000000
     9  H    3.877952   4.299361   2.482237   0.000000
    10  H    3.402059   4.964475   4.299364   2.482242   0.000000
    11  H    2.155234   4.299364   4.964478   4.299365   2.482236
    12  H    1.086525   2.482242   4.299365   4.964478   4.299361
                   11         12
    11  H    0.000000
    12  H    2.482237   0.000000
 Stoichiometry    C6H6
 Framework group  C2[X(C6H6)]
 Deg. of freedom    16
 Full point group                 C2      NOp   2
 RotChk:  IX=3 Diff= 1.41D+00
 Largest Abelian subgroup         C2      NOp   2
 Largest concise Abelian subgroup C2      NOp   2
                         Standard orientation:                         
 ---------------------------------------------------------------------
 Center     Atomic      Atomic             Coordinates (Angstroms)
 Number     Number       Type             X           Y           Z
 ---------------------------------------------------------------------
      1          6           0        1.208723   -0.697855   -0.000000
      2          6           0        1.208723    0.697857    0.000000
      3          6           0       -0.000000    1.395714    0.000000
      4          6           0       -1.208723    0.697855   -0.000000
      5          6           0       -1.208723   -0.697857    0.000000
      6          6           0        0.000000   -1.395714    0.000000
      7          1           0        2.149682   -1.241117   -0.000000
      8          1           0        2.149682    1.241120    0.000000
      9          1           0        0.000002    2.482239    0.000000
     10          1           0       -2.149682    1.241117   -0.000000
     11          1           0       -2.149682   -1.241120    0.000000
     12          1           0       -0.000002   -2.482239    0.000000
 ---------------------------------------------------------------------
 Rotational constants (GHZ):           5.6939233           5.6939126           2.8469590
 Leave Link  202 at Fri Aug 21 09:47:58 2026, MaxMem=   104857600 cpu:               0.0 elap:               0.0
 (Enter /sw/cluster/pub/apps//g16/l301.exe)
 Standard basis: 6-31G(d) (6D, 7F)
 Ernie: Thresh=  0.10000D-02 Tol=  0.10000D-05 Strict=F.
 There are    51 symmetry adapted cartesian basis functions of A   symmetry.
 There are    51 symmetry adapted cartesian basis functions of B   symmetry.
 There are    51 symmetry adapted basis functions of A   symmetry.
 There are    51 symmetry adapted basis functions of B   symmetry.
   102 basis functions,   192 primitive gaussians,   102 cartesian basis functions
    21 alpha electrons       21 beta electrons
       nuclear repulsion energy       203.3120776672 Hartrees.
 IExCor=  402 DFT=T Ex+Corr=B3LYP ExCW=0 ScaHFX=  0.200000
 ScaDFX=  0.800000  0.720000  1.000000  0.810000 ScalE2=  1.000000  1.000000
 IRadAn=      5 IRanWt=     -1 IRanGd=            0 ICorTp=0 IEmpDi=141
 NAtoms=   12 NActive=   12 NUniq=    6 SFac= 4.00D+00 NAtFMM=   60 NAOKFM=F Big=F
 Integral buffers will be    131072 words long.
 Raffenetti 2 integral format.
 Two-electron integral symmetry is turned on.
 R6Disp:  Grimme-D3(BJ) Dispersion energy=       -0.0189075675 Hartrees.
 Nuclear repulsion after empirical dispersion term =      203.2931700997 Hartrees.
 Leave Link  301 at Fri Aug 21 09:47:58 2026, MaxMem=   104857600 cpu:               0.0 elap:               0.0
 (Enter /sw/cluster/pub/apps//g16/l302.exe)
 NPDir=0 NMtPBC=     1 NCelOv=     1 NCel=       1 NClECP=     1 NCelD=      1
         NCelK=      1 NCelE2=     1 NClLst=     1 CellRange=     0.0.
 One-electron integrals computed using PRISM.
 One-electron integral symmetry used in STVInt
 NBasis=   102 RedAO= T EigKep=  5.18D-04  NBF=    51    51
 NBsUse=   102 1.00D-06 EigRej= -1.00D+00 NBFU=    51    51
 Precomputing XC quadrature grid using
 IXCGrd= 4 IRadAn=           5 IRanWt=          -1 IRanGd=           0 AccXCQ= 0.00D+00.
 Generated NRdTot=       0 NPtTot=           0 NUsed=           0 NTot=          32
 NSgBfM=   102   102   102   102   102 MxSgAt=    12 MxSgA2=    12.
 Leave Link  302 at Fri Aug 21 09:47:58 2026, MaxMem=   104857600 cpu:               0.1 elap:               0.1
 (Enter /sw/cluster/pub/apps//g16/l303.exe)
 DipDrv:  MaxL=1.
 Leave Link  303 at Fri Aug 21 09:47:58 2026, MaxMem=   104857600 cpu:               0.0 elap:               0.0
 (Enter /sw/cluster/pub/apps//g16/l401.exe)
 Initial guess from the checkpoint file:  "bz.chk"
 B after Tr=     0.000000    0.000000    0.000000
         Rot=    0.866026    0.000000   -0.000000    0.499999 Ang=  60.00 deg.
 Guess basis will be translated and rotated to current coordinates.
 JPrj=2 DoOrth=T DoCkMO=T.
 Initial guess orbital symmetries:
       Occupied  (A) (B) (B) (A) (A) (B) (A) (B) (B) (A) (A) (A)
                 (B) (B) (B) (B) (A) (A) (A) (B) (B)
       Virtual   (A) (A) (A) (B) (B) (B) (A) (A) (B) (A) (A) (B)
                 (B) (B) (A) (B) (A) (A) (A) (A) (A) (B) (B) (B)
                 (B) (A) (A) (B) (A) (A) (B) (B) (B) (B) (B) (A)
                 (A) (A) (A) (B) (B) (B) (B) (A) (A) (A) (A) (A)
                 (B) (B) (A) (B) (A) (B) (B) (B) (A) (A) (A) (A)
                 (B) (B) (B) (B) (B) (A) (A) (A) (A) (A) (B) (B)
                 (B) (A) (B) (A) (B) (B) (A) (A) (B)
 The electronic state of the initial guess is 1-A.
 Leave Link  401 at Fri Aug 21 09:47:58 2026, MaxMem=   104857600 cpu:               0.0 elap:               0.0
 (Enter /sw/cluster/pub/apps//g16/l502.exe)
 Keep R1 ints in memory in symmetry-blocked form, NReq=20713737.
 FoFCou: FMM=F IPFlag=           0 FMFlag=           0 FMFlg1=           0
         NFxFlg=           0 DoJE=F BraDBF=F KetDBF=F FulRan=T
         wScrn=  0.000000 ICntrl=       600 IOpCl=  0 I1Cent=           0 NGrid=           0
         NMat0=    1 NMatS0=   5253 NMatT0=    0 NMatD0=    1 NMtDS0=    0 NMtDT0=    0
 Petite list used in FoFCou.
 Closed shell SCF:
 Using DIIS extrapolation, IDIIS=  1040.
 NGot=   104857600 LenX=    97921667 LenY=    97910822
 Requested convergence on RMS density matrix=1.00D-08 within 128 cycles.
 Requested convergence on MAX density matrix=1.00D-06.
 Requested convergence on             energy=1.00D-06.
 No special actions if energy rises.

 Cycle   1  Pass 1  IDiag  1:
 E= -232.267540619261    
 DIIS: error= 3.80D-04 at cycle   1 NSaved=   1.
 NSaved= 1 IEnMin= 1 EnMin= -232.267540619261     IErMin= 1 ErrMin= 3.80D-04
 ErrMax= 3.80D-04  0.00D+00 EMaxC= 1.00D-01 BMatC= 8.56D-06 BMatP= 8.56D-06
 IDIUse=3 WtCom= 9.96D-01 WtEn= 3.80D-03
 Coeff-Com:  0.100D+01
 Coeff-En:   0.100D+01
 Coeff:      0.100D+01
 Gap=     0.250 Goal=   None    Shift=    0.000
 RMSDP=5.36D-05 MaxDP=5.60D-04              OVMax= 9.31D-04

 Cycle   2  Pass 1  IDiag  1:
 E= -232.267548871065     Delta-E=       -0.000008251804 Rises=F Damp=F
 DIIS: error= 1.82D-04 at cycle   2 NSaved=   2.
 NSaved= 2 IEnMin= 2 EnMin= -232.267548871065     IErMin= 2 ErrMin= 1.82D-04
 ErrMax= 1.82D-04  0.00D+00 EMaxC= 1.00D-01 BMatC= 2.63D-06 BMatP= 8.56D-06
 IDIUse=3 WtCom= 9.98D-01 WtEn= 1.82D-03
 Coeff-Com:  0.321D+00 0.679D+00
 Coeff-En:   0.000D+00 0.100D+01
 Coeff:      0.321D+00 0.679D+00
 Gap=     0.250 Goal=   None    Shift=    0.000
 RMSDP=2.41D-05 MaxDP=2.94D-04 DE=-8.25D-06 OVMax= 4.79D-04

 Cycle   3  Pass 1  IDiag  1:
 E= -232.267551189173     Delta-E=       -0.000002318108 Rises=F Damp=F
 DIIS: error= 6.85D-05 at cycle   3 NSaved=   3.
 NSaved= 3 IEnMin= 3 EnMin= -232.267551189173     IErMin= 3 ErrMin= 6.85D-05
 ErrMax= 6.85D-05  0.00D+00 EMaxC= 1.00D-01 BMatC= 4.27D-07 BMatP= 2.63D-06
 IDIUse=1 WtCom= 1.00D+00 WtEn= 0.00D+00
 Coeff-Com:  0.508D-02 0.286D+00 0.709D+00
 Coeff:      0.508D-02 0.286D+00 0.709D+00
 Gap=     0.250 Goal=   None    Shift=    0.000
 RMSDP=8.28D-06 MaxDP=9.15D-05 DE=-2.32D-06 OVMax= 1.68D-04

 Cycle   4  Pass 1  IDiag  1:
 E= -232.267551647266     Delta-E=       -0.000000458093 Rises=F Damp=F
 DIIS: error= 6.30D-06 at cycle   4 NSaved=   4.
 NSaved= 4 IEnMin= 4 EnMin= -232.267551647266     IErMin= 4 ErrMin= 6.30D-06
 ErrMax= 6.30D-06  0.00D+00 EMaxC= 1.00D-01 BMatC= 2.42D-09 BMatP= 4.27D-07
 IDIUse=1 WtCom= 1.00D+00 WtEn= 0.00D+00
 Coeff-Com: -0.402D-02 0.503D-01 0.164D+00 0.789D+00
 Coeff:     -0.402D-02 0.503D-01 0.164D+00 0.789D+00
 Gap=     0.250 Goal=   None    Shift=    0.000
 RMSDP=6.33D-07 MaxDP=4.99D-06 DE=-4.58D-07 OVMax= 8.88D-06

 Cycle   5  Pass 1  IDiag  1:
 E= -232.267551649425     Delta-E=       -0.000000002159 Rises=F Damp=F
 DIIS: error= 8.98D-07 at cycle   5 NSaved=   5.
 NSaved= 5 IEnMin= 5 EnMin= -232.267551649425     IErMin= 5 ErrMin= 8.98D-07
 ErrMax= 8.98D-07  0.00D+00 EMaxC= 1.00D-01 BMatC= 4.62D-11 BMatP= 2.42D-09
 IDIUse=1 WtCom= 1.00D+00 WtEn= 0.00D+00
 Coeff-Com: -0.826D-03 0.731D-03 0.137D-01 0.136D+00 0.851D+00
 Coeff:     -0.826D-03 0.731D-03 0.137D-01 0.136D+00 0.851D+00
 Gap=     0.250 Goal=   None    Shift=    0.000
 RMSDP=8.57D-08 MaxDP=1.09D-06 DE=-2.16D-09 OVMax= 1.88D-06

 Cycle   6  Pass 1  IDiag  1:
 E= -232.267551649476     Delta-E=       -0.000000000051 Rises=F Damp=F
 DIIS: error= 5.08D-08 at cycle   6 NSaved=   6.
 NSaved= 6 IEnMin= 6 EnMin= -232.267551649476     IErMin= 6 ErrMin= 5.08D-08
 ErrMax= 5.08D-08  0.00D+00 EMaxC= 1.00D-01 BMatC= 2.01D-13 BMatP= 4.62D-11
 IDIUse=1 WtCom= 1.00D+00 WtEn= 0.00D+00
 Coeff-Com: -0.757D-04-0.932D-04 0.784D-03 0.105D-01 0.857D-01 0.903D+00
 Coeff:     -0.757D-04-0.932D-04 0.784D-03 0.105D-01 0.857D-01 0.903D+00
 Gap=     0.250 Goal=   None    Shift=    0.000
 RMSDP=8.23D-09 MaxDP=1.41D-07 DE=-5.05D-11 OVMax= 3.13D-07

 SCF Done:  E(RB3LYP) =  -232.267551649     A.U. after    6 cycles
            NFock=  6  Conv=0.82D-08     -V/T= 2.0101
 KE= 2.299434705101D+02 PE=-9.439760787056D+02 EE= 2.784718864463D+02
 Leave Link  502 at Fri Aug 21 09:48:01 2026, MaxMem=   104857600 cpu:               2.6 elap:               2.6
 (Enter /sw/cluster/pub/apps//g16/l701.exe)
 ... and contract with generalized density number  0.
 Compute integral first derivatives.
 R6Disp: Adding Grimme-D3(BJ) dispersion energy 1st derivatives to the gradient.
 Leave Link  701 at Fri Aug 21 09:48:01 2026, MaxMem=   104857600 cpu:               0.0 elap:               0.0
 (Enter /sw/cluster/pub/apps//g16/l702.exe)
 L702 exits ... SP integral derivatives will be done elsewhere.
 Leave Link  702 at Fri Aug 21 09:48:01 2026, MaxMem=   104857600 cpu:               0.0 elap:               0.0
 (Enter /sw/cluster/pub/apps//g16/l703.exe)
 Integral derivatives from FoFJK, PRISM(SPDF).
 Compute integral first derivatives, UseDBF=F ICtDFT=           0.
 Calling FoFJK, ICntrl=      2127 FMM=F ISym2X=1 I1Cent= 0 IOpClX= 0 NMat=1 NMatS=1 NMatT=0.
 FoFJK:  IHMeth= 1 ICntrl=    2127 DoSepK=F KAlg= 0 I1Cent=           0 FoldK=F
 IRaf=         0 NMat=       1 IRICut=       1 DoRegI=T DoRafI=F ISym2E= 1 IDoP0=0 IntGTp=1.
 FoFCou: FMM=F IPFlag=           0 FMFlag=      100000 FMFlg1=         800
         NFxFlg=           0 DoJE=F BraDBF=F KetDBF=F FulRan=T
         wScrn=  0.000000 ICntrl=      2127 IOpCl=  0 I1Cent=           0 NGrid=           0
         NMat0=    1 NMatS0=      1 NMatT0=    0 NMatD0=    1 NMtDS0=    0 NMtDT0=    0
 Petite list used in FoFCou.
 Leave Link  703 at Fri Aug 21 09:48:02 2026, MaxMem=   104857600 cpu:               1.0 elap:               1.0
 (Enter /sw/cluster/pub/apps//g16/l716.exe)
 Dipole        =-4.40234786D-16 0.00000000D+00 1.13583096D-07
 ***** Axes restored to original set *****
 -------------------------------------------------------------------
 Center     Atomic                   Forces (Hartrees/Bohr)
 Number     Number              X              Y              Z
 -------------------------------------------------------------------
      1        6          -0.000237416   -0.000107113   -0.000000001
      2        6          -0.000024822   -0.000258976    0.000000005
      3        6           0.000211166   -0.000150551    0.000000005
      4        6           0.000237416    0.000107113   -0.000000001
      5        6           0.000024822    0.000258976    0.000000005
      6        6          -0.000211166    0.000150551    0.000000005
      7        1          -0.000069864   -0.000031567    0.000000003
      8        1          -0.000007166   -0.000076176   -0.000000006
      9        1           0.000062669   -0.000044253   -0.000000006
     10        1           0.000069864    0.000031567    0.000000003
     11        1           0.000007166    0.000076176   -0.000000006
     12        1          -0.000062669    0.000044253   -0.000000006
 -------------------------------------------------------------------
 Cartesian Forces:  Max     0.000258976 RMS     0.000110654
 Leave Link  716 at Fri Aug 21 09:48:02 2026, MaxMem=   104857600 cpu:               0.0 elap:               0.0
 (Enter /sw/cluster/pub/apps//g16/l103.exe)

 GradGradGradGradGradGradGradGradGradGradGradGradGradGradGradGradGradGrad
 Berny optimization.
 Using GEDIIS/GDIIS optimizer.
 FormGI is forming the generalized inverse of G from B-inverse, IUseBI=4.
 Internal  Forces:  Max     0.000337134 RMS     0.000115077
 Search for a local minimum.
 Step number   2 out of a maximum of   64
 All quantities printed in internal units (Hartrees-Bohrs-Radians)
 RMS Force = .11508D-03 SwitMx=.10000D-02 MixMth= 2
 Mixed Optimization -- En-DIIS/RFO-DIIS
 Swapping is turned off.
 Update second derivatives using D2CorX and points    1    2
 DE= -3.95D-05 DEPred=-4.54D-05 R= 8.71D-01
 TightC=F SS=  1.41D+00  RLast= 1.42D-02 DXNew= 5.0454D-01 4.2638D-02
 Trust test= 8.71D-01 RLast= 1.42D-02 DXMaxT set to 3.00D-01
 ITU=  1  0
     Eigenvalues ---    0.02107   0.02107   0.02107   0.02107   0.02107
     Eigenvalues ---    0.02107   0.02107   0.02107   0.02107   0.16000
     Eigenvalues ---    0.16000   0.16000   0.16000   0.16000   0.16000
     Eigenvalues ---    0.22000   0.22000   0.22000   0.35113   0.35113
     Eigenvalues ---    0.35113   0.35113   0.35113   0.35305   0.41615
     Eigenvalues ---    0.41615   0.45844   0.45845   0.45845   0.51627
 En-DIIS/RFO-DIIS/Sim-DIIS IScMMF=       -3 using points:     2    1
 RFO step:  Lambda=-1.39838456D-06.
 NNeg= 0 NGDIIS= 2 SimSw=  2.50D-03 Rises=F DC= -3.95D-05 SmlDif=  1.00D-05
 NRisDI= 0 DoIntr=F SqrtH=F CThrHd= 10.0 CDAdj=  3.0
 RMS Error=  0.2255096014D-03 NUsed= 2 OKEnD=T EnDIS=F
 InvSVX:  RCond= 2.27D-04 Info=           0 Equed=N FErr=  1.01D-15 BErr=  6.55D-17
 DidBck=F Rises=F RFO-DIIS coefs:    0.88341    0.11659
 Iteration  1 RMS(Cart)=  0.00035406 RMS(Int)=  0.00000000
 Iteration  2 RMS(Cart)=  0.00000000 RMS(Int)=  0.00000000
 ITry= 1 IFail=0 DXMaxC= 8.37D-04 DCOld= 1.00D+10 DXMaxT= 3.00D-01 DXLimC= 3.00D+00 Rises=F
 ClnCor:  largest displacement from symmetrization is 4.14D-09 for atom    12.
 Variable       Old X    -DE/DX   Delta X   Delta X   Delta X     New X
                                 (Linear)    (Quad)   (Total)
    R1        2.63751   0.00034   0.00065   0.00000   0.00065   2.63816
    R2        2.63752   0.00034   0.00065   0.00000   0.00065   2.63816
    R3        2.05324   0.00008   0.00020  -0.00000   0.00019   2.05343
    R4        2.63751   0.00034   0.00065   0.00000   0.00065   2.63816
    R5        2.05324   0.00008   0.00020  -0.00000   0.00019   2.05343
    R6        2.63752   0.00034   0.00065   0.00000   0.00065   2.63816
    R7        2.05324   0.00008   0.00020  -0.00000   0.00019   2.05343
    R8        2.63751   0.00034   0.00065   0.00000   0.00065   2.63816
    R9        2.05324   0.00008   0.00020  -0.00000   0.00019   2.05343
   R10        2.63751   0.00034   0.00065   0.00000   0.00065   2.63816
   R11        2.05324   0.00008   0.00020  -0.00000   0.00019   2.05343
   R12        2.05324   0.00008   0.00020  -0.00000   0.00019   2.05343
    A1        2.09440  -0.00000  -0.00000  -0.00000  -0.00000   2.09439
    A2        2.09439   0.00000   0.00000   0.00000   0.00000   2.09440
    A3        2.09440  -0.00000  -0.00000   0.00000  -0.00000   2.09439
    A4        2.09439   0.00000   0.00000  -0.00000   0.00000   2.09440
    A5        2.09439   0.00000  -0.00000   0.00000   0.00000   2.09440
    A6        2.09440  -0.00000   0.00000  -0.00000  -0.00000   2.09439
    A7        2.09439   0.00000  -0.00000   0.00000   0.00000   2.09440
    A8        2.09439   0.00000   0.00000   0.00000   0.00000   2.09439
    A9        2.09440  -0.00000   0.00000  -0.00000  -0.00000   2.09440
   A10        2.09440  -0.00000  -0.00000  -0.00000  -0.00000   2.09439
   A11        2.09440  -0.00000  -0.00000   0.00000  -0.00000   2.09439
   A12        2.09439   0.00000   0.00000   0.00000   0.00000   2.09440
   A13        2.09439   0.00000   0.00000  -0.00000   0.00000   2.09440
   A14        2.09439   0.00000  -0.00000   0.00000   0.00000   2.09440
   A15        2.09440  -0.00000   0.00000  -0.00000  -0.00000   2.09439
   A16        2.09439   0.00000  -0.00000   0.00000   0.00000   2.09440
   A17        2.09440  -0.00000   0.00000  -0.00000  -0.00000   2.09440
   A18        2.09439   0.00000   0.00000   0.00000   0.00000   2.09439
    D1       -0.00000   0.00000   0.00000   0.00000   0.00000   0.00000
    D2        3.14159   0.00000   0.00000   0.00000   0.00000   3.14159
    D3        3.14159   0.00000  -0.00000   0.00000   0.00000   3.14159
    D4       -0.00000   0.00000  -0.00000   0.00000   0.00000  -0.00000
    D5        0.00000  -0.00000  -0.00000  -0.00000  -0.00000   0.00000
    D6       -3.14159  -0.00000  -0.00000  -0.00000  -0.00000   3.14159
    D7       -3.14159  -0.00000   0.00000  -0.00000  -0.00000  -3.14159
    D8        0.00000  -0.00000   0.00000  -0.00000  -0.00000   0.00000
    D9        0.00000   0.00000   0.00000   0.00000   0.00000   0.00000
   D10        3.14159   0.00000   0.00000   0.00000   0.00000   3.14159
   D11       -3.14159  -0.00000  -0.00000  -0.00000  -0.00000  -3.14159
   D12        0.00000  -0.00000   0.00000  -0.00000   0.00000   0.00000
   D13        0.00000  -0.00000  -0.00000  -0.00000  -0.00000   0.00000
   D14       -3.14159  -0.00000   0.00000  -0.00000   0.00000  -3.14159
   D15       -3.14159  -0.00000  -0.00000  -0.00000  -0.00000   3.14159
   D16        0.00000  -0.00000   0.00000  -0.00000  -0.00000   0.00000
   D17       -0.00000   0.00000   0.00000   0.00000   0.00000   0.00000
   D18        3.14159   0.00000   0.00000   0.00000   0.00000   3.14159
   D19        3.14159   0.00000  -0.00000   0.00000   0.00000   3.14159
   D20       -0.00000   0.00000  -0.00000   0.00000   0.00000  -0.00000
   D21        0.00000   0.00000   0.00000   0.00000   0.00000   0.00000
   D22        3.14159   0.00000   0.00000   0.00000   0.00000   3.14159
   D23       -3.14159  -0.00000  -0.00000  -0.00000  -0.00000   3.14159
   D24        0.00000  -0.00000   0.00000  -0.00000   0.00000   0.00000
         Item               Value     Threshold  Converged?
 Maximum Force            0.000337     0.000450     YES
 RMS     Force            0.000115     0.000300     YES
 Maximum Displacement     0.000837     0.001800     YES
 RMS     Displacement     0.000354     0.001200     YES
 Predicted change in Energy=-6.991941D-07
 Optimization completed.
    -- Stationary point found.
                           ----------------------------
                           !   Optimized Parameters   !
                           ! (Angstroms and Degrees)  !
 --------------------------                            --------------------------
 ! Name  Definition              Value          Derivative Info.                !
 --------------------------------------------------------------------------------
 ! R1    R(1,2)                  1.3957         -DE/DX =    0.0003              !
 ! R2    R(1,6)                  1.3957         -DE/DX =    0.0003              !
 ! R3    R(1,7)                  1.0865         -DE/DX =    0.0001              !
 ! R4    R(2,3)                  1.3957         -DE/DX =    0.0003              !
 ! R5    R(2,8)                  1.0865         -DE/DX =    0.0001              !
 ! R6    R(3,4)                  1.3957         -DE/DX =    0.0003              !
 ! R7    R(3,9)                  1.0865         -DE/DX =    0.0001              !
 ! R8    R(4,5)                  1.3957         -DE/DX =    0.0003              !
 ! R9    R(4,10)                 1.0865         -DE/DX =    0.0001              !
 ! R10   R(5,6)                  1.3957         -DE/DX =    0.0003              !
 ! R11   R(5,11)                 1.0865         -DE/DX =    0.0001              !
 ! R12   R(6,12)                 1.0865         -DE/DX =    0.0001              !
 ! A1    A(2,1,6)              120.0001         -DE/DX =    0.0                 !
 ! A2    A(2,1,7)              119.9999         -DE/DX =    0.0                 !
 ! A3    A(6,1,7)              120.0            -DE/DX =    0.0                 !
 ! A4    A(1,2,3)              120.0            -DE/DX =    0.0                 !
 ! A5    A(1,2,8)              120.0            -DE/DX =    0.0                 !
 ! A6    A(3,2,8)              120.0001         -DE/DX =    0.0                 !
 ! A7    A(2,3,4)              119.9999         -DE/DX =    0.0                 !
 ! A8    A(2,3,9)              119.9999         -DE/DX =    0.0                 !
 ! A9    A(4,3,9)              120.0002         -DE/DX =    0.0                 !
 ! A10   A(3,4,5)              120.0001         -DE/DX =    0.0                 !
 ! A11   A(3,4,10)             120.0            -DE/DX =    0.0                 !
 ! A12   A(5,4,10)             119.9999         -DE/DX =    0.0                 !
 ! A13   A(4,5,6)              120.0            -DE/DX =    0.0                 !
 ! A14   A(4,5,11)             120.0            -DE/DX =    0.0                 !
 ! A15   A(6,5,11)             120.0001         -DE/DX =    0.0                 !
 ! A16   A(1,6,5)              119.9999         -DE/DX =    0.0                 !
 ! A17   A(1,6,12)             120.0002         -DE/DX =    0.0                 !
 ! A18   A(5,6,12)             119.9999         -DE/DX =    0.0                 !
 ! D1    D(6,1,2,3)              0.0            -DE/DX =    0.0                 !
 ! D2    D(6,1,2,8)            180.0            -DE/DX =    0.0                 !
 ! D3    D(7,1,2,3)            180.0            -DE/DX =    0.0                 !
 ! D4    D(7,1,2,8)              0.0            -DE/DX =    0.0                 !
 ! D5    D(2,1,6,5)              0.0            -DE/DX =    0.0                 !
 ! D6    D(2,1,6,12)           180.0            -DE/DX =    0.0                 !
 ! D7    D(7,1,6,5)           -180.0            -DE/DX =    0.0                 !
 ! D8    D(7,1,6,12)             0.0            -DE/DX =    0.0                 !
 ! D9    D(1,2,3,4)              0.0            -DE/DX =    0.0                 !
 ! D10   D(1,2,3,9)            180.0            -DE/DX =    0.0                 !
 ! D11   D(8,2,3,4)           -180.0            -DE/DX =    0.0                 !
 ! D12   D(8,2,3,9)              0.0            -DE/DX =    0.0                 !
 ! D13   D(2,3,4,5)              0.0            -DE/DX =    0.0                 !
 ! D14   D(2,3,4,10)          -180.0            -DE/DX =    0.0                 !
 ! D15   D(9,3,4,5)            180.0            -DE/DX =    0.0                 !
 ! D16   D(9,3,4,10)             0.0            -DE/DX =    0.0                 !
 ! D17   D(3,4,5,6)              0.0            -DE/DX =    0.0                 !
 ! D18   D(3,4,5,11)           180.0            -DE/DX =    0.0                 !
 ! D19   D(10,4,5,6)           180.0            -DE/DX =    0.0                 !
 ! D20   D(10,4,5,11)            0.0            -DE/DX =    0.0                 !
 ! D21   D(4,5,6,1)              0.0            -DE/DX =    0.0                 !
 ! D22   D(4,5,6,12)           180.0            -DE/DX =    0.0                 !
 ! D23   D(11,5,6,1)           180.0            -DE/DX =    0.0                 !
 ! D24   D(11,5,6,12)            0.0            -DE/DX =    0.0                 !
 --------------------------------------------------------------------------------
 Lowest energy point so far.  Saving SCF results.
 Largest change from initial coordinates is atom   12       2.484 Angstoms.
 GradGradGradGradGradGradGradGradGradGradGradGradGradGradGradGradGradGrad

 Leave Link  103 at Fri Aug 21 09:48:02 2026, MaxMem=   104857600 cpu:               0.0 elap:               0.0
 (Enter /sw/cluster/pub/apps//g16/l202.exe)
                          Input orientation:                          
 ---------------------------------------------------------------------
 Center     Atomic      Atomic             Coordinates (Angstroms)
 Number     Number       Type             X           Y           Z
 ---------------------------------------------------------------------
      1          6           0       -1.270193   -0.578466   -0.000000
      2          6           0       -0.134130   -1.389253   -0.000000
      3          6           0        1.136063   -0.810788   -0.000000
      4          6           0        1.270193    0.578466   -0.000000
      5          6           0        0.134130    1.389253   -0.000000
      6          6           0       -1.136063    0.810788   -0.000000
      7          1           0       -2.259004   -1.028787   -0.000000
      8          1           0       -0.238549   -2.470750   -0.000000
      9          1           0        2.020456   -1.441966   -0.000000
     10          1           0        2.259004    1.028787   -0.000000
     11          1           0        0.238549    2.470750   -0.000000
     12          1           0       -2.020456    1.441966   -0.000000
 ---------------------------------------------------------------------
                    Distance matrix (angstroms):
                    1          2          3          4          5
     1  C    0.000000
     2  C    1.395713   0.000000
     3  C    2.417445   1.395713   0.000000
     4  C    2.791424   2.417445   1.395714   0.000000
     5  C    2.417445   2.791426   2.417447   1.395713   0.000000
     6  C    1.395714   2.417447   2.791427   2.417445   1.395713
     7  H    1.086526   2.155232   3.402059   3.877950   3.402060
     8  H    2.155232   1.086526   2.155234   3.402061   3.877952
     9  H    3.402059   2.155232   1.086525   2.155236   3.402062
    10  H    3.877950   3.402060   2.155234   1.086526   2.155232
    11  H    3.402061   3.877952   3.402061   2.155232   1.086526
    12  H    2.155236   3.402062   3.877952   3.402059   2.155232
                    6          7          8          9         10
     6  C    0.000000
     7  H    2.155234   0.000000
     8  H    3.402061   2.482236   0.000000
     9  H    3.877952   4.299361   2.482237   0.000000
    10  H    3.402059   4.964475   4.299364   2.482242   0.000000
    11  H    2.155234   4.299364   4.964478   4.299365   2.482236
    12  H    1.086525   2.482242   4.299365   4.964478   4.299361
                   11         12
    11  H    0.000000
    12  H    2.482237   0.000000
 Stoichiometry    C6H6
 Framework group  C2[X(C6H6)]
 Deg. of freedom    16
 Full point group                 C2      NOp   2
 RotChk:  IX=3 Diff= 1.67D-16
 Largest Abelian subgroup         C2      NOp   2
 Largest concise Abelian subgroup C2      NOp   2
                         Standard orientation:                         
 ---------------------------------------------------------------------
 Center     Atomic      Atomic             Coordinates (Angstroms)
 Number     Number       Type             X           Y           Z
 ---------------------------------------------------------------------
      1          6           0        1.208723   -0.697855   -0.000000
      2          6           0        1.208723    0.697857    0.000000
      3          6           0       -0.000000    1.395714    0.000000
      4          6           0       -1.208723    0.697855   -0.000000
      5          6           0       -1.208723   -0.697857    0.000000
      6          6           0        0.000000   -1.395714    0.000000
      7          1           0        2.149682   -1.241117   -0.000000
      8          1           0        2.149682    1.241120    0.000000
      9          1           0        0.000002    2.482239    0.000000
     10          1           0       -2.149682    1.241117   -0.000000
     11          1           0       -2.149682   -1.241120    0.000000
     12          1           0       -0.000002   -2.482239    0.000000
 ---------------------------------------------------------------------
 Rotational constants (GHZ):           5.6939233           5.6939126           2.8469590
 Leave Link  202 at Fri Aug 21 09:48:02 2026, MaxMem=   104857600 cpu:               0.0 elap:               0.0
 (Enter /sw/cluster/pub/apps//g16/l601.exe)
 Copying SCF densities to generalized density rwf, IOpCl= 0 IROHF=0.

 **********************************************************************

            Population analysis using the SCF density.

 **********************************************************************

 Orbital symmetries:
       Occupied  (A) (B) (B) (A) (A) (B) (A) (B) (B) (A) (A) (A)
                 (B) (B) (B) (B) (A) (A) (A) (B) (B)
       Virtual   (A) (A) (A) (B) (B) (B) (A) (A) (B) (A) (A) (B)
                 (B) (B) (A) (B) (A) (A) (A) (B) (B) (A) (A) (B)
                 (B) (A) (A) (B) (A) (A) (B) (B) (B) (B) (B) (A)
                 (A) (A) (A) (B) (B) (B) (B) (A) (A) (A) (A) (A)
                 (B) (B) (A) (B) (A) (B) (B) (B) (A) (A) (A) (A)
                 (B) (B) (B) (B) (B) (A) (A) (A) (A) (A) (B) (B)
                 (B) (A) (B) (A) (B) (B) (A) (A) (B)
 The electronic state is 1-A.
 Alpha  occ. eigenvalues --  -10.18744 -10.18717 -10.18717 -10.18662 -10.18662
 Alpha  occ. eigenvalues --  -10.18635  -0.84676  -0.74006  -0.74006  -0.59763
 Alpha  occ. eigenvalues --   -0.59763  -0.51884  -0.45921  -0.43833  -0.41736
 Alpha  occ. eigenvalues --   -0.41736  -0.35968  -0.34026  -0.34026  -0.24639
 Alpha  occ. eigenvalues --   -0.24639
 Alpha virt. eigenvalues --    0.00383   0.00383   0.09085   0.14481   0.14481
 Alpha virt. eigenvalues --    0.16442   0.18213   0.18213   0.19059   0.30305
 Alpha virt. eigenvalues --    0.30305   0.31963   0.31963   0.47465   0.52729
 Alpha virt. eigenvalues --    0.55011   0.55056   0.56483   0.59251   0.60193
 Alpha virt. eigenvalues --    0.60193   0.60254   0.60254   0.62697   0.62697
 Alpha virt. eigenvalues --    0.66764   0.66764   0.74506   0.84029   0.84029
 Alpha virt. eigenvalues --    0.84169   0.86505   0.86505   0.93943   0.93944
 Alpha virt. eigenvalues --    0.94093   0.95875   1.08288   1.08288   1.14297
 Alpha virt. eigenvalues --    1.14297   1.20178   1.26191   1.39590   1.43702
 Alpha virt. eigenvalues --    1.43703   1.48729   1.48729   1.51551   1.51551
 Alpha virt. eigenvalues --    1.75708   1.79066   1.85799   1.89684   1.97447
 Alpha virt. eigenvalues --    1.97447   2.06750   2.06750   2.15231   2.15232
 Alpha virt. eigenvalues --    2.15575   2.15575   2.31041   2.31041   2.32285
 Alpha virt. eigenvalues --    2.54643   2.54643   2.65871   2.70748   2.70749
 Alpha virt. eigenvalues --    2.72297   2.72297   2.76071   3.01807   3.41322
 Alpha virt. eigenvalues --    4.08636   4.11810   4.11810   4.33065   4.33065
 Alpha virt. eigenvalues --    4.66681
          Condensed to atoms (all electrons):
               1          2          3          4          5          6
     1  C    4.848240   0.551861  -0.031917  -0.041106  -0.031917   0.551861
     2  C    0.551861   4.848237   0.551861  -0.031917  -0.041106  -0.031917
     3  C   -0.031917   0.551861   4.848237   0.551861  -0.031917  -0.041106
     4  C   -0.041106  -0.031917   0.551861   4.848240   0.551861  -0.031917
     5  C   -0.031917  -0.041106  -0.031917   0.551861   4.848237   0.551861
     6  C    0.551861  -0.031917  -0.041106  -0.031917   0.551861   4.848237
     7  H    0.358957  -0.043876   0.004809   0.000584   0.004809  -0.043876
     8  H   -0.043876   0.358957  -0.043876   0.004809   0.000584   0.004809
     9  H    0.004809  -0.043877   0.358956  -0.043876   0.004809   0.000584
    10  H    0.000584   0.004809  -0.043876   0.358957  -0.043876   0.004809
    11  H    0.004809   0.000584   0.004809  -0.043876   0.358957  -0.043876
    12  H   -0.043876   0.004809   0.000584   0.004809  -0.043877   0.358956
               7          8          9         10         11         12
     1  C    0.358957  -0.043876   0.004809   0.000584   0.004809  -0.043876
     2  C   -0.043876   0.358957  -0.043877   0.004809   0.000584   0.004809
     3  C    0.004809  -0.043876   0.358956  -0.043876   0.004809   0.000584
     4  C    0.000584   0.004809  -0.043876   0.358957  -0.043876   0.004809
     5  C    0.004809   0.000584   0.004809  -0.043876   0.358957  -0.043877
     6  C   -0.043876   0.004809   0.000584   0.004809  -0.043876   0.358956
     7  H    0.602339  -0.005911  -0.000183   0.000016  -0.000183  -0.005911
     8  H   -0.005911   0.602339  -0.005911  -0.000183   0.000016  -0.000183
     9  H   -0.000183  -0.005911   0.602340  -0.005911  -0.000183   0.000016
    10  H    0.000016  -0.000183  -0.005911   0.602339  -0.005911  -0.000183
    11  H   -0.000183   0.000016  -0.000183  -0.005911   0.602339  -0.005911
    12  H   -0.005911  -0.000183   0.000016  -0.000183  -0.005911   0.602340
 Mulliken charges:
               1
     1  C   -0.128430
     2  C   -0.128428
     3  C   -0.128427
     4  C   -0.128430
     5  C   -0.128428
     6  C   -0.128427
     7  H    0.128428
     8  H    0.128428
     9  H    0.128427
    10  H    0.128428
    11  H    0.128428
    12  H    0.128427
 Sum of Mulliken charges =   0.00000
 Mulliken charges with hydrogens summed into heavy atoms:
               1
     1  C   -0.000001
     2  C    0.000001
     3  C    0.000001
     4  C   -0.000001
     5  C    0.000001
     6  C    0.000001
 Electronic spatial extent (au):  <R**2>=            457.8400
 Charge=              0.0000 electrons
 Dipole moment (field-independent basis, Debye):
    X=              0.0000    Y=              0.0000    Z=              0.0000  Tot=              0.0000
 Quadrupole moment (field-independent basis, Debye-Ang):
   XX=            -31.4065   YY=            -31.4065   ZZ=            -38.5859
   XY=              0.0000   XZ=             -0.0000   YZ=              0.0000
 Traceless Quadrupole moment (field-independent basis, Debye-Ang):
   XX=              2.3932   YY=              2.3931   ZZ=             -4.7863
   XY=              0.0000   XZ=             -0.0000   YZ=              0.0000
 Octapole moment (field-independent basis, Debye-Ang**2):
  XXX=              0.0000  YYY=              0.0000  ZZZ=              0.0000  XYY=              0.0000
  XXY=              0.0000  XXZ=              0.0000  XZZ=              0.0000  YZZ=              0.0000
  YYZ=              0.0000  XYZ=              0.0000
 Hexadecapole moment (field-independent basis, Debye-Ang**3):
 XXXX=           -269.8871 YYYY=           -269.8874 ZZZZ=            -40.0252 XXXY=             -0.0001
 XXXZ=              0.0000 YYYX=             -0.0000 YYYZ=              0.0000 ZZZX=              0.0000
 ZZZY=             -0.0000 XXYY=            -89.9624 XXZZ=            -60.2906 YYZZ=            -60.2906
 XXYZ=              0.0000 YYXZ=              0.0000 ZZXY=             -0.0000
 N-N= 2.032931700997D+02 E-N=-9.439760793134D+02  KE= 2.299434705101D+02
 Symmetry A    KE= 1.134169964386D+02
 Symmetry B    KE= 1.165264740715D+02
 No NMR shielding tensors so no spin-rotation constants.
 Leave Link  601 at Fri Aug 21 09:48:02 2026, MaxMem=   104857600 cpu:               0.0 elap:               0.0
 (Enter /sw/cluster/pub/apps//g16/l9999.exe)
 1\1\GINC-N07\FOpt\RB3LYP\6-31G(d)\C6H6\UNKNOWN\21-Aug-2026\0\\#p opt f
 req b3lyp/6-31g(d) EmpiricalDispersion=GD3BJ\\OPT F1 - dispersion corr
 ection\\0,1\C,-1.2701927208,-0.5784657854,-0.0000002497\C,-0.134130497
 1,-1.3892531504,-0.0000002019\C,1.1360631191,-0.8107878347,-0.00000020
 19\C,1.2701927208,0.5784657854,-0.0000002497\C,0.1341304971,1.38925315
 04,-0.0000002019\C,-1.1360631191,0.8107878347,-0.0000002019\H,-2.25900
 44526,-1.0287868711,-0.0000003006\H,-0.2385490296,-2.4707496609,-0.000
 0000335\H,2.0204563046,-1.441966077,-0.0000000369\H,2.2590044526,1.028
 7868711,-0.0000003006\H,0.2385490296,2.4707496609,-0.0000000335\H,-2.0
 204563046,1.441966077,-0.0000000369\\Version=ES64L-G16RevA.03\State=1-
 A\HF=-232.2675516\RMSD=8.230e-09\RMSF=1.107e-04\Dipole=0.,0.,0.0000003
 \Quadrupole=1.7792319,1.7792729,-3.5585048,0.0000025,0.,0.\PG=C02 [X(C
 6H6)]\\@


 UNDER MOST GREENE GRASSE LY MOST GREATE SNAKES.
 -- PROVERBS AND REASONS OF THE YEAR 1585
           AS REPRINTED IN PAISLEY MAGAZINE 1828.
 Leave Link 9999 at Fri Aug 21 09:48:02 2026, MaxMem=   104857600 cpu:               0.0 elap:               0.0
 Job cpu time:       0 days  0 hours  0 minutes  8.1 seconds.
 Elapsed time:       0 days  0 hours  0 minutes  8.1 seconds.
 File lengths (MBytes):  RWF=     10 Int=      0 D2E=      0 Chk=      2 Scr=      1
 Normal termination of Gaussian 16 at Fri Aug 21 09:48:02 2026.
 (Enter /sw/cluster/pub/apps//g16/l1.exe)
 Link1:  Proceeding to internal job step number  2.
 --------------------------------------------------------------------
 #P Geom=AllCheck Guess=TCheck SCRF=Check GenChk RB3LYP/6-31G(d) Freq
 --------------------------------------------------------------------
 1/10=4,29=7,30=1,38=1,40=1/1,3;
 2/12=2,40=1/2;
 3/5=1,6=6,7=1,11=2,14=-4,25=1,30=1,70=2,71=2,74=-5,116=1,124=41,140=1/1,2,3;
 4/5=101/1;
 5/5=2,38=6,98=1/2;
 8/6=4,10=90,11=11/1;
 11/6=1,8=1,9=11,15=111,16=1/1,2,10;
 10/6=1/2;
 6/7=2,8=2,9=2,10=2,28=1/1;
 7/8=1,10=1,25=1/1,2,3,16;
 1/10=4,30=1/3;
 99//99;
 Leave Link    1 at Fri Aug 21 09:48:02 2026, MaxMem=   104857600 cpu:               0.0 elap:               0.0
 (Enter /sw/cluster/pub/apps//g16/l101.exe)
 Structure from the checkpoint file:  "bz.chk"
 ------------------------------
 OPT F1 - dispersion correction
 ------------------------------
 Charge =  0 Multiplicity = 1
 Redundant internal coordinates found in file.  (old form).
 C,0,-1.2701927208,-0.5784657854,-0.0000002497
 C,0,-0.1341304971,-1.3892531504,-0.0000002019
 C,0,1.1360631191,-0.8107878347,-0.0000002019
 C,0,1.2701927208,0.5784657854,-0.0000002497
 C,0,0.1341304971,1.3892531504,-0.0000002019
 C,0,-1.1360631191,0.8107878347,-0.0000002019
 H,0,-2.2590044526,-1.0287868711,-0.0000003006
 H,0,-0.2385490296,-2.4707496609,-0.0000000335
 H,0,2.0204563046,-1.441966077,-0.0000000369
 H,0,2.2590044526,1.0287868711,-0.0000003006
 H,0,0.2385490296,2.4707496609,-0.0000000335
 H,0,-2.0204563046,1.441966077,-0.0000000369
 Recover connectivity data from disk.
 ITRead=  0  0  0  0  0  0  0  0  0  0  0  0
 MicOpt= -1 -1 -1 -1 -1 -1 -1 -1 -1 -1 -1 -1
 NAtoms=     12 NQM=       12 NQMF=       0 NMMI=      0 NMMIF=      0
                NMic=       0 NMicF=      0.
                    Isotopes and Nuclear Properties:
 (Nuclear quadrupole moments (NQMom) in fm**2, nuclear magnetic moments (NMagM)
  in nuclear magnetons)

  Atom         1           2           3           4           5           6           7           8           9          10
 IAtWgt=          12          12          12          12          12          12           1           1           1           1
 AtmWgt=  12.0000000  12.0000000  12.0000000  12.0000000  12.0000000  12.0000000   1.0078250   1.0078250   1.0078250   1.0078250
 NucSpn=           0           0           0           0           0           0           1           1           1           1
 AtZEff=   3.6000000   3.6000000   3.6000000   3.6000000   3.6000000   3.6000000   1.0000000   1.0000000   1.0000000   1.0000000
 NQMom=    0.0000000   0.0000000   0.0000000   0.0000000   0.0000000   0.0000000   0.0000000   0.0000000   0.0000000   0.0000000
 NMagM=    0.0000000   0.0000000   0.0000000   0.0000000   0.0000000   0.0000000   2.7928460   2.7928460   2.7928460   2.7928460
 AtZNuc=   6.0000000   6.0000000   6.0000000   6.0000000   6.0000000   6.0000000   1.0000000   1.0000000   1.0000000   1.0000000

  Atom        11          12
 IAtWgt=           1           1
 AtmWgt=   1.0078250   1.0078250
 NucSpn=           1           1
 AtZEff=   1.0000000   1.0000000
 NQMom=    0.0000000   0.0000000
 NMagM=    2.7928460   2.7928460
 AtZNuc=   1.0000000   1.0000000
 Leave Link  101 at Fri Aug 21 09:48:02 2026, MaxMem=   104857600 cpu:               0.0 elap:               0.0
 (Enter /sw/cluster/pub/apps//g16/l103.exe)

 GradGradGradGradGradGradGradGradGradGradGradGradGradGradGradGradGradGrad
 Berny optimization.
 Initialization pass.
                           ----------------------------
                           !    Initial Parameters    !
                           ! (Angstroms and Degrees)  !
 --------------------------                            --------------------------
 ! Name  Definition              Value          Derivative Info.                !
 --------------------------------------------------------------------------------
 ! R1    R(1,2)                  1.3957         calculate D2E/DX2 analytically  !
 ! R2    R(1,6)                  1.3957         calculate D2E/DX2 analytically  !
 ! R3    R(1,7)                  1.0865         calculate D2E/DX2 analytically  !
 ! R4    R(2,3)                  1.3957         calculate D2E/DX2 analytically  !
 ! R5    R(2,8)                  1.0865         calculate D2E/DX2 analytically  !
 ! R6    R(3,4)                  1.3957         calculate D2E/DX2 analytically  !
 ! R7    R(3,9)                  1.0865         calculate D2E/DX2 analytically  !
 ! R8    R(4,5)                  1.3957         calculate D2E/DX2 analytically  !
 ! R9    R(4,10)                 1.0865         calculate D2E/DX2 analytically  !
 ! R10   R(5,6)                  1.3957         calculate D2E/DX2 analytically  !
 ! R11   R(5,11)                 1.0865         calculate D2E/DX2 analytically  !
 ! R12   R(6,12)                 1.0865         calculate D2E/DX2 analytically  !
 ! A1    A(2,1,6)              120.0001         calculate D2E/DX2 analytically  !
 ! A2    A(2,1,7)              119.9999         calculate D2E/DX2 analytically  !
 ! A3    A(6,1,7)              120.0            calculate D2E/DX2 analytically  !
 ! A4    A(1,2,3)              120.0            calculate D2E/DX2 analytically  !
 ! A5    A(1,2,8)              120.0            calculate D2E/DX2 analytically  !
 ! A6    A(3,2,8)              120.0001         calculate D2E/DX2 analytically  !
 ! A7    A(2,3,4)              119.9999         calculate D2E/DX2 analytically  !
 ! A8    A(2,3,9)              119.9999         calculate D2E/DX2 analytically  !
 ! A9    A(4,3,9)              120.0002         calculate D2E/DX2 analytically  !
 ! A10   A(3,4,5)              120.0001         calculate D2E/DX2 analytically  !
 ! A11   A(3,4,10)             120.0            calculate D2E/DX2 analytically  !
 ! A12   A(5,4,10)             119.9999         calculate D2E/DX2 analytically  !
 ! A13   A(4,5,6)              120.0            calculate D2E/DX2 analytically  !
 ! A14   A(4,5,11)             120.0            calculate D2E/DX2 analytically  !
 ! A15   A(6,5,11)             120.0001         calculate D2E/DX2 analytically  !
 ! A16   A(1,6,5)              119.9999         calculate D2E/DX2 analytically  !
 ! A17   A(1,6,12)             120.0002         calculate D2E/DX2 analytically  !
 ! A18   A(5,6,12)             119.9999         calculate D2E/DX2 analytically  !
 ! D1    D(6,1,2,3)              0.0            calculate D2E/DX2 analytically  !
 ! D2    D(6,1,2,8)            180.0            calculate D2E/DX2 analytically  !
 ! D3    D(7,1,2,3)            180.0            calculate D2E/DX2 analytically  !
 ! D4    D(7,1,2,8)              0.0            calculate D2E/DX2 analytically  !
 ! D5    D(2,1,6,5)              0.0            calculate D2E/DX2 analytically  !
 ! D6    D(2,1,6,12)          -180.0            calculate D2E/DX2 analytically  !
 ! D7    D(7,1,6,5)           -180.0            calculate D2E/DX2 analytically  !
 ! D8    D(7,1,6,12)             0.0            calculate D2E/DX2 analytically  !
 ! D9    D(1,2,3,4)              0.0            calculate D2E/DX2 analytically  !
 ! D10   D(1,2,3,9)            180.0            calculate D2E/DX2 analytically  !
 ! D11   D(8,2,3,4)           -180.0            calculate D2E/DX2 analytically  !
 ! D12   D(8,2,3,9)              0.0            calculate D2E/DX2 analytically  !
 ! D13   D(2,3,4,5)              0.0            calculate D2E/DX2 analytically  !
 ! D14   D(2,3,4,10)          -180.0            calculate D2E/DX2 analytically  !
 ! D15   D(9,3,4,5)           -180.0            calculate D2E/DX2 analytically  !
 ! D16   D(9,3,4,10)             0.0            calculate D2E/DX2 analytically  !
 ! D17   D(3,4,5,6)              0.0            calculate D2E/DX2 analytically  !
 ! D18   D(3,4,5,11)           180.0            calculate D2E/DX2 analytically  !
 ! D19   D(10,4,5,6)           180.0            calculate D2E/DX2 analytically  !
 ! D20   D(10,4,5,11)            0.0            calculate D2E/DX2 analytically  !
 ! D21   D(4,5,6,1)              0.0            calculate D2E/DX2 analytically  !
 ! D22   D(4,5,6,12)           180.0            calculate D2E/DX2 analytically  !
 ! D23   D(11,5,6,1)          -180.0            calculate D2E/DX2 analytically  !
 ! D24   D(11,5,6,12)            0.0            calculate D2E/DX2 analytically  !
 --------------------------------------------------------------------------------
 Trust Radius=3.00D-01 FncErr=1.00D-07 GrdErr=1.00D-07 EigMax=2.50D+02 EigMin=1.00D-04
 Number of steps in this run=      2 maximum allowed number of steps=      2.
 GradGradGradGradGradGradGradGradGradGradGradGradGradGradGradGradGradGrad

 Leave Link  103 at Fri Aug 21 09:48:02 2026, MaxMem=   104857600 cpu:               0.0 elap:               0.0
 (Enter /sw/cluster/pub/apps//g16/l202.exe)
                          Input orientation:                          
 ---------------------------------------------------------------------
 Center     Atomic      Atomic             Coordinates (Angstroms)
 Number     Number       Type             X           Y           Z
 ---------------------------------------------------------------------
      1          6           0       -1.270193   -0.578466   -0.000000
      2          6           0       -0.134130   -1.389253   -0.000000
      3          6           0        1.136063   -0.810788   -0.000000
      4          6           0        1.270193    0.578466   -0.000000
      5          6           0        0.134130    1.389253   -0.000000
      6          6           0       -1.136063    0.810788   -0.000000
      7          1           0       -2.259004   -1.028787   -0.000000
      8          1           0       -0.238549   -2.470750   -0.000000
      9          1           0        2.020456   -1.441966   -0.000000
     10          1           0        2.259004    1.028787   -0.000000
     11          1           0        0.238549    2.470750   -0.000000
     12          1           0       -2.020456    1.441966   -0.000000
 ---------------------------------------------------------------------
                    Distance matrix (angstroms):
                    1          2          3          4          5
     1  C    0.000000
     2  C    1.395713   0.000000
     3  C    2.417445   1.395713   0.000000
     4  C    2.791424   2.417445   1.395714   0.000000
     5  C    2.417445   2.791426   2.417447   1.395713   0.000000
     6  C    1.395714   2.417447   2.791427   2.417445   1.395713
     7  H    1.086526   2.155232   3.402059   3.877950   3.402060
     8  H    2.155232   1.086526   2.155234   3.402061   3.877952
     9  H    3.402059   2.155232   1.086525   2.155236   3.402062
    10  H    3.877950   3.402060   2.155234   1.086526   2.155232
    11  H    3.402061   3.877952   3.402061   2.155232   1.086526
    12  H    2.155236   3.402062   3.877952   3.402059   2.155232
                    6          7          8          9         10
     6  C    0.000000
     7  H    2.155234   0.000000
     8  H    3.402061   2.482236   0.000000
     9  H    3.877952   4.299361   2.482237   0.000000
    10  H    3.402059   4.964475   4.299364   2.482242   0.000000
    11  H    2.155234   4.299364   4.964478   4.299365   2.482236
    12  H    1.086525   2.482242   4.299365   4.964478   4.299361
                   11         12
    11  H    0.000000
    12  H    2.482237   0.000000
 Stoichiometry    C6H6
 Framework group  C2[X(C6H6)]
 Deg. of freedom    16
 Full point group                 C2      NOp   2
 RotChk:  IX=3 Diff= 3.89D-16
 Largest Abelian subgroup         C2      NOp   2
 Largest concise Abelian subgroup C2      NOp   2
                         Standard orientation:                         
 ---------------------------------------------------------------------
 Center     Atomic      Atomic             Coordinates (Angstroms)
 Number     Number       Type             X           Y           Z
 ---------------------------------------------------------------------
      1          6           0        1.208723   -0.697855   -0.000000
      2          6           0        1.208723    0.697857    0.000000
      3          6           0       -0.000000    1.395714    0.000000
      4          6           0       -1.208723    0.697855   -0.000000
      5          6           0       -1.208723   -0.697857    0.000000
      6          6           0        0.000000   -1.395714    0.000000
      7          1           0        2.149682   -1.241117   -0.000000
      8          1           0        2.149682    1.241120    0.000000
      9          1           0        0.000002    2.482239    0.000000
     10          1           0       -2.149682    1.241117   -0.000000
     11          1           0       -2.149682   -1.241120    0.000000
     12          1           0       -0.000002   -2.482239    0.000000
 ---------------------------------------------------------------------
 Rotational constants (GHZ):           5.6939233           5.6939126           2.8469590
 Leave Link  202 at Fri Aug 21 09:48:02 2026, MaxMem=   104857600 cpu:               0.0 elap:               0.0
 (Enter /sw/cluster/pub/apps//g16/l301.exe)
 Standard basis: 6-31G(d) (6D, 7F)
 Ernie: Thresh=  0.10000D-02 Tol=  0.10000D-05 Strict=F.
 There are    51 symmetry adapted cartesian basis functions of A   symmetry.
 There are    51 symmetry adapted cartesian basis functions of B   symmetry.
 There are    51 symmetry adapted basis functions of A   symmetry.
 There are    51 symmetry adapted basis functions of B   symmetry.
   102 basis functions,   192 primitive gaussians,   102 cartesian basis functions
    21 alpha electrons       21 beta electrons
       nuclear repulsion energy       203.3120776672 Hartrees.
 IExCor=  402 DFT=T Ex+Corr=B3LYP ExCW=0 ScaHFX=  0.200000
 ScaDFX=  0.800000  0.720000  1.000000  0.810000 ScalE2=  1.000000  1.000000
 IRadAn=      5 IRanWt=     -1 IRanGd=            0 ICorTp=0 IEmpDi=141
 NAtoms=   12 NActive=   12 NUniq=    6 SFac= 4.00D+00 NAtFMM=   60 NAOKFM=F Big=F
 Integral buffers will be    131072 words long.
 Raffenetti 2 integral format.
 Two-electron integral symmetry is turned on.
 R6Disp:  Grimme-D3(BJ) Dispersion energy=       -0.0189075675 Hartrees.
 Nuclear repulsion after empirical dispersion term =      203.2931700997 Hartrees.
 Leave Link  301 at Fri Aug 21 09:48:02 2026, MaxMem=   104857600 cpu:               0.0 elap:               0.0
 (Enter /sw/cluster/pub/apps//g16/l302.exe)
 NPDir=0 NMtPBC=     1 NCelOv=     1 NCel=       1 NClECP=     1 NCelD=      1
         NCelK=      1 NCelE2=     1 NClLst=     1 CellRange=     0.0.
 One-electron integrals computed using PRISM.
 One-electron integral symmetry used in STVInt
 NBasis=   102 RedAO= T EigKep=  5.18D-04  NBF=    51    51
 NBsUse=   102 1.00D-06 EigRej= -1.00D+00 NBFU=    51    51
 Precomputing XC quadrature grid using
 IXCGrd= 4 IRadAn=           5 IRanWt=          -1 IRanGd=           0 AccXCQ= 0.00D+00.
 Generated NRdTot=       0 NPtTot=           0 NUsed=           0 NTot=          32
 NSgBfM=   102   102   102   102   102 MxSgAt=    12 MxSgA2=    12.
 Leave Link  302 at Fri Aug 21 09:48:02 2026, MaxMem=   104857600 cpu:               0.1 elap:               0.1
 (Enter /sw/cluster/pub/apps//g16/l303.exe)
 DipDrv:  MaxL=1.
 Leave Link  303 at Fri Aug 21 09:48:02 2026, MaxMem=   104857600 cpu:               0.0 elap:               0.0
 (Enter /sw/cluster/pub/apps//g16/l401.exe)
 Initial guess from the checkpoint file:  "bz.chk"
 B after Tr=     0.000000    0.000000    0.000000
         Rot=    1.000000    0.000000    0.000000    0.000000 Ang=   0.00 deg.
 Guess basis will be translated and rotated to current coordinates.
 JPrj=2 DoOrth=T DoCkMO=T.
 Initial guess orbital symmetries:
       Occupied  (A) (B) (B) (A) (A) (B) (A) (B) (B) (A) (A) (A)
                 (B) (B) (B) (B) (A) (A) (A) (B) (B)
       Virtual   (A) (A) (A) (B) (B) (B) (A) (A) (B) (A) (A) (B)
                 (B) (B) (A) (B) (A) (A) (A) (B) (B) (A) (A) (B)
                 (B) (A) (A) (B) (A) (A) (B) (B) (B) (B) (B) (A)
                 (A) (A) (A) (B) (B) (B) (B) (A) (A) (A) (A) (A)
                 (B) (B) (A) (B) (A) (B) (B) (B) (A) (A) (A) (A)
                 (B) (B) (B) (B) (B) (A) (A) (A) (A) (A) (B) (B)
                 (B) (A) (B) (A) (B) (B) (A) (A) (B)
 The electronic state of the initial guess is 1-A.
 Leave Link  401 at Fri Aug 21 09:48:02 2026, MaxMem=   104857600 cpu:               0.0 elap:               0.0
 (Enter /sw/cluster/pub/apps//g16/l502.exe)
 Keep R1 ints in memory in symmetry-blocked form, NReq=20713737.
 FoFCou: FMM=F IPFlag=           0 FMFlag=           0 FMFlg1=           0
         NFxFlg=           0 DoJE=F BraDBF=F KetDBF=F FulRan=T
         wScrn=  0.000000 ICntrl=       600 IOpCl=  0 I1Cent=           0 NGrid=           0
         NMat0=    1 NMatS0=   5253 NMatT0=    0 NMatD0=    1 NMtDS0=    0 NMtDT0=    0
 Petite list used in FoFCou.
 Closed shell SCF:
 Using DIIS extrapolation, IDIIS=  1040.
 NGot=   104857600 LenX=    97921667 LenY=    97910822
 Requested convergence on RMS density matrix=1.00D-08 within 128 cycles.
 Requested convergence on MAX density matrix=1.00D-06.
 Requested convergence on             energy=1.00D-06.
 No special actions if energy rises.

 Cycle   1  Pass 1  IDiag  1:
 E= -232.267551649476    
 DIIS: error= 6.15D-08 at cycle   1 NSaved=   1.
 NSaved= 1 IEnMin= 1 EnMin= -232.267551649476     IErMin= 1 ErrMin= 6.15D-08
 ErrMax= 6.15D-08  0.00D+00 EMaxC= 1.00D-01 BMatC= 2.66D-13 BMatP= 2.66D-13
 IDIUse=1 WtCom= 1.00D+00 WtEn= 0.00D+00
 Coeff-Com:  0.100D+01
 Coeff:      0.100D+01
 Gap=     0.250 Goal=   None    Shift=    0.000
 RMSDP=1.08D-08 MaxDP=1.91D-07              OVMax= 4.22D-07

 Cycle   2  Pass 1  IDiag  1:
 E= -232.267551649477     Delta-E=       -0.000000000000 Rises=F Damp=F
 DIIS: error= 8.98D-08 at cycle   2 NSaved=   2.
 NSaved= 2 IEnMin= 2 EnMin= -232.267551649477     IErMin= 1 ErrMin= 6.15D-08
 ErrMax= 8.98D-08  0.00D+00 EMaxC= 1.00D-01 BMatC= 5.67D-13 BMatP= 2.66D-13
 IDIUse=1 WtCom= 1.00D+00 WtEn= 0.00D+00
 Coeff-Com:  0.593D+00 0.407D+00
 Coeff:      0.593D+00 0.407D+00
 Gap=     0.250 Goal=   None    Shift=    0.000
 RMSDP=6.38D-09 MaxDP=1.13D-07 DE=-3.98D-13 OVMax= 2.51D-07

 SCF Done:  E(RB3LYP) =  -232.267551649     A.U. after    2 cycles
            NFock=  2  Conv=0.64D-08     -V/T= 2.0101
 KE= 2.299434705606D+02 PE=-9.439760796646D+02 EE= 2.784718873548D+02
 Leave Link  502 at Fri Aug 21 09:48:03 2026, MaxMem=   104857600 cpu:               1.1 elap:               1.1
 (Enter /sw/cluster/pub/apps//g16/l801.exe)
 DoSCS=F DFT=T ScalE2(SS,OS)=  1.000000  1.000000
 Range of M.O.s used for correlation:     1   102
 NBasis=   102 NAE=    21 NBE=    21 NFC=     0 NFV=     0
 NROrb=    102 NOA=    21 NOB=    21 NVA=    81 NVB=    81

 **** Warning!!: The largest alpha MO coefficient is  0.10928864D+02

 Leave Link  801 at Fri Aug 21 09:48:03 2026, MaxMem=   104857600 cpu:               0.0 elap:               0.0
 (Enter /sw/cluster/pub/apps//g16/l1101.exe)
 Using compressed storage, NAtomX=    12.
 Will process     13 centers per pass.
 R6Disp: Adding Grimme-D3(BJ) dispersion energy 1st derivatives to the gradient.
 Leave Link 1101 at Fri Aug 21 09:48:04 2026, MaxMem=   104857600 cpu:               0.0 elap:               0.0
 (Enter /sw/cluster/pub/apps//g16/l1102.exe)
 Symmetrizing basis deriv contribution to polar:
 IMax=3 JMax=2 DiffMx= 0.00D+00
 Leave Link 1102 at Fri Aug 21 09:48:04 2026, MaxMem=   104857600 cpu:               0.0 elap:               0.0
 (Enter /sw/cluster/pub/apps//g16/l1110.exe)
 Forming Gx(P) for the SCF density, NAtomX=    12.
 Integral derivatives from FoFJK, PRISM(SPDF).
 Do as many integral derivatives as possible in FoFJK.
 G2DrvN: MDV=     104856624.
 G2DrvN: will do    13 centers at a time, making    1 passes.
 Calling FoFCou, ICntrl=  3107 FMM=F I1Cent=   0 AccDes= 0.00D+00.
 FoFJK:  IHMeth= 1 ICntrl=    3107 DoSepK=F KAlg= 0 I1Cent=           0 FoldK=F
 IRaf=         0 NMat=       1 IRICut=       1 DoRegI=T DoRafI=F ISym2E= 1 IDoP0=0 IntGTp=1.
 FoFCou: FMM=F IPFlag=           0 FMFlag=      100000 FMFlg1=           0
         NFxFlg=           0 DoJE=F BraDBF=F KetDBF=F FulRan=T
         wScrn=  0.000000 ICntrl=      3107 IOpCl=  0 I1Cent=           0 NGrid=           0
         NMat0=    1 NMatS0=      1 NMatT0=    0 NMatD0=    1 NMtDS0=    0 NMtDT0=    0
 Petite list used in FoFCou.
 End of G2Drv F.D. properties file   721 does not exist.
 End of G2Drv F.D. properties file   722 does not exist.
 End of G2Drv F.D. properties file   788 does not exist.
 Leave Link 1110 at Fri Aug 21 09:48:10 2026, MaxMem=   104857600 cpu:               6.8 elap:               6.9
 (Enter /sw/cluster/pub/apps//g16/l1002.exe)
 Minotr:  Closed shell wavefunction.
          IDoAtm=111111111111
          Direct CPHF calculation.
          Differentiating once with respect to electric field.
                with respect to dipole field.
          Differentiating once with respect to nuclear coordinates.
          Using symmetry in CPHF.
          Requested convergence is 1.0D-08 RMS, and 1.0D-07 maximum.
          Secondary convergence is 1.0D-12 RMS, and 1.0D-12 maximum.
          NewPWx=T KeepS1=F KeepF1=F KeepIn=T MapXYZ=F SortEE=F KeepMc=T.
         3535 words used for storage of precomputed grid.
 Keep R1 ints in memory in symmetry-blocked form, NReq=20718706.
 FoFCou: FMM=F IPFlag=           0 FMFlag=           0 FMFlg1=           0
         NFxFlg=           0 DoJE=F BraDBF=F KetDBF=F FulRan=T
         wScrn=  0.000000 ICntrl=       600 IOpCl=  0 I1Cent=           0 NGrid=           0
         NMat0=    1 NMatS0=   5253 NMatT0=    0 NMatD0=    1 NMtDS0=    0 NMtDT0=    0
 Petite list used in FoFCou.
          MDV=     104857600 using IRadAn=       1.
          Solving linear equations simultaneously, MaxMat=       0.
          There are    21 degrees of freedom in the 1st order CPHF.  IDoFFX=4 NUNeed=    21.
     21 vectors produced by pass  0 Test12= 8.10D-15 4.76D-09 XBig12= 8.59D+01 5.36D+00.
 AX will form    21 AO Fock derivatives at one time.
     21 vectors produced by pass  1 Test12= 8.10D-15 4.76D-09 XBig12= 1.99D+01 1.11D+00.
     21 vectors produced by pass  2 Test12= 8.10D-15 4.76D-09 XBig12= 8.27D-01 1.95D-01.
     21 vectors produced by pass  3 Test12= 8.10D-15 4.76D-09 XBig12= 1.12D-02 1.67D-02.
     21 vectors produced by pass  4 Test12= 8.10D-15 4.76D-09 XBig12= 4.40D-05 1.17D-03.
     20 vectors produced by pass  5 Test12= 8.10D-15 4.76D-09 XBig12= 6.43D-08 6.46D-05.
      7 vectors produced by pass  6 Test12= 8.10D-15 4.76D-09 XBig12= 6.95D-11 2.01D-06.
      2 vectors produced by pass  7 Test12= 8.10D-15 4.76D-09 XBig12= 1.06D-13 6.23D-08.
 InvSVY:  IOpt=1 It=  1 EMax= 5.33D-15
 Solved reduced A of dimension   134 with    21 vectors.
 FullF1:  Do perturbations      1 to      21.
 Isotropic polarizability for W=    0.000000       54.44 Bohr**3.
 End of Minotr F.D. properties file   721 does not exist.
 End of Minotr F.D. properties file   722 does not exist.
 End of Minotr F.D. properties file   788 does not exist.
 Leave Link 1002 at Fri Aug 21 09:48:21 2026, MaxMem=   104857600 cpu:              10.3 elap:              10.3
 (Enter /sw/cluster/pub/apps//g16/l601.exe)
 Copying SCF densities to generalized density rwf, IOpCl= 0 IROHF=0.

 **********************************************************************

            Population analysis using the SCF density.

 **********************************************************************

 Orbital symmetries:
       Occupied  (A) (B) (B) (A) (A) (B) (A) (B) (B) (A) (A) (A)
                 (B) (B) (B) (B) (A) (A) (A) (B) (B)
       Virtual   (A) (A) (A) (B) (B) (B) (A) (A) (B) (A) (A) (B)
                 (B) (B) (A) (B) (A) (A) (A) (B) (B) (A) (A) (B)
                 (B) (A) (A) (B) (A) (A) (B) (B) (B) (B) (B) (A)
                 (A) (A) (A) (B) (B) (B) (B) (A) (A) (A) (A) (A)
                 (B) (B) (A) (B) (A) (B) (B) (B) (A) (A) (A) (A)
                 (B) (B) (B) (B) (B) (A) (A) (A) (A) (A) (B) (B)
                 (B) (A) (B) (A) (B) (B) (A) (A) (B)
 The electronic state is 1-A.
 Alpha  occ. eigenvalues --  -10.18744 -10.18717 -10.18717 -10.18662 -10.18662
 Alpha  occ. eigenvalues --  -10.18635  -0.84676  -0.74006  -0.74006  -0.59763
 Alpha  occ. eigenvalues --   -0.59763  -0.51884  -0.45921  -0.43833  -0.41736
 Alpha  occ. eigenvalues --   -0.41736  -0.35968  -0.34026  -0.34026  -0.24639
 Alpha  occ. eigenvalues --   -0.24639
 Alpha virt. eigenvalues --    0.00383   0.00383   0.09085   0.14481   0.14481
 Alpha virt. eigenvalues --    0.16442   0.18213   0.18213   0.19059   0.30305
 Alpha virt. eigenvalues --    0.30305   0.31963   0.31963   0.47465   0.52729
 Alpha virt. eigenvalues --    0.55011   0.55056   0.56483   0.59251   0.60193
 Alpha virt. eigenvalues --    0.60193   0.60254   0.60254   0.62697   0.62697
 Alpha virt. eigenvalues --    0.66764   0.66764   0.74506   0.84029   0.84029
 Alpha virt. eigenvalues --    0.84169   0.86505   0.86505   0.93943   0.93944
 Alpha virt. eigenvalues --    0.94093   0.95875   1.08288   1.08288   1.14297
 Alpha virt. eigenvalues --    1.14297   1.20178   1.26191   1.39590   1.43702
 Alpha virt. eigenvalues --    1.43703   1.48729   1.48729   1.51551   1.51551
 Alpha virt. eigenvalues --    1.75708   1.79066   1.85799   1.89684   1.97447
 Alpha virt. eigenvalues --    1.97447   2.06750   2.06750   2.15231   2.15232
 Alpha virt. eigenvalues --    2.15575   2.15575   2.31041   2.31041   2.32285
 Alpha virt. eigenvalues --    2.54643   2.54643   2.65871   2.70748   2.70749
 Alpha virt. eigenvalues --    2.72297   2.72297   2.76071   3.01807   3.41322
 Alpha virt. eigenvalues --    4.08636   4.11810   4.11810   4.33065   4.33065
 Alpha virt. eigenvalues --    4.66681
          Condensed to atoms (all electrons):
               1          2          3          4          5          6
     1  C    4.848239   0.551861  -0.031917  -0.041106  -0.031917   0.551861
     2  C    0.551861   4.848238   0.551861  -0.031917  -0.041106  -0.031917
     3  C   -0.031917   0.551861   4.848237   0.551861  -0.031917  -0.041106
     4  C   -0.041106  -0.031917   0.551861   4.848239   0.551861  -0.031917
     5  C   -0.031917  -0.041106  -0.031917   0.551861   4.848238   0.551861
     6  C    0.551861  -0.031917  -0.041106  -0.031917   0.551861   4.848237
     7  H    0.358957  -0.043876   0.004809   0.000584   0.004809  -0.043876
     8  H   -0.043876   0.358957  -0.043876   0.004809   0.000584   0.004809
     9  H    0.004809  -0.043877   0.358956  -0.043876   0.004809   0.000584
    10  H    0.000584   0.004809  -0.043876   0.358957  -0.043876   0.004809
    11  H    0.004809   0.000584   0.004809  -0.043876   0.358957  -0.043876
    12  H   -0.043876   0.004809   0.000584   0.004809  -0.043877   0.358956
               7          8          9         10         11         12
     1  C    0.358957  -0.043876   0.004809   0.000584   0.004809  -0.043876
     2  C   -0.043876   0.358957  -0.043877   0.004809   0.000584   0.004809
     3  C    0.004809  -0.043876   0.358956  -0.043876   0.004809   0.000584
     4  C    0.000584   0.004809  -0.043876   0.358957  -0.043876   0.004809
     5  C    0.004809   0.000584   0.004809  -0.043876   0.358957  -0.043877
     6  C   -0.043876   0.004809   0.000584   0.004809  -0.043876   0.358956
     7  H    0.602339  -0.005911  -0.000183   0.000016  -0.000183  -0.005911
     8  H   -0.005911   0.602338  -0.005911  -0.000183   0.000016  -0.000183
     9  H   -0.000183  -0.005911   0.602340  -0.005911  -0.000183   0.000016
    10  H    0.000016  -0.000183  -0.005911   0.602339  -0.005911  -0.000183
    11  H   -0.000183   0.000016  -0.000183  -0.005911   0.602338  -0.005911
    12  H   -0.005911  -0.000183   0.000016  -0.000183  -0.005911   0.602340
 Mulliken charges:
               1
     1  C   -0.128429
     2  C   -0.128428
     3  C   -0.128427
     4  C   -0.128429
     5  C   -0.128428
     6  C   -0.128427
     7  H    0.128428
     8  H    0.128428
     9  H    0.128427
    10  H    0.128428
    11  H    0.128428
    12  H    0.128427
 Sum of Mulliken charges =  -0.00000
 Mulliken charges with hydrogens summed into heavy atoms:
               1
     1  C   -0.000001
     2  C   -0.000000
     3  C    0.000001
     4  C   -0.000001
     5  C   -0.000000
     6  C    0.000001
 APT charges:
               1
     1  C   -0.013563
     2  C   -0.013563
     3  C   -0.013567
     4  C   -0.013563
     5  C   -0.013563
     6  C   -0.013567
     7  H    0.013565
     8  H    0.013566
     9  H    0.013562
    10  H    0.013565
    11  H    0.013566
    12  H    0.013562
 Sum of APT charges =   0.00000
 APT charges with hydrogens summed into heavy atoms:
               1
     1  C    0.000002
     2  C    0.000003
     3  C   -0.000005
     4  C    0.000002
     5  C    0.000003
     6  C   -0.000005
 Electronic spatial extent (au):  <R**2>=            457.8400
 Charge=             -0.0000 electrons
 Dipole moment (field-independent basis, Debye):
    X=              0.0000    Y=              0.0000    Z=              0.0000  Tot=              0.0000
 Quadrupole moment (field-independent basis, Debye-Ang):
   XX=            -31.4065   YY=            -31.4065   ZZ=            -38.5859
   XY=              0.0000   XZ=             -0.0000   YZ=              0.0000
 Traceless Quadrupole moment (field-independent basis, Debye-Ang):
   XX=              2.3932   YY=              2.3931   ZZ=             -4.7863
   XY=              0.0000   XZ=             -0.0000   YZ=              0.0000
 Octapole moment (field-independent basis, Debye-Ang**2):
  XXX=              0.0000  YYY=              0.0000  ZZZ=              0.0000  XYY=              0.0000
  XXY=             -0.0000  XXZ=              0.0000  XZZ=             -0.0000  YZZ=             -0.0000
  YYZ=              0.0000  XYZ=              0.0000
 Hexadecapole moment (field-independent basis, Debye-Ang**3):
 XXXX=           -269.8871 YYYY=           -269.8874 ZZZZ=            -40.0252 XXXY=             -0.0001
 XXXZ=              0.0000 YYYX=             -0.0000 YYYZ=              0.0000 ZZZX=              0.0000
 ZZZY=             -0.0000 XXYY=            -89.9624 XXZZ=            -60.2906 YYZZ=            -60.2906
 XXYZ=              0.0000 YYXZ=              0.0000 ZZXY=             -0.0000
 N-N= 2.032931700997D+02 E-N=-9.439760795433D+02  KE= 2.299434705606D+02
 Symmetry A    KE= 1.134169964507D+02
 Symmetry B    KE= 1.165264741099D+02
  Exact polarizability:  71.189   0.000  71.190  -0.000  -0.000  20.954
 Approx polarizability: 118.182   0.000 118.182   0.000   0.000  31.030
 No NMR shielding tensors so no spin-rotation constants.
 Leave Link  601 at Fri Aug 21 09:48:21 2026, MaxMem=   104857600 cpu:               0.0 elap:               0.0
 (Enter /sw/cluster/pub/apps//g16/l701.exe)
 ... and contract with generalized density number  0.
 Compute integral second derivatives.
 R6Disp: Adding Grimme-D3(BJ) dispersion energy 2nd derivatives to the Hessian.
 Leave Link  701 at Fri Aug 21 09:48:21 2026, MaxMem=   104857600 cpu:               0.0 elap:               0.0
 (Enter /sw/cluster/pub/apps//g16/l702.exe)
 L702 exits ... SP integral derivatives will be done elsewhere.
 Leave Link  702 at Fri Aug 21 09:48:21 2026, MaxMem=   104857600 cpu:               0.0 elap:               0.0
 (Enter /sw/cluster/pub/apps//g16/l703.exe)
 Integral derivatives from FoFJK, PRISM(SPDF).
 Compute integral second derivatives, UseDBF=F ICtDFT=           0.
 Calling FoFJK, ICntrl=    100127 FMM=F ISym2X=1 I1Cent= 0 IOpClX= 0 NMat=1 NMatS=1 NMatT=0.
 FoFJK:  IHMeth= 1 ICntrl=  100127 DoSepK=F KAlg= 0 I1Cent=           0 FoldK=F
 IRaf=         0 NMat=       1 IRICut=       1 DoRegI=T DoRafI=F ISym2E= 1 IDoP0=0 IntGTp=1.
 FoFCou: FMM=F IPFlag=           0 FMFlag=      100000 FMFlg1=         800
         NFxFlg=           0 DoJE=F BraDBF=F KetDBF=F FulRan=T
         wScrn=  0.000000 ICntrl=    100127 IOpCl=  0 I1Cent=           0 NGrid=           0
         NMat0=    1 NMatS0=      1 NMatT0=    0 NMatD0=    1 NMtDS0=    0 NMtDT0=    0
 Petite list used in FoFCou.
 Leave Link  703 at Fri Aug 21 09:48:35 2026, MaxMem=   104857600 cpu:              14.6 elap:              14.6
 (Enter /sw/cluster/pub/apps//g16/l716.exe)
 Dipole        = 1.02489219D-14 5.69807771D-15 1.20200211D-07
 Polarizability= 7.11891205D+01 3.53511444D-05 7.11901954D+01
                -3.61143798D-11-4.69321034D-11 2.09544014D+01
 Full mass-weighted force constant matrix:
 Low frequencies ---  -18.1082  -16.6622  -16.5906   -0.0008   -0.0004    0.0005
 Low frequencies ---  413.9777  413.9831  623.1284
 Diagonal vibrational polarizability:
        0.2885646       0.2886044       4.3438759
 Harmonic frequencies (cm**-1), IR intensities (KM/Mole), Raman scattering
 activities (A**4/AMU), depolarization ratios for plane and unpolarized
 incident light, reduced masses (AMU), force constants (mDyne/A),
 and normal coordinates:
                      1                      2                      3
                      A                      A                      A
 Frequencies --    413.9777               413.9831               623.1284
 Red. masses --      2.9634                 2.9639                 6.0743
 Frc consts  --      0.2992                 0.2993                 1.3896
 IR Inten    --      0.0000                 0.0000                 0.0000
  Atom  AN      X      Y      Z        X      Y      Z        X      Y      Z
     1   6    -0.00  -0.00  -0.11    -0.00  -0.00   0.22    -0.22  -0.03  -0.00
     2   6    -0.00  -0.00  -0.14     0.00   0.00  -0.20    -0.23   0.02   0.00
     3   6    -0.00  -0.00   0.24     0.00   0.00  -0.02    -0.00   0.36   0.00
     4   6     0.00   0.00  -0.11     0.00   0.00   0.22     0.22   0.03  -0.00
     5   6     0.00   0.00  -0.14    -0.00  -0.00  -0.20     0.23  -0.02   0.00
     6   6     0.00   0.00   0.24    -0.00  -0.00  -0.02     0.00  -0.36   0.00
     7   1    -0.00   0.00  -0.23     0.00  -0.00   0.47    -0.05   0.26  -0.00
     8   1     0.00  -0.00  -0.30     0.00   0.00  -0.43    -0.06  -0.26  -0.00
     9   1    -0.00  -0.00   0.52     0.00   0.00  -0.04     0.00   0.36   0.00
    10   1     0.00  -0.00  -0.23    -0.00   0.00   0.47     0.05  -0.26  -0.00
    11   1    -0.00   0.00  -0.30    -0.00  -0.00  -0.43     0.06   0.26  -0.00
    12   1     0.00   0.00   0.52    -0.00  -0.00  -0.04    -0.00  -0.36   0.00
                      4                      5                      6
                      A                      A                      B
 Frequencies --    623.1484               692.5697               717.4987
 Red. masses --      6.0740                 1.0848                 3.9218
 Frc consts  --      1.3897                 0.3066                 1.1896
 IR Inten    --      0.0000                77.4232                 0.0000
  Atom  AN      X      Y      Z        X      Y      Z        X      Y      Z
     1   6     0.23  -0.22   0.00    -0.00   0.00  -0.03    -0.00   0.00   0.21
     2   6    -0.23  -0.22  -0.00     0.00   0.00  -0.03     0.00   0.00  -0.21
     3   6    -0.15  -0.00  -0.00     0.00   0.00  -0.03    -0.00  -0.00   0.21
     4   6    -0.23   0.22   0.00     0.00  -0.00  -0.03    -0.00   0.00  -0.21
     5   6     0.23   0.22  -0.00    -0.00  -0.00  -0.03     0.00   0.00   0.21
     6   6     0.15   0.00  -0.00    -0.00  -0.00  -0.03    -0.00  -0.00  -0.21
     7   1     0.33  -0.06   0.00     0.00  -0.00   0.41     0.00  -0.00   0.35
     8   1    -0.33  -0.06  -0.00    -0.00  -0.00   0.41     0.00   0.00  -0.35
     9   1     0.22  -0.00   0.00    -0.00  -0.00   0.41    -0.00  -0.00   0.35
    10   1    -0.33   0.06   0.00    -0.00   0.00   0.41     0.00  -0.00  -0.35
    11   1     0.33   0.06  -0.00     0.00   0.00   0.41     0.00   0.00   0.35
    12   1    -0.22   0.00   0.00     0.00   0.00   0.41    -0.00  -0.00  -0.35
                      7                      8                      9
                      B                      B                      A
 Frequencies --    863.3966               863.5243               968.4920
 Red. masses --      1.2477                 1.2477                 1.3548
 Frc consts  --      0.5480                 0.5482                 0.7487
 IR Inten    --      0.0000                 0.0000                 0.0000
  Atom  AN      X      Y      Z        X      Y      Z        X      Y      Z
     1   6    -0.00  -0.00   0.04    -0.00  -0.00  -0.07     0.00  -0.00   0.05
     2   6    -0.00   0.00  -0.04     0.00   0.00  -0.07     0.00   0.00   0.05
     3   6     0.00   0.00  -0.09     0.00   0.00   0.00     0.00   0.00  -0.10
     4   6    -0.00  -0.00  -0.04    -0.00  -0.00   0.07    -0.00   0.00   0.05
     5   6    -0.00   0.00   0.04     0.00   0.00   0.07    -0.00  -0.00   0.05
     6   6     0.00   0.00   0.09     0.00   0.00  -0.00    -0.00  -0.00  -0.10
     7   1    -0.00  -0.00  -0.29     0.00  -0.00   0.49     0.00   0.00  -0.28
     8   1    -0.00  -0.00   0.29    -0.00  -0.00   0.49     0.00   0.00  -0.28
     9   1    -0.00  -0.00   0.57     0.00   0.00  -0.00    -0.00  -0.00   0.57
    10   1    -0.00  -0.00   0.29     0.00  -0.00  -0.49    -0.00  -0.00  -0.28
    11   1    -0.00  -0.00  -0.29    -0.00  -0.00  -0.49    -0.00  -0.00  -0.28
    12   1    -0.00  -0.00  -0.57     0.00   0.00   0.00     0.00   0.00   0.57
                     10                     11                     12
                      A                      B                      B
 Frequencies --    968.5998              1010.5917              1021.9442
 Red. masses --      1.3547                 1.2186                 6.5537
 Frc consts  --      0.7488                 0.7333                 4.0326
 IR Inten    --      0.0000                 0.0000                 0.0000
  Atom  AN      X      Y      Z        X      Y      Z        X      Y      Z
     1   6     0.00  -0.00   0.09    -0.00   0.00   0.06     0.25  -0.14   0.00
     2   6     0.00   0.00  -0.09     0.00   0.00  -0.06    -0.25  -0.14  -0.00
     3   6     0.00   0.00   0.00    -0.00  -0.00   0.06     0.00   0.29   0.00
     4   6    -0.00   0.00   0.09    -0.00   0.00  -0.06     0.25  -0.14  -0.00
     5   6    -0.00  -0.00  -0.09     0.00   0.00   0.06    -0.25  -0.14   0.00
     6   6    -0.00  -0.00   0.00    -0.00  -0.00  -0.06     0.00   0.29  -0.00
     7   1     0.00  -0.00  -0.49    -0.00   0.00  -0.40     0.25  -0.14  -0.00
     8   1    -0.00  -0.00   0.49     0.00   0.00   0.40    -0.25  -0.14   0.00
     9   1     0.00   0.00  -0.00    -0.00  -0.00  -0.40     0.00   0.29  -0.00
    10   1    -0.00   0.00  -0.49    -0.00   0.00   0.40     0.25  -0.14   0.00
    11   1     0.00   0.00   0.49     0.00   0.00  -0.40    -0.25  -0.14  -0.00
    12   1    -0.00  -0.00  -0.00    -0.00  -0.00   0.40     0.00   0.29   0.00
                     13                     14                     15
                      A                      B                      B
 Frequencies --   1025.1554              1070.8935              1070.9314
 Red. masses --      6.0285                 1.6932                 1.6928
 Frc consts  --      3.7328                 1.1440                 1.1439
 IR Inten    --      0.0000                 3.3045                 3.3056
  Atom  AN      X      Y      Z        X      Y      Z        X      Y      Z
     1   6     0.24  -0.14  -0.00    -0.09  -0.03   0.00    -0.07   0.09   0.00
     2   6     0.24   0.14   0.00     0.09  -0.03   0.00    -0.07  -0.09  -0.00
     3   6     0.00   0.28   0.00     0.00   0.12   0.00     0.08  -0.00   0.00
     4   6    -0.24   0.14  -0.00    -0.09  -0.03  -0.00    -0.07   0.09  -0.00
     5   6    -0.24  -0.14   0.00     0.09  -0.03  -0.00    -0.07  -0.09   0.00
     6   6    -0.00  -0.28   0.00     0.00   0.12  -0.00     0.08  -0.00  -0.00
     7   1     0.26  -0.15   0.00    -0.29  -0.37  -0.00     0.05   0.30  -0.00
     8   1     0.26   0.15  -0.00     0.29  -0.38  -0.00     0.03  -0.28   0.00
     9   1     0.00   0.30  -0.00     0.01   0.13  -0.00     0.54  -0.00  -0.00
    10   1    -0.26   0.15   0.00    -0.29  -0.37   0.00     0.05   0.30   0.00
    11   1    -0.26  -0.15  -0.00     0.29  -0.38   0.00     0.03  -0.28  -0.00
    12   1    -0.00  -0.30  -0.00     0.01   0.13   0.00     0.54  -0.00   0.00
                     16                     17                     18
                      B                      A                      A
 Frequencies --   1187.0823              1209.1284              1209.1537
 Red. masses --      1.0748                 1.1353                 1.1354
 Frc consts  --      0.8924                 0.9780                 0.9780
 IR Inten    --      0.0000                 0.0000                 0.0000
  Atom  AN      X      Y      Z        X      Y      Z        X      Y      Z
     1   6    -0.02  -0.03  -0.00     0.01   0.03  -0.00    -0.03  -0.05  -0.00
     2   6    -0.02   0.03   0.00    -0.01   0.03   0.00    -0.03   0.05   0.00
     3   6     0.03  -0.00   0.00     0.06  -0.00   0.00     0.00   0.00   0.00
     4   6    -0.02  -0.03   0.00    -0.01  -0.03  -0.00     0.03   0.05  -0.00
     5   6    -0.02   0.03  -0.00     0.01  -0.03   0.00     0.03  -0.05   0.00
     6   6     0.03  -0.00  -0.00    -0.06   0.00   0.00    -0.00  -0.00   0.00
     7   1    -0.20  -0.35   0.00     0.14   0.26   0.00    -0.25  -0.43   0.00
     8   1    -0.20   0.35  -0.00    -0.14   0.24   0.00    -0.25   0.43   0.00
     9   1     0.41  -0.00  -0.00     0.57  -0.00   0.00     0.01   0.00   0.00
    10   1    -0.20  -0.35  -0.00    -0.14  -0.26   0.00     0.25   0.43   0.00
    11   1    -0.20   0.35   0.00     0.14  -0.24   0.00     0.25  -0.43   0.00
    12   1     0.41  -0.00   0.00    -0.57   0.00   0.00    -0.01  -0.00   0.00
                     19                     20                     21
                      B                      A                      B
 Frequencies --   1360.9942              1387.3233              1533.0676
 Red. masses --      6.8885                 1.2477                 2.0265
 Frc consts  --      7.5178                 1.4149                 2.8062
 IR Inten    --      0.0000                 0.0000                 6.5203
  Atom  AN      X      Y      Z        X      Y      Z        X      Y      Z
     1   6    -0.15  -0.26  -0.00     0.03   0.05   0.00    -0.11  -0.09   0.00
     2   6    -0.15   0.26   0.00    -0.03   0.05   0.00     0.10  -0.09  -0.00
     3   6     0.30   0.00   0.00    -0.06  -0.00  -0.00     0.00   0.09   0.00
     4   6    -0.15  -0.26   0.00    -0.03  -0.05   0.00    -0.11  -0.09  -0.00
     5   6    -0.15   0.26  -0.00     0.03  -0.05   0.00     0.10  -0.09   0.00
     6   6     0.30   0.00  -0.00     0.06   0.00  -0.00     0.00   0.09  -0.00
     7   1     0.14   0.24   0.00    -0.20  -0.35  -0.00     0.18   0.43  -0.00
     8   1     0.14  -0.24  -0.00     0.20  -0.35  -0.00    -0.19   0.43   0.00
     9   1    -0.28   0.00  -0.00     0.40  -0.00   0.00    -0.01   0.11   0.00
    10   1     0.14   0.24  -0.00     0.20   0.35  -0.00     0.18   0.43   0.00
    11   1     0.14  -0.24   0.00    -0.20   0.35  -0.00    -0.19   0.43  -0.00
    12   1    -0.28   0.00   0.00    -0.40   0.00   0.00    -0.01   0.11  -0.00
                     22                     23                     24
                      B                      A                      A
 Frequencies --   1533.0882              1659.3010              1659.3071
 Red. masses --      2.0270                 5.3708                 5.3718
 Frc consts  --      2.8069                 8.7124                 8.7141
 IR Inten    --      6.5173                 0.0000                 0.0000
  Atom  AN      X      Y      Z        X      Y      Z        X      Y      Z
     1   6     0.03  -0.11  -0.00     0.10   0.29   0.00     0.18   0.04  -0.00
     2   6     0.03   0.10   0.00     0.05  -0.27  -0.00    -0.20   0.11  -0.00
     3   6    -0.15   0.00  -0.00     0.04   0.15   0.00     0.33  -0.02   0.00
     4   6     0.03  -0.11   0.00    -0.10  -0.29   0.00    -0.18  -0.04  -0.00
     5   6     0.03   0.10  -0.00    -0.05   0.27  -0.00     0.20  -0.11  -0.00
     6   6    -0.15   0.00   0.00    -0.04  -0.15   0.00    -0.33   0.02   0.00
     7   1     0.22   0.19   0.00    -0.25  -0.30  -0.00     0.05  -0.22   0.00
     8   1     0.22  -0.18  -0.00    -0.25   0.24   0.00     0.01  -0.28  -0.00
     9   1     0.54   0.00   0.00    -0.05   0.17  -0.00    -0.41  -0.02  -0.00
    10   1     0.22   0.19  -0.00     0.25   0.30  -0.00    -0.05   0.22   0.00
    11   1     0.22  -0.18   0.00     0.25  -0.24   0.00    -0.01   0.28  -0.00
    12   1     0.54   0.00  -0.00     0.05  -0.17  -0.00     0.41   0.02  -0.00
                     25                     26                     27
                      B                      A                      A
 Frequencies --   3177.6048              3187.2770              3187.3325
 Red. masses --      1.0834                 1.0875                 1.0875
 Frc consts  --      6.4455                 6.5090                 6.5093
 IR Inten    --      0.0001                 0.0000                 0.0000
  Atom  AN      X      Y      Z        X      Y      Z        X      Y      Z
     1   6    -0.03   0.02   0.00     0.02  -0.01  -0.00    -0.04   0.02   0.00
     2   6     0.03   0.02   0.00     0.02   0.01   0.00     0.04   0.02   0.00
     3   6    -0.00  -0.03  -0.00    -0.00  -0.05  -0.00    -0.00   0.00   0.00
     4   6    -0.03   0.02  -0.00    -0.02   0.01  -0.00     0.04  -0.02   0.00
     5   6     0.03   0.02  -0.00    -0.02  -0.01   0.00    -0.04  -0.02   0.00
     6   6    -0.00  -0.03   0.00     0.00   0.05  -0.00     0.00  -0.00   0.00
     7   1     0.35  -0.20  -0.00    -0.25   0.14   0.00     0.43  -0.25  -0.00
     8   1    -0.35  -0.20  -0.00    -0.25  -0.15  -0.00    -0.43  -0.25  -0.00
     9   1     0.00   0.41   0.00     0.00   0.58   0.00     0.00  -0.00  -0.00
    10   1     0.35  -0.20   0.00     0.25  -0.14   0.00    -0.43   0.25  -0.00
    11   1    -0.35  -0.20   0.00     0.25   0.15  -0.00     0.43   0.25  -0.00
    12   1     0.00   0.41  -0.00    -0.00  -0.58   0.00    -0.00   0.00  -0.00
                     28                     29                     30
                      B                      B                      A
 Frequencies --   3203.0683              3203.1281              3213.8091
 Red. masses --      1.0949                 1.0949                 1.0993
 Frc consts  --      6.6186                 6.6188                 6.6896
 IR Inten    --     52.0019                51.9950                 0.0000
  Atom  AN      X      Y      Z        X      Y      Z        X      Y      Z
     1   6     0.02  -0.01  -0.00    -0.04   0.02   0.00    -0.03   0.02   0.00
     2   6    -0.02  -0.01  -0.00    -0.04  -0.02  -0.00    -0.03  -0.02  -0.00
     3   6     0.00  -0.05  -0.00     0.00   0.00   0.00    -0.00  -0.04  -0.00
     4   6     0.02  -0.01   0.00    -0.04   0.02  -0.00     0.03  -0.02   0.00
     5   6    -0.02  -0.01   0.00    -0.04  -0.02   0.00     0.03   0.02  -0.00
     6   6     0.00  -0.05   0.00     0.00   0.00  -0.00     0.00   0.04  -0.00
     7   1    -0.25   0.14   0.00     0.43  -0.25  -0.00     0.35  -0.20  -0.00
     8   1     0.25   0.14   0.00     0.43   0.25   0.00     0.35   0.20   0.00
     9   1    -0.00   0.57   0.00    -0.00  -0.00   0.00     0.00   0.41   0.00
    10   1    -0.25   0.14  -0.00     0.43  -0.25   0.00    -0.35   0.20  -0.00
    11   1     0.25   0.14  -0.00     0.43   0.25  -0.00    -0.35  -0.20   0.00
    12   1    -0.00   0.57  -0.00    -0.00  -0.00  -0.00    -0.00  -0.41   0.00

 -------------------
 - Thermochemistry -
 -------------------
 Temperature   298.150 Kelvin.  Pressure   1.00000 Atm.
 Atom     1 has atomic number  6 and mass  12.00000
 Atom     2 has atomic number  6 and mass  12.00000
 Atom     3 has atomic number  6 and mass  12.00000
 Atom     4 has atomic number  6 and mass  12.00000
 Atom     5 has atomic number  6 and mass  12.00000
 Atom     6 has atomic number  6 and mass  12.00000
 Atom     7 has atomic number  1 and mass   1.00783
 Atom     8 has atomic number  1 and mass   1.00783
 Atom     9 has atomic number  1 and mass   1.00783
 Atom    10 has atomic number  1 and mass   1.00783
 Atom    11 has atomic number  1 and mass   1.00783
 Atom    12 has atomic number  1 and mass   1.00783
 Molecular mass:    78.04695 amu.
 Principal axes and moments of inertia in atomic units:
                           1         2         3
     Eigenvalues --   316.95917 316.95977 633.91894
           X            0.60958   0.79272   0.00000
           Y            0.79272  -0.60958   0.00000
           Z           -0.00000   0.00000   1.00000
 This molecule is an asymmetric top.
 Rotational symmetry number  2.
 Rotational temperatures (Kelvin)      0.27327     0.27326     0.13663
 Rotational constants (GHZ):           5.69392     5.69391     2.84696
 Zero-point vibrational energy     264724.6 (Joules/Mol)
                                   63.27070 (Kcal/Mol)
 Warning -- explicit consideration of   2 degrees of freedom as
           vibrations may cause significant error
 Vibrational temperatures:    595.62   595.63   896.54   896.57   996.45
          (Kelvin)           1032.32  1242.24  1242.42  1393.44  1393.60
                             1454.02  1470.35  1474.97  1540.78  1540.83
                             1707.95  1739.67  1739.70  1958.17  1996.05
                             2205.74  2205.77  2387.36  2387.37  4571.86
                             4585.78  4585.86  4608.50  4608.59  4623.95
 
 Zero-point correction=                           0.100828 (Hartree/Particle)
 Thermal correction to Energy=                    0.105215
 Thermal correction to Enthalpy=                  0.106160
 Thermal correction to Gibbs Free Energy=         0.074022
 Sum of electronic and zero-point Energies=           -232.166723
 Sum of electronic and thermal Energies=              -232.162336
 Sum of electronic and thermal Enthalpies=            -232.161392
 Sum of electronic and thermal Free Energies=         -232.193530
 
                     E (Thermal)             CV                S
                      KCal/Mol        Cal/Mol-Kelvin    Cal/Mol-Kelvin
 Total                   66.024             17.120             67.640
 Electronic               0.000              0.000              0.000
 Translational            0.889              2.981             38.979
 Rotational               0.889              2.981             24.280
 Vibrational             64.246             11.158              4.380
 Vibration     1          0.778              1.440              0.913
 Vibration     2          0.778              1.440              0.913
                       Q            Log10(Q)             Ln(Q)
 Total Bot       0.896120D-34        -34.047634        -78.397574
 Total V=0       0.213853D+13         12.330116         28.391141
 Vib (Bot)       0.732052D-46        -46.135458       -106.230817
 Vib (Bot)    1  0.426095D+00         -0.370493         -0.853092
 Vib (Bot)    2  0.426088D+00         -0.370501         -0.853109
 Vib (V=0)       0.174700D+01          0.242292          0.557898
 Vib (V=0)    1  0.115693D+01          0.063307          0.145770
 Vib (V=0)    2  0.115693D+01          0.063305          0.145766
 Electronic      0.100000D+01          0.000000          0.000000
 Translational   0.271012D+08          7.432988         17.115087
 Rotational      0.451686D+05          4.654836         10.718156
 
                                                    OPT F1 - dispersion correctio
 n
                                                             IR Spectrum
 
    3333                                                           1    1     11     11   1111                                       
    2211                                                           6    5     33     21   00009   8     76  6       4                
    1087                                                           5    3     86     08   72216   6     19  2       1                
    4378                                                           9    3     71     97   15218   3     73  3       4                
 
     X                                                                  X                 X              X                           
     X                                                                  X                                X                           
     X                                                                  X                                X                           
     X                                                                                                   X                           
     X                                                                                                   X                           
     X                                                                                                   X                           
     X                                                                                                   X                           
     X                                                                                                   X                           
     X                                                                                                   X                           
     X                                                                                                   X                           
     X                                                                                                   X                           
     X                                                                                                   X                           
     X                                                                                                   X                           
     X                                                                                                   X                           
     X                                                                                                   X                           
     X                                                                                                                               
     X                                                                                                                               
     X                                                                                                                               
     X                                                                                                                               
     X                                                                                                                               
 
 ***** Axes restored to original set *****
 -------------------------------------------------------------------
 Center     Atomic                   Forces (Hartrees/Bohr)
 Number     Number              X              Y              Z
 -------------------------------------------------------------------
      1        6          -0.000237456   -0.000107056   -0.000000002
      2        6          -0.000024866   -0.000258960    0.000000006
      3        6           0.000211234   -0.000150460    0.000000006
      4        6           0.000237456    0.000107056   -0.000000002
      5        6           0.000024866    0.000258960    0.000000006
      6        6          -0.000211234    0.000150460    0.000000006
      7        1          -0.000069838   -0.000031564    0.000000004
      8        1          -0.000007163   -0.000076203   -0.000000006
      9        1           0.000062657   -0.000044263   -0.000000006
     10        1           0.000069838    0.000031564    0.000000004
     11        1           0.000007163    0.000076203   -0.000000006
     12        1          -0.000062657    0.000044263   -0.000000006
 -------------------------------------------------------------------
 Cartesian Forces:  Max     0.000258960 RMS     0.000110655
 Force constants in Cartesian coordinates: 
                1             2             3             4             5 
      1  0.734543D+00
      2  0.263970D-01  0.688577D+00
      3  0.000000D+00  0.000000D+00  0.131069D+00
      4 -0.271041D+00  0.674257D-01  0.000000D+00  0.677207D+00
      5  0.134251D+00 -0.201715D+00  0.000000D+00  0.668792D-02  0.745916D+00
      6  0.000000D+00  0.000000D+00 -0.607556D-01  0.000000D+00  0.000000D+00
      7 -0.570532D-01  0.367602D-01  0.000000D+00 -0.306372D+00 -0.113856D+00
      8 -0.130260D-01  0.648254D-01  0.000000D+00 -0.470267D-01 -0.166410D+00
      9  0.000000D+00  0.000000D+00  0.799006D-02  0.000000D+00  0.000000D+00
     10 -0.131779D-01  0.257436D-01  0.000000D+00  0.240761D-01 -0.338091D-01
     11  0.257436D-01 -0.579652D-01  0.000000D+00 -0.836007D-01 -0.162837D-01
     12  0.000000D+00  0.000000D+00 -0.866694D-02  0.000000D+00  0.000000D+00
     13  0.240761D-01 -0.836007D-01  0.000000D+00 -0.690606D-01  0.653381D-02
     14 -0.338091D-01 -0.162837D-01  0.000000D+00  0.653381D-02 -0.208237D-02
     15  0.000000D+00  0.000000D+00  0.799507D-02  0.000000D+00  0.000000D+00
     16 -0.131742D+00  0.130030D-01  0.000000D+00  0.446491D-01  0.219342D-01
     17 -0.538260D-01 -0.341038D+00  0.000000D+00  0.717205D-01 -0.368767D-01
     18  0.000000D+00  0.000000D+00 -0.607525D-01  0.000000D+00  0.000000D+00
     19 -0.290705D+00 -0.104814D+00  0.000000D+00 -0.191208D-01 -0.135721D-01
     20 -0.104814D+00 -0.108284D+00  0.000000D+00  0.182261D-01  0.120017D-01
     21  0.000000D+00  0.000000D+00 -0.355847D-01  0.000000D+00  0.000000D+00
     22  0.728199D-02  0.273020D-01  0.000000D+00 -0.631167D-01 -0.265808D-01
     23 -0.449607D-02 -0.144010D-01  0.000000D+00 -0.265805D-01 -0.335872D+00
     24  0.000000D+00  0.000000D+00  0.242008D-02  0.000000D+00  0.000000D+00
     25 -0.357778D-02 -0.417793D-02  0.000000D+00 -0.188567D-01  0.195860D-01
     26 -0.274814D-02 -0.526502D-03  0.000000D+00 -0.122119D-01  0.117365D-01
     27  0.000000D+00  0.000000D+00  0.704913D-02  0.000000D+00  0.000000D+00
     28  0.429829D-03  0.821840D-03  0.000000D+00  0.170983D-02 -0.304820D-03
     29  0.821546D-03 -0.999997D-03  0.000000D+00  0.112525D-02 -0.581420D-02
     30  0.000000D+00  0.000000D+00 -0.233215D-03  0.000000D+00  0.000000D+00
     31 -0.527129D-02 -0.127452D-02  0.000000D+00 -0.135411D-02  0.208310D-03
     32 -0.270460D-02  0.116693D-02  0.000000D+00  0.208608D-03  0.783939D-03
     33  0.000000D+00  0.000000D+00  0.704919D-02  0.000000D+00  0.000000D+00
     34  0.623656D-02 -0.358612D-02  0.000000D+00  0.128028D-02 -0.107820D-02
     35  0.282116D-01 -0.133565D-01  0.000000D+00 -0.250798D-02 -0.538453D-02
     36  0.000000D+00  0.000000D+00  0.242006D-02  0.000000D+00  0.000000D+00
                6             7             8             9            10 
      6  0.131069D+00
      7  0.000000D+00  0.722938D+00
      8  0.000000D+00 -0.330490D-01  0.700216D+00
      9 -0.607524D-01  0.000000D+00  0.000000D+00  0.131058D+00
     10  0.000000D+00 -0.131742D+00 -0.538260D-01  0.000000D+00  0.734543D+00
     11  0.000000D+00  0.130030D-01 -0.341038D+00  0.000000D+00  0.263970D-01
     12  0.799507D-02  0.000000D+00  0.000000D+00 -0.607525D-01  0.000000D+00
     13  0.000000D+00  0.446491D-01  0.717205D-01  0.000000D+00 -0.271041D+00
     14  0.000000D+00  0.219342D-01 -0.368767D-01  0.000000D+00  0.134251D+00
     15 -0.866699D-02  0.000000D+00  0.000000D+00  0.798999D-02  0.000000D+00
     16  0.000000D+00 -0.244892D-01 -0.322584D-01  0.000000D+00 -0.570532D-01
     17  0.000000D+00 -0.322584D-01 -0.466671D-01  0.000000D+00 -0.130260D-01
     18  0.798999D-02  0.000000D+00  0.000000D+00 -0.866302D-02  0.000000D+00
     19  0.000000D+00 -0.216527D-02  0.449737D-02  0.000000D+00  0.429829D-03
     20  0.000000D+00  0.306772D-02 -0.193895D-02  0.000000D+00  0.821546D-03
     21  0.242010D-02  0.000000D+00  0.000000D+00  0.704886D-02  0.000000D+00
     22  0.000000D+00  0.220570D-02 -0.305391D-01  0.000000D+00 -0.527129D-02
     23  0.000000D+00  0.125877D-02 -0.932512D-02  0.000000D+00 -0.270460D-02
     24 -0.355847D-01  0.000000D+00  0.000000D+00  0.241917D-02  0.000000D+00
     25  0.000000D+00 -0.244647D+00  0.131392D+00  0.000000D+00  0.623656D-02
     26  0.000000D+00  0.131392D+00 -0.154316D+00  0.000000D+00  0.282116D-01
     27  0.242019D-02  0.000000D+00  0.000000D+00 -0.355731D-01  0.000000D+00
     28  0.000000D+00  0.894950D-03  0.808171D-03  0.000000D+00 -0.290705D+00
     29  0.000000D+00 -0.309897D-01 -0.801437D-02  0.000000D+00 -0.104814D+00
     30  0.704920D-02  0.000000D+00  0.000000D+00  0.241916D-02  0.000000D+00
     31  0.000000D+00 -0.428856D-02  0.233783D-02  0.000000D+00  0.728199D-02
     32  0.000000D+00  0.376747D-02  0.184353D-03  0.000000D+00 -0.449607D-02
     33 -0.233212D-03  0.000000D+00  0.000000D+00  0.704885D-02  0.000000D+00
     34  0.000000D+00  0.692728D-04 -0.103009D-02  0.000000D+00 -0.357778D-02
     35  0.000000D+00 -0.103008D-02 -0.638905D-03  0.000000D+00 -0.274814D-02
     36  0.704913D-02  0.000000D+00  0.000000D+00 -0.233456D-03  0.000000D+00
               11            12            13            14            15 
     11  0.688577D+00
     12  0.000000D+00  0.131069D+00
     13  0.674257D-01  0.000000D+00  0.677207D+00
     14 -0.201715D+00  0.000000D+00  0.668792D-02  0.745916D+00
     15  0.000000D+00 -0.607556D-01  0.000000D+00  0.000000D+00  0.131069D+00
     16  0.367602D-01  0.000000D+00 -0.306372D+00 -0.113856D+00  0.000000D+00
     17  0.648254D-01  0.000000D+00 -0.470267D-01 -0.166410D+00  0.000000D+00
     18  0.000000D+00  0.799006D-02  0.000000D+00  0.000000D+00 -0.607524D-01
     19  0.821840D-03  0.000000D+00  0.170983D-02 -0.304820D-03  0.000000D+00
     20 -0.999997D-03  0.000000D+00  0.112525D-02 -0.581420D-02  0.000000D+00
     21  0.000000D+00 -0.233215D-03  0.000000D+00  0.000000D+00  0.704920D-02
     22 -0.127452D-02  0.000000D+00 -0.135411D-02  0.208310D-03  0.000000D+00
     23  0.116693D-02  0.000000D+00  0.208608D-03  0.783939D-03  0.000000D+00
     24  0.000000D+00  0.704919D-02  0.000000D+00  0.000000D+00 -0.233212D-03
     25 -0.358612D-02  0.000000D+00  0.128028D-02 -0.107820D-02  0.000000D+00
     26 -0.133565D-01  0.000000D+00 -0.250798D-02 -0.538453D-02  0.000000D+00
     27  0.000000D+00  0.242006D-02  0.000000D+00  0.000000D+00  0.704913D-02
     28 -0.104814D+00  0.000000D+00 -0.191208D-01 -0.135721D-01  0.000000D+00
     29 -0.108284D+00  0.000000D+00  0.182261D-01  0.120017D-01  0.000000D+00
     30  0.000000D+00 -0.355847D-01  0.000000D+00  0.000000D+00  0.242010D-02
     31  0.273020D-01  0.000000D+00 -0.631167D-01 -0.265808D-01  0.000000D+00
     32 -0.144010D-01  0.000000D+00 -0.265805D-01 -0.335872D+00  0.000000D+00
     33  0.000000D+00  0.242008D-02  0.000000D+00  0.000000D+00 -0.355847D-01
     34 -0.417793D-02  0.000000D+00 -0.188567D-01  0.195860D-01  0.000000D+00
     35 -0.526502D-03  0.000000D+00 -0.122119D-01  0.117365D-01  0.000000D+00
     36  0.000000D+00  0.704913D-02  0.000000D+00  0.000000D+00  0.242019D-02
               16            17            18            19            20 
     16  0.722938D+00
     17 -0.330490D-01  0.700216D+00
     18  0.000000D+00  0.000000D+00  0.131058D+00
     19  0.894950D-03  0.808171D-03  0.000000D+00  0.308258D+00
     20 -0.309897D-01 -0.801437D-02  0.000000D+00  0.113383D+00  0.110925D+00
     21  0.000000D+00  0.000000D+00  0.241916D-02  0.000000D+00  0.000000D+00
     22 -0.428856D-02  0.233783D-02  0.000000D+00  0.100035D-02 -0.467598D-03
     23  0.376747D-02  0.184353D-03  0.000000D+00  0.278223D-03  0.935253D-03
     24  0.000000D+00  0.000000D+00  0.704885D-02  0.000000D+00  0.000000D+00
     25  0.692728D-04 -0.103009D-02  0.000000D+00 -0.110379D-02  0.103568D-02
     26 -0.103008D-02 -0.638905D-03  0.000000D+00 -0.725090D-03  0.489963D-03
     27  0.000000D+00  0.000000D+00 -0.233456D-03  0.000000D+00  0.000000D+00
     28 -0.216527D-02  0.449737D-02  0.000000D+00 -0.250929D-04 -0.131757D-03
     29  0.306772D-02 -0.193895D-02  0.000000D+00 -0.131757D-03  0.204191D-03
     30  0.000000D+00  0.000000D+00  0.704886D-02  0.000000D+00  0.000000D+00
     31  0.220570D-02 -0.305391D-01  0.000000D+00 -0.429635D-04 -0.164812D-02
     32  0.125877D-02 -0.932512D-02  0.000000D+00  0.112693D-03 -0.570772D-03
     33  0.000000D+00  0.000000D+00  0.241917D-02  0.000000D+00  0.000000D+00
     34 -0.244647D+00  0.131392D+00  0.000000D+00  0.869527D-03  0.392085D-03
     35  0.131392D+00 -0.154316D+00  0.000000D+00 -0.353733D-03  0.106652D-02
     36  0.000000D+00  0.000000D+00 -0.355731D-01  0.000000D+00  0.000000D+00
               21            22            23            24            25 
     21  0.253896D-01
     22  0.000000D+00  0.620647D-01
     23  0.000000D+00  0.287540D-01  0.357118D+00
     24 -0.392778D-02  0.000000D+00  0.000000D+00  0.253897D-01
     25  0.000000D+00  0.103391D-02 -0.297225D-03  0.000000D+00  0.258437D+00
     26  0.000000D+00  0.448564D-03  0.902143D-03  0.000000D+00 -0.142133D+00
     27  0.352253D-03  0.000000D+00  0.000000D+00 -0.392798D-02  0.000000D+00
     28  0.000000D+00 -0.429635D-04  0.112693D-03  0.000000D+00  0.869527D-03
     29  0.000000D+00 -0.164812D-02 -0.570772D-03  0.000000D+00  0.392085D-03
     30 -0.135779D-02  0.000000D+00  0.000000D+00  0.352247D-03  0.000000D+00
     31  0.000000D+00  0.260972D-03 -0.334223D-04  0.000000D+00  0.226065D-03
     32  0.000000D+00 -0.334223D-04 -0.818728D-04  0.000000D+00 -0.267957D-03
     33  0.352247D-03  0.000000D+00  0.000000D+00 -0.135780D-02  0.000000D+00
     34  0.000000D+00  0.226065D-03 -0.267957D-03  0.000000D+00  0.327290D-04
     35  0.000000D+00  0.149281D-02 -0.839873D-03  0.000000D+00  0.165209D-03
     36 -0.392798D-02  0.000000D+00  0.000000D+00  0.352261D-03  0.000000D+00
               26            27            28            29            30 
     26  0.160721D+00
     27  0.000000D+00  0.253774D-01
     28 -0.353733D-03  0.000000D+00  0.308258D+00
     29  0.106652D-02  0.000000D+00  0.113383D+00  0.110925D+00
     30  0.000000D+00 -0.392798D-02  0.000000D+00  0.000000D+00  0.253896D-01
     31  0.149281D-02  0.000000D+00  0.100035D-02 -0.467598D-03  0.000000D+00
     32 -0.839873D-03  0.000000D+00  0.278223D-03  0.935253D-03  0.000000D+00
     33  0.000000D+00  0.352261D-03  0.000000D+00  0.000000D+00 -0.392778D-02
     34  0.165209D-03  0.000000D+00 -0.110379D-02  0.103568D-02  0.000000D+00
     35  0.146310D-03  0.000000D+00 -0.725090D-03  0.489963D-03  0.000000D+00
     36  0.000000D+00 -0.135786D-02  0.000000D+00  0.000000D+00  0.352253D-03
               31            32            33            34            35 
     31  0.620647D-01
     32  0.287540D-01  0.357118D+00
     33  0.000000D+00  0.000000D+00  0.253897D-01
     34  0.103391D-02 -0.297225D-03  0.000000D+00  0.258437D+00
     35  0.448564D-03  0.902143D-03  0.000000D+00 -0.142133D+00  0.160721D+00
     36  0.000000D+00  0.000000D+00 -0.392798D-02  0.000000D+00  0.000000D+00
               36 
     36  0.253774D-01
 FormGI is forming the generalized inverse of G from B-inverse, IUseBI=4.
 Leave Link  716 at Fri Aug 21 09:48:36 2026, MaxMem=   104857600 cpu:               0.0 elap:               0.0
 (Enter /sw/cluster/pub/apps//g16/l103.exe)

 GradGradGradGradGradGradGradGradGradGradGradGradGradGradGradGradGradGrad
 Berny optimization.
 Red2BG is reusing G-inverse.
 Internal  Forces:  Max     0.000337143 RMS     0.000115077
 Search for a local minimum.
 Step number   1 out of a maximum of    2
 All quantities printed in internal units (Hartrees-Bohrs-Radians)
 Second derivative matrix not updated -- analytic derivatives used.
 ITU=  0
     Eigenvalues ---    0.01711   0.01711   0.01815   0.02371   0.02371
     Eigenvalues ---    0.02674   0.02811   0.02811   0.02883   0.10930
     Eigenvalues ---    0.11471   0.11471   0.12231   0.12926   0.12926
     Eigenvalues ---    0.19455   0.19628   0.19629   0.29083   0.35775
     Eigenvalues ---    0.35776   0.36104   0.36112   0.36113   0.36309
     Eigenvalues ---    0.42163   0.42169   0.47808   0.47811   0.52073
 Angle between quadratic step and forces=   3.83 degrees.
 Linear search not attempted -- first point.
 Iteration  1 RMS(Cart)=  0.00035155 RMS(Int)=  0.00000000
 Iteration  2 RMS(Cart)=  0.00000000 RMS(Int)=  0.00000000
 ITry= 1 IFail=0 DXMaxC= 8.32D-04 DCOld= 1.00D+10 DXMaxT= 3.00D-01 DXLimC= 3.00D+00 Rises=F
 ClnCor:  largest displacement from symmetrization is 2.21D-10 for atom     6.
 Variable       Old X    -DE/DX   Delta X   Delta X   Delta X     New X
                                 (Linear)    (Quad)   (Total)
    R1        2.63751   0.00034   0.00000   0.00064   0.00064   2.63816
    R2        2.63752   0.00034   0.00000   0.00064   0.00064   2.63816
    R3        2.05324   0.00008   0.00000   0.00019   0.00019   2.05343
    R4        2.63751   0.00034   0.00000   0.00064   0.00064   2.63816
    R5        2.05324   0.00008   0.00000   0.00019   0.00019   2.05343
    R6        2.63752   0.00034   0.00000   0.00064   0.00064   2.63816
    R7        2.05324   0.00008   0.00000   0.00019   0.00019   2.05343
    R8        2.63751   0.00034   0.00000   0.00064   0.00064   2.63816
    R9        2.05324   0.00008   0.00000   0.00019   0.00019   2.05343
   R10        2.63751   0.00034   0.00000   0.00064   0.00064   2.63816
   R11        2.05324   0.00008   0.00000   0.00019   0.00019   2.05343
   R12        2.05324   0.00008   0.00000   0.00019   0.00019   2.05343
    A1        2.09440  -0.00000   0.00000  -0.00000  -0.00000   2.09439
    A2        2.09439   0.00000   0.00000   0.00000   0.00000   2.09440
    A3        2.09440  -0.00000   0.00000  -0.00000  -0.00000   2.09439
    A4        2.09439   0.00000   0.00000  -0.00000  -0.00000   2.09439
    A5        2.09439   0.00000   0.00000   0.00000   0.00000   2.09440
    A6        2.09440  -0.00000   0.00000  -0.00000  -0.00000   2.09439
    A7        2.09439   0.00000   0.00000   0.00000   0.00000   2.09440
    A8        2.09439   0.00000   0.00000   0.00000   0.00000   2.09439
    A9        2.09440  -0.00000   0.00000  -0.00000  -0.00000   2.09439
   A10        2.09440  -0.00000   0.00000  -0.00000  -0.00000   2.09439
   A11        2.09440  -0.00000   0.00000  -0.00000  -0.00000   2.09439
   A12        2.09439   0.00000   0.00000   0.00000   0.00000   2.09440
   A13        2.09439   0.00000   0.00000  -0.00000  -0.00000   2.09439
   A14        2.09439   0.00000   0.00000   0.00000   0.00000   2.09440
   A15        2.09440  -0.00000   0.00000  -0.00000  -0.00000   2.09439
   A16        2.09439   0.00000   0.00000   0.00000   0.00000   2.09440
   A17        2.09440  -0.00000   0.00000  -0.00000  -0.00000   2.09439
   A18        2.09439   0.00000   0.00000   0.00000   0.00000   2.09439
    D1       -0.00000   0.00000   0.00000   0.00000   0.00000   0.00000
    D2        3.14159   0.00000   0.00000   0.00000   0.00000   3.14159
    D3        3.14159  -0.00000   0.00000   0.00000   0.00000   3.14159
    D4       -0.00000   0.00000   0.00000   0.00000   0.00000   0.00000
    D5        0.00000  -0.00000   0.00000  -0.00000  -0.00000   0.00000
    D6       -3.14159  -0.00000   0.00000  -0.00000  -0.00000   3.14159
    D7       -3.14159   0.00000   0.00000  -0.00000  -0.00000   3.14159
    D8        0.00000  -0.00000   0.00000  -0.00000  -0.00000   0.00000
    D9        0.00000   0.00000   0.00000   0.00000   0.00000   0.00000
   D10        3.14159   0.00000   0.00000   0.00000   0.00000   3.14159
   D11       -3.14159  -0.00000   0.00000  -0.00000  -0.00000  -3.14159
   D12        0.00000  -0.00000   0.00000  -0.00000  -0.00000   0.00000
   D13        0.00000  -0.00000   0.00000  -0.00000  -0.00000   0.00000
   D14       -3.14159   0.00000   0.00000  -0.00000  -0.00000   3.14159
   D15       -3.14159  -0.00000   0.00000  -0.00000  -0.00000   3.14159
   D16        0.00000  -0.00000   0.00000  -0.00000  -0.00000   0.00000
   D17       -0.00000   0.00000   0.00000   0.00000   0.00000   0.00000
   D18        3.14159   0.00000   0.00000   0.00000   0.00000   3.14159
   D19        3.14159  -0.00000   0.00000   0.00000   0.00000   3.14159
   D20       -0.00000   0.00000   0.00000   0.00000   0.00000   0.00000
   D21        0.00000   0.00000   0.00000   0.00000  -0.00000   0.00000
   D22        3.14159   0.00000   0.00000   0.00000   0.00000   3.14159
   D23       -3.14159  -0.00000   0.00000  -0.00000  -0.00000   3.14159
   D24        0.00000  -0.00000   0.00000  -0.00000  -0.00000   0.00000
         Item               Value     Threshold  Converged?
 Maximum Force            0.000337     0.000450     YES
 RMS     Force            0.000115     0.000300     YES
 Maximum Displacement     0.000832     0.001800     YES
 RMS     Displacement     0.000352     0.001200     YES
 Predicted change in Energy=-6.938927D-07
 Optimization completed.
    -- Stationary point found.
                           ----------------------------
                           !   Optimized Parameters   !
                           ! (Angstroms and Degrees)  !
 --------------------------                            --------------------------
 ! Name  Definition              Value          Derivative Info.                !
 --------------------------------------------------------------------------------
 ! R1    R(1,2)                  1.3957         -DE/DX =    0.0003              !
 ! R2    R(1,6)                  1.3957         -DE/DX =    0.0003              !
 ! R3    R(1,7)                  1.0865         -DE/DX =    0.0001              !
 ! R4    R(2,3)                  1.3957         -DE/DX =    0.0003              !
 ! R5    R(2,8)                  1.0865         -DE/DX =    0.0001              !
 ! R6    R(3,4)                  1.3957         -DE/DX =    0.0003              !
 ! R7    R(3,9)                  1.0865         -DE/DX =    0.0001              !
 ! R8    R(4,5)                  1.3957         -DE/DX =    0.0003              !
 ! R9    R(4,10)                 1.0865         -DE/DX =    0.0001              !
 ! R10   R(5,6)                  1.3957         -DE/DX =    0.0003              !
 ! R11   R(5,11)                 1.0865         -DE/DX =    0.0001              !
 ! R12   R(6,12)                 1.0865         -DE/DX =    0.0001              !
 ! A1    A(2,1,6)              120.0001         -DE/DX =    0.0                 !
 ! A2    A(2,1,7)              119.9999         -DE/DX =    0.0                 !
 ! A3    A(6,1,7)              120.0            -DE/DX =    0.0                 !
 ! A4    A(1,2,3)              120.0            -DE/DX =    0.0                 !
 ! A5    A(1,2,8)              120.0            -DE/DX =    0.0                 !
 ! A6    A(3,2,8)              120.0001         -DE/DX =    0.0                 !
 ! A7    A(2,3,4)              119.9999         -DE/DX =    0.0                 !
 ! A8    A(2,3,9)              119.9999         -DE/DX =    0.0                 !
 ! A9    A(4,3,9)              120.0002         -DE/DX =    0.0                 !
 ! A10   A(3,4,5)              120.0001         -DE/DX =    0.0                 !
 ! A11   A(3,4,10)             120.0            -DE/DX =    0.0                 !
 ! A12   A(5,4,10)             119.9999         -DE/DX =    0.0                 !
 ! A13   A(4,5,6)              120.0            -DE/DX =    0.0                 !
 ! A14   A(4,5,11)             120.0            -DE/DX =    0.0                 !
 ! A15   A(6,5,11)             120.0001         -DE/DX =    0.0                 !
 ! A16   A(1,6,5)              119.9999         -DE/DX =    0.0                 !
 ! A17   A(1,6,12)             120.0002         -DE/DX =    0.0                 !
 ! A18   A(5,6,12)             119.9999         -DE/DX =    0.0                 !
 ! D1    D(6,1,2,3)              0.0            -DE/DX =    0.0                 !
 ! D2    D(6,1,2,8)            180.0            -DE/DX =    0.0                 !
 ! D3    D(7,1,2,3)            180.0            -DE/DX =    0.0                 !
 ! D4    D(7,1,2,8)              0.0            -DE/DX =    0.0                 !
 ! D5    D(2,1,6,5)              0.0            -DE/DX =    0.0                 !
 ! D6    D(2,1,6,12)           180.0            -DE/DX =    0.0                 !
 ! D7    D(7,1,6,5)            180.0            -DE/DX =    0.0                 !
 ! D8    D(7,1,6,12)             0.0            -DE/DX =    0.0                 !
 ! D9    D(1,2,3,4)              0.0            -DE/DX =    0.0                 !
 ! D10   D(1,2,3,9)            180.0            -DE/DX =    0.0                 !
 ! D11   D(8,2,3,4)           -180.0            -DE/DX =    0.0                 !
 ! D12   D(8,2,3,9)              0.0            -DE/DX =    0.0                 !
 ! D13   D(2,3,4,5)              0.0            -DE/DX =    0.0                 !
 ! D14   D(2,3,4,10)           180.0            -DE/DX =    0.0                 !
 ! D15   D(9,3,4,5)            180.0            -DE/DX =    0.0                 !
 ! D16   D(9,3,4,10)             0.0            -DE/DX =    0.0                 !
 ! D17   D(3,4,5,6)              0.0            -DE/DX =    0.0                 !
 ! D18   D(3,4,5,11)           180.0            -DE/DX =    0.0                 !
 ! D19   D(10,4,5,6)           180.0            -DE/DX =    0.0                 !
 ! D20   D(10,4,5,11)            0.0            -DE/DX =    0.0                 !
 ! D21   D(4,5,6,1)              0.0            -DE/DX =    0.0                 !
 ! D22   D(4,5,6,12)           180.0            -DE/DX =    0.0                 !
 ! D23   D(11,5,6,1)           180.0            -DE/DX =    0.0                 !
 ! D24   D(11,5,6,12)            0.0            -DE/DX =    0.0                 !
 --------------------------------------------------------------------------------
 GradGradGradGradGradGradGradGradGradGradGradGradGradGradGradGradGradGrad

 Leave Link  103 at Fri Aug 21 09:48:36 2026, MaxMem=   104857600 cpu:               0.0 elap:               0.0
 (Enter /sw/cluster/pub/apps//g16/l9999.exe)

 ----------------------------------------------------------------------

 Electric dipole moment (input orientation):
 (Debye = 10**-18 statcoulomb cm , SI units = C m)
                  (au)            (Debye)         (10**-30 SI)
   Tot        0.000000D+00      0.000000D+00      0.000000D+00
   x          0.000000D+00      0.000000D+00      0.000000D+00
   y          0.000000D+00      0.000000D+00      0.000000D+00
   z          0.000000D+00      0.000000D+00      0.000000D+00

 Dipole polarizability, Alpha (input orientation).
 (esu units = cm**3 , SI units = C**2 m**2 J**-1)
 Alpha(0;0):
               (au)            (10**-24 esu)      (10**-40 SI)
   iso        0.544446D+02      0.806785D+01      0.897670D+01
   aniso      0.502353D+02      0.744410D+01      0.828267D+01
   xx         0.711898D+02      0.105492D+02      0.117376D+02
   yx        -0.519757D-03     -0.770200D-04     -0.856964D-04
   yy         0.711895D+02      0.105492D+02      0.117376D+02
   zx         0.000000D+00      0.000000D+00      0.000000D+00
   zy         0.000000D+00      0.000000D+00      0.000000D+00
   zz         0.209544D+02      0.310512D+01      0.345491D+01

 ----------------------------------------------------------------------

 Dipole orientation:
     6         -2.40031637         -1.09314191         -0.00000034
     6         -0.25346990         -2.62530797         -0.00000013
     6          2.14684816         -1.53216695         -0.00000026
     6          2.40031637          1.09314191         -0.00000060
     6          0.25346990          2.62530797         -0.00000064
     6         -2.14684816          1.53216695         -0.00000051
     1         -4.26889973         -1.94412543         -0.00000033
     1         -0.45079233         -4.66904018          0.00000039
     1          3.81810906         -2.72492097          0.00000015
     1          4.26889973          1.94412543         -0.00000080
     1          0.45079233          4.66904018         -0.00000052
     1         -3.81810906          2.72492097         -0.00000029

 Electric dipole moment (dipole orientation):
 (Debye = 10**-18 statcoulomb cm , SI units = C m)
                  (au)            (Debye)         (10**-30 SI)
   Tot        0.000000D+00      0.000000D+00      0.000000D+00
   x          0.000000D+00      0.000000D+00      0.000000D+00
   y          0.000000D+00      0.000000D+00      0.000000D+00
   z          0.000000D+00      0.000000D+00      0.000000D+00

 Dipole polarizability, Alpha (dipole orientation).
 (esu units = cm**3 , SI units = C**2 m**2 J**-1)
 Alpha(0;0):
               (au)            (10**-24 esu)      (10**-40 SI)
   iso        0.544446D+02      0.806785D+01      0.897670D+01
   aniso      0.502353D+02      0.744410D+01      0.828267D+01
   xx         0.711898D+02      0.105492D+02      0.117376D+02
   yx        -0.519757D-03     -0.770200D-04     -0.856964D-04
   yy         0.711895D+02      0.105492D+02      0.117376D+02
   zx         0.000000D+00      0.000000D+00      0.000000D+00
   zy         0.000000D+00      0.000000D+00      0.000000D+00
   zz         0.209544D+02      0.310512D+01      0.345491D+01

 ----------------------------------------------------------------------
 1\1\GINC-N07\Freq\RB3LYP\6-31G(d)\C6H6\UNKNOWN\21-Aug-2026\0\\#P Geom=
 AllCheck Guess=TCheck SCRF=Check GenChk RB3LYP/6-31G(d) Freq\\OPT F1 -
  dispersion correction\\0,1\C,-1.2701927208,-0.5784657854,-0.000000249
 7\C,-0.1341304971,-1.3892531504,-0.0000002044\C,1.1360631191,-0.810787
 8347,-0.0000002044\C,1.2701927208,0.5784657854,-0.0000002497\C,0.13413
 04971,1.3892531504,-0.0000002044\C,-1.1360631191,0.8107878347,-0.00000
 02044\H,-2.2590044526,-1.0287868711,-0.0000003006\H,-0.2385490296,-2.4
 707496609,-0.0000000335\H,2.0204563046,-1.441966077,-0.0000000369\H,2.
 2590044526,1.0287868711,-0.0000003006\H,0.2385490296,2.4707496609,-0.0
 000000335\H,-2.0204563046,1.441966077,-0.0000000369\\Version=ES64L-G16
 RevA.03\State=1-A\HF=-232.2675516\RMSD=6.382e-09\RMSF=1.107e-04\ZeroPo
 int=0.1008283\Thermal=0.1052154\Dipole=0.,0.,0.0000001\DipoleDeriv=0.1
 020941,0.0769648,0.,0.0769913,-0.0318507,0.,0.,0.,-0.1109336,-0.065025
 2,0.019543,0.,0.019517,0.1352694,0.,0.,0.,-0.1109336,0.0682929,-0.0965
 107,0.,-0.0965116,0.0019416,0.,0.,0.,-0.1109352,0.1020941,0.0769648,0.
 ,0.0769913,-0.0318507,0.,0.,0.,-0.1109336,-0.0650252,0.019543,0.,0.019
 517,0.1352694,0.,0.,0.,-0.1109336,0.0682929,-0.0965107,0.,-0.0965116,0
 .0019416,0.,0.,0.,-0.1109352,-0.0954289,-0.0693018,0.,-0.069307,0.0251
 914,0.,0.,0.,0.110934,0.0550564,-0.0175773,0.,-0.0175723,-0.1252934,0.
 ,0.,0.,0.1109341,-0.0649893,0.0868819,0.,0.0868826,-0.0052583,0.,0.,0.
 ,0.1109344,-0.0954289,-0.0693018,0.,-0.069307,0.0251914,0.,0.,0.,0.110
 934,0.0550564,-0.0175773,0.,-0.0175723,-0.1252934,0.,0.,0.,0.1109341,-
 0.0649893,0.0868819,0.,0.0868826,-0.0052583,0.,0.,0.,0.1109344\Polar=7
 1.1897992,-0.0005198,71.1895167,0.,0.,20.9544014\Quadrupole=1.7792365,
 1.7792685,-3.5585049,0.0000035,0.,0.\PG=C02 [X(C6H6)]\NImag=0\\0.73454
 301,0.02639703,0.68857748,0.00000002,0.,0.13106940,-0.27104092,0.06742
 568,0.,0.67720658,0.13425062,-0.20171459,0.,0.00668792,0.74591586,-0.0
 0000001,0.00000002,-0.06075564,0.00000001,-0.00000006,0.13106928,-0.05
 705320,0.03676017,0.,-0.30637200,-0.11385589,0.,0.72293811,-0.01302604
 ,0.06482543,0.,-0.04702674,-0.16641016,0.,-0.03304904,0.70021594,0.,0.
 ,0.00799006,0.,0.,-0.06075243,0.00000004,-0.00000005,0.13105844,-0.013
 17786,0.02574360,0.,0.02407609,-0.03380914,0.,-0.13174182,-0.05382596,
 0.,0.73454301,0.02574360,-0.05796524,0.,-0.08360067,-0.01628373,0.,0.0
 1300302,-0.34103832,0.00000002,0.02639703,0.68857748,0.,0.,-0.00866694
 ,0.,0.,0.00799507,0.,0.00000001,-0.06075251,-0.00000002,0.,0.13106940,
 0.02407609,-0.08360067,0.,-0.06906065,0.00653381,0.,0.04464911,0.07172
 045,0.,-0.27104092,0.06742568,0.,0.67720658,-0.03380914,-0.01628373,0.
 ,0.00653381,-0.00208237,0.,0.02193423,-0.03687674,0.,0.13425062,-0.201
 71459,0.,0.00668792,0.74591586,0.,0.,0.00799507,0.,0.,-0.00866699,0.,0
 .,0.00798999,0.00000001,-0.00000002,-0.06075564,-0.00000001,0.00000006
 ,0.13106928,-0.13174182,0.01300302,0.,0.04464911,0.02193423,0.,-0.0244
 8924,-0.03225843,0.,-0.05705320,0.03676017,0.,-0.30637200,-0.11385589,
 0.,0.72293811,-0.05382596,-0.34103832,-0.00000001,0.07172045,-0.036876
 74,0.,-0.03225843,-0.04666706,0.,-0.01302604,0.06482543,0.,-0.04702674
 ,-0.16641016,0.,-0.03304904,0.70021594,0.,-0.00000002,-0.06075251,0.,0
 .,0.00798999,0.,0.,-0.00866302,0.,0.,0.00799006,0.,0.,-0.06075243,-0.0
 0000004,0.00000005,0.13105844,-0.29070460,-0.10481415,-0.00000001,-0.0
 1912076,-0.01357207,0.,-0.00216527,0.00449737,0.,0.00042983,0.00082184
 ,0.,0.00170983,-0.00030482,0.,0.00089495,0.00080817,0.,0.30825798,-0.1
 0481448,-0.10828392,0.,0.01822607,0.01200171,0.,0.00306772,-0.00193895
 ,0.,0.00082155,-0.00100000,0.,0.00112525,-0.00581420,0.,-0.03098971,-0
 .00801437,0.,0.11338333,0.11092458,-0.00000001,0.,-0.03558468,0.,0.,0.
 00242010,0.,0.,0.00704886,0.,0.,-0.00023322,0.,0.,0.00704920,0.,0.,0.0
 0241916,0.00000001,0.,0.02538962,0.00728199,0.02730203,0.,-0.06311674,
 -0.02658078,0.,0.00220570,-0.03053912,0.,-0.00527129,-0.00127452,0.,-0
 .00135411,0.00020831,0.,-0.00428856,0.00233783,0.,0.00100035,-0.000467
 60,0.,0.06206467,-0.00449607,-0.01440103,0.,-0.02658050,-0.33587166,0.
 00000004,0.00125877,-0.00932512,0.,-0.00270460,0.00116693,0.,0.0002086
 1,0.00078394,0.,0.00376747,0.00018435,0.,0.00027822,0.00093525,0.,0.02
 875401,0.35711771,0.,0.,0.00242008,0.,0.00000005,-0.03558469,0.,0.,0.0
 0241917,0.,0.,0.00704919,0.,0.,-0.00023321,0.,0.,0.00704885,0.,0.,-0.0
 0392778,0.,-0.00000005,0.02538965,-0.00357778,-0.00417793,0.,-0.018856
 71,0.01958601,0.,-0.24464705,0.13139159,-0.00000003,0.00623656,-0.0035
 8612,0.,0.00128028,-0.00107820,0.,0.00006927,-0.00103009,0.,-0.0011037
 9,0.00103568,0.,0.00103391,-0.00029722,0.,0.25843698,-0.00274814,-0.00
 052650,0.,-0.01221191,0.01173647,0.,0.13139177,-0.15431609,0.00000003,
 0.02821163,-0.01335651,0.,-0.00250798,-0.00538453,0.,-0.00103008,-0.00
 063890,0.,-0.00072509,0.00048996,0.,0.00044856,0.00090214,0.,-0.142133
 04,0.16072101,0.,0.,0.00704913,0.,0.,0.00242019,-0.00000004,0.00000003
 ,-0.03557314,0.,0.,0.00242006,0.,0.,0.00704913,0.,0.,-0.00023346,0.,0.
 ,0.00035225,0.,0.,-0.00392798,0.00000004,-0.00000003,0.02537739,0.0004
 2983,0.00082184,0.,0.00170983,-0.00030482,0.,0.00089495,0.00080817,0.,
 -0.29070460,-0.10481415,0.00000001,-0.01912076,-0.01357207,0.,-0.00216
 527,0.00449737,0.,-0.00002509,-0.00013176,0.,-0.00004296,0.00011269,0.
 ,0.00086953,-0.00035373,0.,0.30825798,0.00082155,-0.00100000,0.,0.0011
 2525,-0.00581420,0.,-0.03098971,-0.00801437,0.,-0.10481448,-0.10828392
 ,0.,0.01822607,0.01200171,0.,0.00306772,-0.00193895,0.,-0.00013176,0.0
 0020419,0.,-0.00164812,-0.00057077,0.,0.00039208,0.00106652,0.,0.11338
 333,0.11092458,0.,0.,-0.00023322,0.,0.,0.00704920,0.,0.,0.00241916,0.0
 0000001,0.,-0.03558468,0.,0.,0.00242010,0.,0.,0.00704886,0.,0.,-0.0013
 5779,0.,0.,0.00035225,0.,0.,-0.00392798,-0.00000001,0.,0.02538962,-0.0
 0527129,-0.00127452,0.,-0.00135411,0.00020831,0.,-0.00428856,0.0023378
 3,0.,0.00728199,0.02730203,0.,-0.06311674,-0.02658078,0.,0.00220570,-0
 .03053912,0.,-0.00004296,-0.00164812,0.,0.00026097,-0.00003342,0.,0.00
 022606,0.00149281,0.,0.00100035,-0.00046760,0.,0.06206467,-0.00270460,
 0.00116693,0.,0.00020861,0.00078394,0.,0.00376747,0.00018435,0.,-0.004
 49607,-0.01440103,0.,-0.02658050,-0.33587166,-0.00000004,0.00125877,-0
 .00932512,0.,0.00011269,-0.00057077,0.,-0.00003342,-0.00008187,0.,-0.0
 0026796,-0.00083987,0.,0.00027822,0.00093525,0.,0.02875401,0.35711771,
 0.,0.,0.00704919,0.,0.,-0.00023321,0.,0.,0.00704885,0.,0.,0.00242008,0
 .,-0.00000005,-0.03558469,0.,0.,0.00241917,0.,0.,0.00035225,0.,0.,-0.0
 0135780,0.,0.,0.00035226,0.,0.,-0.00392778,0.,0.00000005,0.02538965,0.
 00623656,-0.00358612,0.,0.00128028,-0.00107820,0.,0.00006927,-0.001030
 09,0.,-0.00357778,-0.00417793,0.,-0.01885671,0.01958601,0.,-0.24464705
 ,0.13139159,0.00000003,0.00086953,0.00039208,0.,0.00022606,-0.00026796
 ,0.,0.00003273,0.00016521,0.,-0.00110379,0.00103568,0.,0.00103391,-0.0
 0029722,0.,0.25843698,0.02821163,-0.01335651,0.,-0.00250798,-0.0053845
 3,0.,-0.00103008,-0.00063890,0.,-0.00274814,-0.00052650,0.,-0.01221191
 ,0.01173647,0.,0.13139177,-0.15431609,-0.00000003,-0.00035373,0.001066
 52,0.,0.00149281,-0.00083987,0.,0.00016521,0.00014631,0.,-0.00072509,0
 .00048996,0.,0.00044856,0.00090214,0.,-0.14213304,0.16072101,0.,0.,0.0
 0242006,0.,0.,0.00704913,0.,0.,-0.00023346,0.,0.,0.00704913,0.,0.,0.00
 242019,0.00000004,-0.00000003,-0.03557314,0.,0.,-0.00392798,0.,0.,0.00
 035226,0.,0.,-0.00135786,0.,0.,0.00035225,0.,0.,-0.00392798,-0.0000000
 4,0.00000003,0.02537739\\0.00023746,0.00010706,0.,0.00002487,0.0002589
 6,0.,-0.00021123,0.00015046,0.,-0.00023746,-0.00010706,0.,-0.00002487,
 -0.00025896,0.,0.00021123,-0.00015046,0.,0.00006984,0.00003156,0.,0.00
 000716,0.00007620,0.,-0.00006266,0.00004426,0.,-0.00006984,-0.00003156
 ,0.,-0.00000716,-0.00007620,0.,0.00006266,-0.00004426,0.\\\@


 IF I HAVE SEEN FARTHER, IT IS BY STANDING ON THE
 SHOULDERS OF GIANTS. -- SIR ISAAC NEWTON
 Job cpu time:       0 days  0 hours  0 minutes 33.3 seconds.
 Elapsed time:       0 days  0 hours  0 minutes 33.3 seconds.
 File lengths (MBytes):  RWF=     13 Int=      0 D2E=      0 Chk=      2 Scr=      1
 Normal termination of Gaussian 16 at Fri Aug 21 09:48:36 2026.
