 Entering Gaussian System, Link 0=g16
 Initial command:
 /sw/cluster/pub/apps//g16/l1.exe "/data/mmaximo/41242/Gau-1671788.inp" -scrdir="/data/mmaximo/41242/"
 Entering Link 1 = /sw/cluster/pub/apps//g16/l1.exe PID=   1671789.
  
 Copyright (c) 1988,1990,1992,1993,1995,1998,2003,2009,2016,
            Gaussian, Inc.  All Rights Reserved.
  
 This is part of the Gaussian(R) 16 program.  It is based on
 the Gaussian(R) 09 system (copyright 2009, Gaussian, Inc.),
 the Gaussian(R) 03 system (copyright 2003, Gaussian, Inc.),
 the Gaussian(R) 98 system (copyright 1998, Gaussian, Inc.),
 the Gaussian(R) 94 system (copyright 1995, Gaussian, Inc.),
 the Gaussian 92(TM) system (copyright 1992, Gaussian, Inc.),
 the Gaussian 90(TM) system (copyright 1990, Gaussian, Inc.),
 the Gaussian 88(TM) system (copyright 1988, Gaussian, Inc.),
 the Gaussian 86(TM) system (copyright 1986, Carnegie Mellon
 University), and the Gaussian 82(TM) system (copyright 1983,
 Carnegie Mellon University). Gaussian is a federally registered
 trademark of Gaussian, Inc.
  
 This software contains proprietary and confidential information,
 including trade secrets, belonging to Gaussian, Inc.
  
 This software is provided under written license and may be
 used, copied, transmitted, or stored only in accord with that
 written license.
  
 The following legend is applicable only to US Government
 contracts under FAR:
  
                    RESTRICTED RIGHTS LEGEND
  
 Use, reproduction and disclosure by the US Government is
 subject to restrictions as set forth in subparagraphs (a)
 and (c) of the Commercial Computer Software - Restricted
 Rights clause in FAR 52.227-19.
  
 Gaussian, Inc.
 340 Quinnipiac St., Bldg. 40, Wallingford CT 06492
  
  
 ---------------------------------------------------------------
 Warning -- This program may not be used in any manner that
 competes with the business of Gaussian, Inc. or will provide
 assistance to any competitor of Gaussian, Inc.  The licensee
 of this program is prohibited from giving any competitor of
 Gaussian, Inc. access to this program.  By using this program,
 the user acknowledges that Gaussian, Inc. is engaged in the
 business of creating and licensing software in the field of
 computational chemistry and represents and warrants to the
 licensee that it is not a competitor of Gaussian, Inc. and that
 it will not use this program in any manner prohibited above.
 ---------------------------------------------------------------
  

 Cite this work as:
 Gaussian 16, Revision A.03,
 M. J. Frisch, G. W. Trucks, H. B. Schlegel, G. E. Scuseria, 
 M. A. Robb, J. R. Cheeseman, G. Scalmani, V. Barone, 
 G. A. Petersson, H. Nakatsuji, X. Li, M. Caricato, A. V. Marenich, 
 J. Bloino, B. G. Janesko, R. Gomperts, B. Mennucci, H. P. Hratchian, 
 J. V. Ortiz, A. F. Izmaylov, J. L. Sonnenberg, D. Williams-Young, 
 F. Ding, F. Lipparini, F. Egidi, J. Goings, B. Peng, A. Petrone, 
 T. Henderson, D. Ranasinghe, V. G. Zakrzewski, J. Gao, N. Rega, 
 G. Zheng, W. Liang, M. Hada, M. Ehara, K. Toyota, R. Fukuda, 
 J. Hasegawa, M. Ishida, T. Nakajima, Y. Honda, O. Kitao, H. Nakai, 
 T. Vreven, K. Throssell, J. A. Montgomery, Jr., J. E. Peralta, 
 F. Ogliaro, M. J. Bearpark, J. J. Heyd, E. N. Brothers, K. N. Kudin, 
 V. N. Staroverov, T. A. Keith, R. Kobayashi, J. Normand, 
 K. Raghavachari, A. P. Rendell, J. C. Burant, S. S. Iyengar, 
 J. Tomasi, M. Cossi, J. M. Millam, M. Klene, C. Adamo, R. Cammi, 
 J. W. Ochterski, R. L. Martin, K. Morokuma, O. Farkas, 
 J. B. Foresman, and D. J. Fox, Gaussian, Inc., Wallingford CT, 2016.
 
 ******************************************
 Gaussian 16:  ES64L-G16RevA.03 25-Dec-2016
                13-Mar-2026 
 ******************************************
 %chk=f1-6-31+Gstar.chk
 -------------------------
 #P B3LYP/6-31+G* OPT FREQ
 -------------------------
 1/18=20,19=15,26=3,38=1/1,3;
 2/9=110,12=2,17=6,18=5,40=1/2;
 3/5=1,6=6,7=11,11=2,25=1,30=1,71=1,74=-5/1,2,3;
 4//1;
 5/5=2,38=5/2;
 6/7=2,8=2,9=2,10=2,28=1/1;
 7//1,2,3,16;
 1/18=20,19=15,26=3/3(2);
 2/9=110/2;
 99//99;
 2/9=110/2;
 3/5=1,6=6,7=11,11=2,25=1,30=1,71=1,74=-5/1,2,3;
 4/5=5,16=3,69=1/1;
 5/5=2,38=5/2;
 7//1,2,3,16;
 1/18=20,19=15,26=3/3(-5);
 2/9=110/2;
 6/7=2,8=2,9=2,10=2,19=2,28=1/1;
 99/9=1/99;
 Leave Link    1 at Fri Mar 13 23:22:38 2026, MaxMem=           0 cpu:               0.0 elap:               0.0
 (Enter /sw/cluster/pub/apps//g16/l101.exe)
 -------------------
 OPT FREQ F1 6-31+G*
 -------------------
 Symbolic Z-matrix:
 Charge =  0 Multiplicity = 1
 C                     0.00976   0.00468   0.0399 
 C                     1.53762  -0.04442   0.05212 
 C                     2.08255   1.25515   0.03278 
 C                     0.978     2.22309   0.00747 
 C                    -0.23896   1.51251   0.01131 
 C                    -1.44928   2.19661  -0.00993 
 C                    -1.44228   3.59641  -0.03495 
 C                    -0.23374   4.30058  -0.03862 
 C                     0.9853    3.61916  -0.01755 
 H                     1.92176   4.17143  -0.02068 
 H                    -0.24329   5.38719  -0.05813 
 H                    -2.38324   4.13996  -0.05169 
 H                    -2.39456   1.65842  -0.00744 
 C                     3.46572   1.44614   0.03935 
 C                     4.30154   0.32743   0.06541 
 C                     3.76206  -0.96297   0.08471 
 C                     2.37513  -1.15407   0.07812 
 H                     1.96617  -2.16185   0.09321 
 H                     4.42468  -1.82418   0.10491 
 H                     5.38017   0.46062   0.07078 
 H                     3.88965   2.44711   0.02446 
 C                    -0.58466  -0.64101   1.312 
 H                    -0.18958  -0.16733   2.2163 
 H                    -1.67634  -0.54198   1.32268 
 H                    -0.34382  -1.70967   1.35207 
 C                    -0.56537  -0.68566  -1.21755 
 H                    -0.3249   -1.75522  -1.21604 
 H                    -1.65668  -0.5866   -1.24882 
 H                    -0.15575  -0.24451  -2.13179 
 
 ITRead=  0  0  0  0  0  0  0  0  0  0  0  0  0  0  0  0  0  0  0  0
 ITRead=  0  0  0  0  0  0  0  0  0
 MicOpt= -1 -1 -1 -1 -1 -1 -1 -1 -1 -1 -1 -1 -1 -1 -1 -1 -1 -1 -1 -1
 MicOpt= -1 -1 -1 -1 -1 -1 -1 -1 -1
 NAtoms=     29 NQM=       29 NQMF=       0 NMMI=      0 NMMIF=      0
                NMic=       0 NMicF=      0.
                    Isotopes and Nuclear Properties:
 (Nuclear quadrupole moments (NQMom) in fm**2, nuclear magnetic moments (NMagM)
  in nuclear magnetons)

  Atom         1           2           3           4           5           6           7           8           9          10
 IAtWgt=          12          12          12          12          12          12          12          12          12           1
 AtmWgt=  12.0000000  12.0000000  12.0000000  12.0000000  12.0000000  12.0000000  12.0000000  12.0000000  12.0000000   1.0078250
 NucSpn=           0           0           0           0           0           0           0           0           0           1
 AtZEff=  -0.0000000  -0.0000000  -0.0000000  -0.0000000  -0.0000000  -0.0000000  -0.0000000  -0.0000000  -0.0000000  -0.0000000
 NQMom=    0.0000000   0.0000000   0.0000000   0.0000000   0.0000000   0.0000000   0.0000000   0.0000000   0.0000000   0.0000000
 NMagM=    0.0000000   0.0000000   0.0000000   0.0000000   0.0000000   0.0000000   0.0000000   0.0000000   0.0000000   2.7928460
 AtZNuc=   6.0000000   6.0000000   6.0000000   6.0000000   6.0000000   6.0000000   6.0000000   6.0000000   6.0000000   1.0000000

  Atom        11          12          13          14          15          16          17          18          19          20
 IAtWgt=           1           1           1          12          12          12          12           1           1           1
 AtmWgt=   1.0078250   1.0078250   1.0078250  12.0000000  12.0000000  12.0000000  12.0000000   1.0078250   1.0078250   1.0078250
 NucSpn=           1           1           1           0           0           0           0           1           1           1
 AtZEff=  -0.0000000  -0.0000000  -0.0000000  -0.0000000  -0.0000000  -0.0000000  -0.0000000  -0.0000000  -0.0000000  -0.0000000
 NQMom=    0.0000000   0.0000000   0.0000000   0.0000000   0.0000000   0.0000000   0.0000000   0.0000000   0.0000000   0.0000000
 NMagM=    2.7928460   2.7928460   2.7928460   0.0000000   0.0000000   0.0000000   0.0000000   2.7928460   2.7928460   2.7928460
 AtZNuc=   1.0000000   1.0000000   1.0000000   6.0000000   6.0000000   6.0000000   6.0000000   1.0000000   1.0000000   1.0000000

  Atom        21          22          23          24          25          26          27          28          29
 IAtWgt=           1          12           1           1           1          12           1           1           1
 AtmWgt=   1.0078250  12.0000000   1.0078250   1.0078250   1.0078250  12.0000000   1.0078250   1.0078250   1.0078250
 NucSpn=           1           0           1           1           1           0           1           1           1
 AtZEff=  -0.0000000  -0.0000000  -0.0000000  -0.0000000  -0.0000000  -0.0000000  -0.0000000  -0.0000000  -0.0000000
 NQMom=    0.0000000   0.0000000   0.0000000   0.0000000   0.0000000   0.0000000   0.0000000   0.0000000   0.0000000
 NMagM=    2.7928460   0.0000000   2.7928460   2.7928460   2.7928460   0.0000000   2.7928460   2.7928460   2.7928460
 AtZNuc=   1.0000000   6.0000000   1.0000000   1.0000000   1.0000000   6.0000000   1.0000000   1.0000000   1.0000000
 Leave Link  101 at Fri Mar 13 23:22:38 2026, MaxMem=   104857600 cpu:               0.0 elap:               0.0
 (Enter /sw/cluster/pub/apps//g16/l103.exe)

 GradGradGradGradGradGradGradGradGradGradGradGradGradGradGradGradGradGrad
 Berny optimization.
 Initialization pass.
                           ----------------------------
                           !    Initial Parameters    !
                           ! (Angstroms and Degrees)  !
 --------------------------                            --------------------------
 ! Name  Definition              Value          Derivative Info.                !
 --------------------------------------------------------------------------------
 ! R1    R(1,2)                  1.5287         estimate D2E/DX2                !
 ! R2    R(1,5)                  1.5285         estimate D2E/DX2                !
 ! R3    R(1,22)                 1.5455         estimate D2E/DX2                !
 ! R4    R(1,26)                 1.5455         estimate D2E/DX2                !
 ! R5    R(2,3)                  1.4093         estimate D2E/DX2                !
 ! R6    R(2,17)                 1.3905         estimate D2E/DX2                !
 ! R7    R(3,4)                  1.4689         estimate D2E/DX2                !
 ! R8    R(3,14)                 1.3963         estimate D2E/DX2                !
 ! R9    R(4,5)                  1.4092         estimate D2E/DX2                !
 ! R10   R(4,9)                  1.3963         estimate D2E/DX2                !
 ! R11   R(5,6)                  1.3904         estimate D2E/DX2                !
 ! R12   R(6,7)                  1.4            estimate D2E/DX2                !
 ! R13   R(6,13)                 1.0878         estimate D2E/DX2                !
 ! R14   R(7,8)                  1.3987         estimate D2E/DX2                !
 ! R15   R(7,12)                 1.0868         estimate D2E/DX2                !
 ! R16   R(8,9)                  1.3967         estimate D2E/DX2                !
 ! R17   R(8,11)                 1.0868         estimate D2E/DX2                !
 ! R18   R(9,10)                 1.0872         estimate D2E/DX2                !
 ! R19   R(14,15)                1.3967         estimate D2E/DX2                !
 ! R20   R(14,21)                1.0871         estimate D2E/DX2                !
 ! R21   R(15,16)                1.3988         estimate D2E/DX2                !
 ! R22   R(15,20)                1.0868         estimate D2E/DX2                !
 ! R23   R(16,17)                1.4            estimate D2E/DX2                !
 ! R24   R(16,19)                1.0868         estimate D2E/DX2                !
 ! R25   R(17,18)                1.0877         estimate D2E/DX2                !
 ! R26   R(22,23)                1.0946         estimate D2E/DX2                !
 ! R27   R(22,24)                1.0962         estimate D2E/DX2                !
 ! R28   R(22,25)                1.0962         estimate D2E/DX2                !
 ! R29   R(26,27)                1.0963         estimate D2E/DX2                !
 ! R30   R(26,28)                1.0962         estimate D2E/DX2                !
 ! R31   R(26,29)                1.0946         estimate D2E/DX2                !
 ! A1    A(2,1,5)              101.2135         estimate D2E/DX2                !
 ! A2    A(2,1,22)             111.371          estimate D2E/DX2                !
 ! A3    A(2,1,26)             111.3517         estimate D2E/DX2                !
 ! A4    A(5,1,22)             111.4048         estimate D2E/DX2                !
 ! A5    A(5,1,26)             111.3999         estimate D2E/DX2                !
 ! A6    A(22,1,26)            109.8749         estimate D2E/DX2                !
 ! A7    A(1,2,3)              110.8991         estimate D2E/DX2                !
 ! A8    A(1,2,17)             128.8858         estimate D2E/DX2                !
 ! A9    A(3,2,17)             120.2151         estimate D2E/DX2                !
 ! A10   A(2,3,4)              108.4892         estimate D2E/DX2                !
 ! A11   A(2,3,14)             120.603          estimate D2E/DX2                !
 ! A12   A(4,3,14)             130.9078         estimate D2E/DX2                !
 ! A13   A(3,4,5)              108.4854         estimate D2E/DX2                !
 ! A14   A(3,4,9)              130.9374         estimate D2E/DX2                !
 ! A15   A(5,4,9)              120.5772         estimate D2E/DX2                !
 ! A16   A(1,5,4)              110.9129         estimate D2E/DX2                !
 ! A17   A(1,5,6)              128.8498         estimate D2E/DX2                !
 ! A18   A(4,5,6)              120.2373         estimate D2E/DX2                !
 ! A19   A(5,6,7)              119.1983         estimate D2E/DX2                !
 ! A20   A(5,6,13)             120.863          estimate D2E/DX2                !
 ! A21   A(7,6,13)             119.9387         estimate D2E/DX2                !
 ! A22   A(6,7,8)              120.5117         estimate D2E/DX2                !
 ! A23   A(6,7,12)             119.736          estimate D2E/DX2                !
 ! A24   A(8,7,12)             119.7522         estimate D2E/DX2                !
 ! A25   A(7,8,9)              120.5617         estimate D2E/DX2                !
 ! A26   A(7,8,11)             119.7218         estimate D2E/DX2                !
 ! A27   A(9,8,11)             119.7165         estimate D2E/DX2                !
 ! A28   A(4,9,8)              118.9138         estimate D2E/DX2                !
 ! A29   A(4,9,10)             120.8268         estimate D2E/DX2                !
 ! A30   A(8,9,10)             120.2594         estimate D2E/DX2                !
 ! A31   A(3,14,15)            118.9025         estimate D2E/DX2                !
 ! A32   A(3,14,21)            120.8075         estimate D2E/DX2                !
 ! A33   A(15,14,21)           120.29           estimate D2E/DX2                !
 ! A34   A(14,15,16)           120.5553         estimate D2E/DX2                !
 ! A35   A(14,15,20)           119.725          estimate D2E/DX2                !
 ! A36   A(16,15,20)           119.7197         estimate D2E/DX2                !
 ! A37   A(15,16,17)           120.5257         estimate D2E/DX2                !
 ! A38   A(15,16,19)           119.7451         estimate D2E/DX2                !
 ! A39   A(17,16,19)           119.7292         estimate D2E/DX2                !
 ! A40   A(2,17,16)            119.1984         estimate D2E/DX2                !
 ! A41   A(2,17,18)            120.8768         estimate D2E/DX2                !
 ! A42   A(16,17,18)           119.9248         estimate D2E/DX2                !
 ! A43   A(1,22,23)            111.1243         estimate D2E/DX2                !
 ! A44   A(1,22,24)            110.6894         estimate D2E/DX2                !
 ! A45   A(1,22,25)            110.6637         estimate D2E/DX2                !
 ! A46   A(23,22,24)           108.1974         estimate D2E/DX2                !
 ! A47   A(23,22,25)           108.2021         estimate D2E/DX2                !
 ! A48   A(24,22,25)           107.8485         estimate D2E/DX2                !
 ! A49   A(1,26,27)            110.6735         estimate D2E/DX2                !
 ! A50   A(1,26,28)            110.6897         estimate D2E/DX2                !
 ! A51   A(1,26,29)            111.1168         estimate D2E/DX2                !
 ! A52   A(27,26,28)           107.8525         estimate D2E/DX2                !
 ! A53   A(27,26,29)           108.1958         estimate D2E/DX2                !
 ! A54   A(28,26,29)           108.197          estimate D2E/DX2                !
 ! D1    D(5,1,2,3)             -0.015          estimate D2E/DX2                !
 ! D2    D(5,1,2,17)           179.9944         estimate D2E/DX2                !
 ! D3    D(22,1,2,3)          -118.5117         estimate D2E/DX2                !
 ! D4    D(22,1,2,17)           61.4978         estimate D2E/DX2                !
 ! D5    D(26,1,2,3)           118.4674         estimate D2E/DX2                !
 ! D6    D(26,1,2,17)          -61.5231         estimate D2E/DX2                !
 ! D7    D(2,1,5,4)              0.0126         estimate D2E/DX2                !
 ! D8    D(2,1,5,6)            179.9938         estimate D2E/DX2                !
 ! D9    D(22,1,5,4)           118.4848         estimate D2E/DX2                !
 ! D10   D(22,1,5,6)           -61.534          estimate D2E/DX2                !
 ! D11   D(26,1,5,4)          -118.435          estimate D2E/DX2                !
 ! D12   D(26,1,5,6)            61.5461         estimate D2E/DX2                !
 ! D13   D(2,1,22,23)           56.0788         estimate D2E/DX2                !
 ! D14   D(2,1,22,24)          176.3291         estimate D2E/DX2                !
 ! D15   D(2,1,22,25)          -64.1602         estimate D2E/DX2                !
 ! D16   D(5,1,22,23)          -56.1116         estimate D2E/DX2                !
 ! D17   D(5,1,22,24)           64.1387         estimate D2E/DX2                !
 ! D18   D(5,1,22,25)         -176.3506         estimate D2E/DX2                !
 ! D19   D(26,1,22,23)         179.9409         estimate D2E/DX2                !
 ! D20   D(26,1,22,24)         -59.8089         estimate D2E/DX2                !
 ! D21   D(26,1,22,25)          59.7019         estimate D2E/DX2                !
 ! D22   D(2,1,26,27)           64.2096         estimate D2E/DX2                !
 ! D23   D(2,1,26,28)         -176.268          estimate D2E/DX2                !
 ! D24   D(2,1,26,29)          -56.023          estimate D2E/DX2                !
 ! D25   D(5,1,26,27)          176.3859         estimate D2E/DX2                !
 ! D26   D(5,1,26,28)          -64.0917         estimate D2E/DX2                !
 ! D27   D(5,1,26,29)           56.1532         estimate D2E/DX2                !
 ! D28   D(22,1,26,27)         -59.6637         estimate D2E/DX2                !
 ! D29   D(22,1,26,28)          59.8587         estimate D2E/DX2                !
 ! D30   D(22,1,26,29)        -179.8964         estimate D2E/DX2                !
 ! D31   D(1,2,3,4)              0.0124         estimate D2E/DX2                !
 ! D32   D(1,2,3,14)          -179.9878         estimate D2E/DX2                !
 ! D33   D(17,2,3,4)          -179.9962         estimate D2E/DX2                !
 ! D34   D(17,2,3,14)            0.0036         estimate D2E/DX2                !
 ! D35   D(1,2,17,16)          179.9854         estimate D2E/DX2                !
 ! D36   D(1,2,17,18)           -0.0099         estimate D2E/DX2                !
 ! D37   D(3,2,17,16)           -0.0043         estimate D2E/DX2                !
 ! D38   D(3,2,17,18)         -179.9996         estimate D2E/DX2                !
 ! D39   D(2,3,4,5)             -0.0039         estimate D2E/DX2                !
 ! D40   D(2,3,4,9)           -179.9964         estimate D2E/DX2                !
 ! D41   D(14,3,4,5)           179.9964         estimate D2E/DX2                !
 ! D42   D(14,3,4,9)             0.0038         estimate D2E/DX2                !
 ! D43   D(2,3,14,15)            0.0011         estimate D2E/DX2                !
 ! D44   D(2,3,14,21)          179.9985         estimate D2E/DX2                !
 ! D45   D(4,3,14,15)         -179.9992         estimate D2E/DX2                !
 ! D46   D(4,3,14,21)           -0.0017         estimate D2E/DX2                !
 ! D47   D(3,4,5,1)             -0.0061         estimate D2E/DX2                !
 ! D48   D(3,4,5,6)           -179.9891         estimate D2E/DX2                !
 ! D49   D(9,4,5,1)            179.9873         estimate D2E/DX2                !
 ! D50   D(9,4,5,6)              0.0043         estimate D2E/DX2                !
 ! D51   D(3,4,9,8)            179.9962         estimate D2E/DX2                !
 ! D52   D(3,4,9,10)            -0.0042         estimate D2E/DX2                !
 ! D53   D(5,4,9,8)              0.0045         estimate D2E/DX2                !
 ! D54   D(5,4,9,10)          -179.996          estimate D2E/DX2                !
 ! D55   D(1,5,6,7)           -179.9871         estimate D2E/DX2                !
 ! D56   D(1,5,6,13)             0.0049         estimate D2E/DX2                !
 ! D57   D(4,5,6,7)             -0.0075         estimate D2E/DX2                !
 ! D58   D(4,5,6,13)           179.9845         estimate D2E/DX2                !
 ! D59   D(5,6,7,8)              0.002          estimate D2E/DX2                !
 ! D60   D(5,6,7,12)           179.9989         estimate D2E/DX2                !
 ! D61   D(13,6,7,8)          -179.9901         estimate D2E/DX2                !
 ! D62   D(13,6,7,12)            0.0068         estimate D2E/DX2                !
 ! D63   D(6,7,8,9)              0.0069         estimate D2E/DX2                !
 ! D64   D(6,7,8,11)          -179.9985         estimate D2E/DX2                !
 ! D65   D(12,7,8,9)          -179.9901         estimate D2E/DX2                !
 ! D66   D(12,7,8,11)            0.0046         estimate D2E/DX2                !
 ! D67   D(7,8,9,4)             -0.01           estimate D2E/DX2                !
 ! D68   D(7,8,9,10)           179.9904         estimate D2E/DX2                !
 ! D69   D(11,8,9,4)           179.9953         estimate D2E/DX2                !
 ! D70   D(11,8,9,10)           -0.0042         estimate D2E/DX2                !
 ! D71   D(3,14,15,16)          -0.005          estimate D2E/DX2                !
 ! D72   D(3,14,15,20)         179.998          estimate D2E/DX2                !
 ! D73   D(21,14,15,16)        179.9975         estimate D2E/DX2                !
 ! D74   D(21,14,15,20)          0.0005         estimate D2E/DX2                !
 ! D75   D(14,15,16,17)          0.0043         estimate D2E/DX2                !
 ! D76   D(14,15,16,19)       -179.9998         estimate D2E/DX2                !
 ! D77   D(20,15,16,17)       -179.9987         estimate D2E/DX2                !
 ! D78   D(20,15,16,19)         -0.0028         estimate D2E/DX2                !
 ! D79   D(15,16,17,2)           0.0004         estimate D2E/DX2                !
 ! D80   D(15,16,17,18)        179.9958         estimate D2E/DX2                !
 ! D81   D(19,16,17,2)        -179.9955         estimate D2E/DX2                !
 ! D82   D(19,16,17,18)         -0.0001         estimate D2E/DX2                !
 --------------------------------------------------------------------------------
 Trust Radius=3.00D-01 FncErr=1.00D-07 GrdErr=1.00D-06 EigMax=2.50D+02 EigMin=1.00D-04
 Number of steps in this run=    174 maximum allowed number of steps=    174.
 GradGradGradGradGradGradGradGradGradGradGradGradGradGradGradGradGradGrad

 Leave Link  103 at Fri Mar 13 23:22:38 2026, MaxMem=   104857600 cpu:               0.0 elap:               0.0
 (Enter /sw/cluster/pub/apps//g16/l202.exe)
                          Input orientation:                          
 ---------------------------------------------------------------------
 Center     Atomic      Atomic             Coordinates (Angstroms)
 Number     Number       Type             X           Y           Z
 ---------------------------------------------------------------------
      1          6           0        0.009757    0.004675    0.039896
      2          6           0        1.537621   -0.044423    0.052119
      3          6           0        2.082553    1.255147    0.032779
      4          6           0        0.978003    2.223085    0.007465
      5          6           0       -0.238959    1.512514    0.011312
      6          6           0       -1.449284    2.196606   -0.009929
      7          6           0       -1.442284    3.596408   -0.034947
      8          6           0       -0.233743    4.300575   -0.038624
      9          6           0        0.985297    3.619162   -0.017553
     10          1           0        1.921761    4.171435   -0.020677
     11          1           0       -0.243293    5.387194   -0.058130
     12          1           0       -2.383239    4.139964   -0.051688
     13          1           0       -2.394560    1.658417   -0.007441
     14          6           0        3.465719    1.446136    0.039353
     15          6           0        4.301536    0.327427    0.065408
     16          6           0        3.762060   -0.962970    0.084706
     17          6           0        2.375132   -1.154071    0.078123
     18          1           0        1.966173   -2.161849    0.093214
     19          1           0        4.424676   -1.824180    0.104905
     20          1           0        5.380166    0.460619    0.070783
     21          1           0        3.889652    2.447112    0.024463
     22          6           0       -0.584656   -0.641007    1.312001
     23          1           0       -0.189582   -0.167328    2.216301
     24          1           0       -1.676341   -0.541982    1.322677
     25          1           0       -0.343820   -1.709673    1.352070
     26          6           0       -0.565371   -0.685656   -1.217553
     27          1           0       -0.324895   -1.755220   -1.216038
     28          1           0       -1.656675   -0.586603   -1.248819
     29          1           0       -0.155754   -0.244505   -2.131788
 ---------------------------------------------------------------------
                    Distance matrix (angstroms):
                    1          2          3          4          5
     1  C    0.000000
     2  C    1.528702   0.000000
     3  C    2.420788   1.409329   0.000000
     4  C    2.420722   2.335971   1.468869   0.000000
     5  C    1.528481   2.362616   2.335833   1.409228   0.000000
     6  C    2.633599   3.734657   3.655413   2.427494   1.390439
     7  C    3.874864   4.705642   4.232088   2.783093   2.406812
     8  C    4.303512   4.693077   3.826873   2.405497   2.788513
     9  C    3.744262   3.705640   2.606736   1.396320   2.436719
    10  H    4.584901   4.233949   2.921206   2.165072   3.426309
    11  H    5.389356   5.717191   4.742535   3.392264   3.875305
    12  H    4.778643   5.735243   5.317199   3.869867   3.391961
    13  H    2.918535   4.285471   4.495418   3.419540   2.160615
    14  C    3.744527   2.437107   1.396305   2.606415   3.705379
    15  C    4.303973   2.788848   2.405330   3.826584   4.692915
    16  C    3.875322   2.406848   2.782711   4.231771   4.705482
    17  C    2.634227   1.390475   2.427342   3.655427   3.734784
    18  H    2.919629   2.160750   3.419511   4.495718   4.286054
    19  H    4.779168   3.391962   3.869496   5.316898   5.735135
    20  H    5.389817   3.875638   3.392193   4.742292   5.717043
    21  H    4.584683   3.426450   2.164823   2.920304   4.233093
    22  C    1.545472   2.539148   3.513661   3.513793   2.539478
    23  H    2.192273   2.771646   3.457427   3.457786   2.772415
    24  H    2.187987   3.491623   4.361513   4.052273   2.829611
    25  H    2.187649   2.828913   4.051910   4.361395   3.491578
    26  C    1.545480   2.538862   3.513054   3.513324   2.539410
    27  H    2.187828   2.829137   4.051871   4.361355   3.491684
    28  H    2.188011   3.491407   4.360775   4.051435   2.829159
    29  H    2.192190   2.770740   3.456056   3.456994   2.772529
                    6          7          8          9         10
     6  C    0.000000
     7  C    1.400043   0.000000
     8  C    2.430031   1.398727   0.000000
     9  C    2.819736   2.427750   1.396720   0.000000
    10  H    3.906918   3.412867   2.159444   1.087189   0.000000
    11  H    3.411245   2.155233   1.086836   2.153373   2.483331
    12  H    2.156538   1.086798   2.155528   3.408729   4.305227
    13  H    1.087750   2.159490   3.413371   3.907436   4.994603
    14  C    4.972212   5.358888   4.673320   3.298147   3.132837
    15  C    6.047432   6.609673   6.030380   4.673312   4.521851
    16  C    6.095079   6.920075   6.609581   5.358806   5.455265
    17  C    5.085366   6.095285   6.047563   4.972379   5.345682
    18  H    5.538241   6.692647   6.827879   5.864680   6.334464
    19  H    7.119221   7.988964   7.696369   6.440054   6.498289
    20  H    7.047095   7.509339   6.802441   5.412862   5.073370
    21  H    5.344920   5.454718   4.521249   3.132211   2.616854
    22  C    3.247634   4.528298   5.134838   4.730910   5.587285
    23  H    3.482978   4.561040   5.004877   4.550599   5.318525
    24  H    3.054056   4.361674   5.233029   5.118169   6.080069
    25  H    4.282068   5.593294   6.170027   5.660292   6.450172
    26  C    3.247629   4.528091   5.134428   4.730331   5.586562
    27  H    4.282041   5.593162   6.169868   5.660119   6.449930
    28  H    3.053541   4.360852   5.231999   5.117078   6.078854
    29  H    3.483465   4.561197   5.004515   4.549715   5.317272
                   11         12         13         14         15
    11  H    0.000000
    12  H    2.476892   0.000000
    13  H    4.305148   2.481967   0.000000
    14  C    5.412782   6.440133   5.864309   0.000000
    15  C    6.802351   7.696452   6.827484   1.396703   0.000000
    16  C    7.509184   7.988945   6.692095   2.427688   1.398761
    17  C    7.047188   7.119393   5.537813   2.819922   2.430233
    18  H    7.867191   7.658409   5.798324   3.907569   3.413384
    19  H    8.591882   9.052251   7.657877   3.408645   2.155490
    20  H    7.477369   8.592033   7.866842   2.153448   1.086836
    21  H    5.072685   6.497746   6.333591   1.087149   2.159720
    22  C    6.191365   5.286987   3.209989   4.730892   5.134855
    23  H    6.002386   5.339351   3.624955   4.550120   5.004125
    24  H    6.254229   4.930436   2.669608   5.660416   6.170220
    25  H    7.236317   6.352009   4.171071   5.118100   5.233030
    26  C    6.190921   5.286823   3.210137   4.730120   5.134112
    27  H    7.236124   6.351825   4.170988   5.117953   5.232914
    28  H    6.253130   4.929650   2.669384   5.659535   6.169516
    29  H    6.001979   5.339670   3.625771   4.548317   5.002221
                   16         17         18         19         20
    16  C    0.000000
    17  C    1.400047   0.000000
    18  H    2.159304   1.087700   0.000000
    19  H    1.086808   2.156477   2.481611   0.000000
    20  H    2.155242   3.411379   4.305019   2.476779   0.000000
    21  H    3.413000   3.907067   4.994699   4.305422   2.483935
    22  C    4.528118   3.247466   3.210161   5.286812   6.191389
    23  H    4.559848   3.481842   3.623933   5.338027   6.001638
    24  H    5.593390   4.282289   4.171745   6.352118   7.236487
    25  H    4.361425   3.053577   2.669316   4.930222   6.254269
    26  C    4.527631   3.247268   3.210291   5.286369   6.190571
    27  H    4.361513   3.053912   2.669921   4.930322   6.254084
    28  H    5.593088   4.282320   4.172227   6.351928   7.235686
    29  H    4.558323   3.480862   3.623454   5.336526   5.999577
                   21         22         23         24         25
    21  H    0.000000
    22  C    5.586919   0.000000
    23  H    5.317857   1.094630   0.000000
    24  H    6.449831   1.096219   1.774650   0.000000
    25  H    6.079777   1.096200   1.774687   1.771998   0.000000
    26  C    5.586060   2.530022   3.493027   2.776268   2.775006
    27  H    6.079543   2.774874   3.784265   3.121446   2.568582
    28  H    6.448753   2.776686   3.786187   2.571958   3.122419
    29  H    5.315969   3.492972   4.348905   3.786028   3.784092
                   26         27         28         29
    26  C    0.000000
    27  H    1.096266   0.000000
    28  H    1.096236   1.772111   0.000000
    29  H    1.094635   1.774674   1.774663   0.000000
 Stoichiometry    C15H14
 Framework group  C1[X(C15H14)]
 Deg. of freedom    81
 Full point group                 C1      NOp   1
 Largest Abelian subgroup         C1      NOp   1
 Largest concise Abelian subgroup C1      NOp   1
                         Standard orientation:                         
 ---------------------------------------------------------------------
 Center     Atomic      Atomic             Coordinates (Angstroms)
 Number     Number       Type             X           Y           Z
 ---------------------------------------------------------------------
      1          6           0       -0.000255    1.416281   -0.000029
      2          6           0        1.181301    0.446305   -0.000200
      3          6           0        0.734475   -0.890315   -0.000099
      4          6           0       -0.734394   -0.890434   -0.000161
      5          6           0       -1.181315    0.446048   -0.000211
      6          6           0       -2.542631    0.729135   -0.000047
      7          6           0       -3.460138   -0.328363    0.000006
      8          6           0       -3.015327   -1.654477   -0.000062
      9          6           0       -1.649225   -1.945324   -0.000040
     10          1           0       -1.308930   -2.977884    0.000064
     11          1           0       -3.738826   -2.465502   -0.000045
     12          1           0       -4.526202   -0.117091    0.000151
     13          1           0       -2.898844    1.756906    0.000169
     14          6           0        1.648922   -1.945519    0.000031
     15          6           0        3.015053   -1.654892    0.000081
     16          6           0        3.459938   -0.328766   -0.000102
     17          6           0        2.542735    0.729001   -0.000247
     18          1           0        2.899480    1.756535   -0.000320
     19          1           0        4.526048   -0.117677   -0.000064
     20          1           0        3.738543   -2.465924    0.000215
     21          1           0        1.307924   -2.977805    0.000133
     22          6           0        0.000152    2.304579   -1.264707
     23          1           0        0.000770    1.695770   -2.174413
     24          1           0       -0.885888    2.949725   -1.285133
     25          1           0        0.886110    2.949841   -1.283912
     26          6           0        0.000374    2.303644    1.265315
     27          1           0        0.885987    2.949486    1.284669
     28          1           0       -0.886122    2.948156    1.286825
     29          1           0        0.001946    1.694038    2.174492
 ---------------------------------------------------------------------
 Rotational constants (GHZ):           1.0556965           0.5493218           0.3919087
 Leave Link  202 at Fri Mar 13 23:22:38 2026, MaxMem=   104857600 cpu:               0.0 elap:               0.0
 (Enter /sw/cluster/pub/apps//g16/l301.exe)
 Standard basis: 6-31+G(d) (6D, 7F)
 Ernie: Thresh=  0.10000D-02 Tol=  0.10000D-05 Strict=F.
 There are   313 symmetry adapted cartesian basis functions of A   symmetry.
 There are   313 symmetry adapted basis functions of A   symmetry.
   313 basis functions,   536 primitive gaussians,   313 cartesian basis functions
    52 alpha electrons       52 beta electrons
       nuclear repulsion energy       926.0282672228 Hartrees.
 IExCor=  402 DFT=T Ex+Corr=B3LYP ExCW=0 ScaHFX=  0.200000
 ScaDFX=  0.800000  0.720000  1.000000  0.810000 ScalE2=  1.000000  1.000000
 IRadAn=      5 IRanWt=     -1 IRanGd=            0 ICorTp=0 IEmpDi=  4
 NAtoms=   29 NActive=   29 NUniq=   29 SFac= 1.00D+00 NAtFMM=   60 NAOKFM=F Big=F
 Integral buffers will be    131072 words long.
 Raffenetti 2 integral format.
 Two-electron integral symmetry is turned on.
 Leave Link  301 at Fri Mar 13 23:22:38 2026, MaxMem=   104857600 cpu:               0.0 elap:               0.0
 (Enter /sw/cluster/pub/apps//g16/l302.exe)
 NPDir=0 NMtPBC=     1 NCelOv=     1 NCel=       1 NClECP=     1 NCelD=      1
         NCelK=      1 NCelE2=     1 NClLst=     1 CellRange=     0.0.
 One-electron integrals computed using PRISM.
 One-electron integral symmetry used in STVInt
 NBasis=   313 RedAO= T EigKep=  1.21D-06  NBF=   313
 NBsUse=   309 1.00D-06 EigRej=  7.55D-07 NBFU=   309
 Precomputing XC quadrature grid using
 IXCGrd= 4 IRadAn=           5 IRanWt=          -1 IRanGd=           0 AccXCQ= 0.00D+00.
 Generated NRdTot=       0 NPtTot=           0 NUsed=           0 NTot=          32
 NSgBfM=   312   312   312   312   312 MxSgAt=    29 MxSgA2=    29.
 Leave Link  302 at Fri Mar 13 23:22:38 2026, MaxMem=   104857600 cpu:               0.4 elap:               0.4
 (Enter /sw/cluster/pub/apps//g16/l303.exe)
 DipDrv:  MaxL=1.
 Leave Link  303 at Fri Mar 13 23:22:38 2026, MaxMem=   104857600 cpu:               0.0 elap:               0.0
 (Enter /sw/cluster/pub/apps//g16/l401.exe)
 ExpMin= 4.38D-02 ExpMax= 3.05D+03 ExpMxC= 4.57D+02 IAcc=3 IRadAn=         5 AccDes= 0.00D+00
 Harris functional with IExCor=  402 and IRadAn=       5 diagonalized for initial guess.
 HarFok:  IExCor=  402 AccDes= 0.00D+00 IRadAn=         5 IDoV= 1 UseB2=F ITyADJ=14
 ICtDFT=  3500011 ScaDFX=  1.000000  1.000000  1.000000  1.000000
 FoFCou: FMM=F IPFlag=           0 FMFlag=      100000 FMFlg1=           0
         NFxFlg=           0 DoJE=T BraDBF=F KetDBF=T FulRan=T
         wScrn=  0.000000 ICntrl=       500 IOpCl=  0 I1Cent=   200000004 NGrid=           0
         NMat0=    1 NMatS0=      1 NMatT0=    0 NMatD0=    1 NMtDS0=    0 NMtDT0=    0
 Petite list used in FoFCou.
 Harris En= -580.096808268105    
 JPrj=0 DoOrth=F DoCkMO=F.
 Leave Link  401 at Fri Mar 13 23:22:43 2026, MaxMem=   104857600 cpu:               4.5 elap:               4.5
 (Enter /sw/cluster/pub/apps//g16/l502.exe)
 Integral symmetry usage will be decided dynamically.
 Closed shell SCF:
 Using DIIS extrapolation, IDIIS=  1040.
 NGot=   104857600 LenX=   104656419 LenY=   104558009
 Requested convergence on RMS density matrix=1.00D-08 within 128 cycles.
 Requested convergence on MAX density matrix=1.00D-06.
 Requested convergence on             energy=1.00D-06.
 No special actions if energy rises.
 Fock matrices will be formed incrementally for  20 cycles.

 Cycle   1  Pass 1  IDiag  1:
 FoFJK:  IHMeth= 1 ICntrl=       0 DoSepK=F KAlg= 0 I1Cent=           0 FoldK=F
 IRaf= 930000000 NMat=       1 IRICut=       1 DoRegI=T DoRafI=F ISym2E= 0 IDoP0=0 IntGTp=1.
 FoFCou: FMM=F IPFlag=           0 FMFlag=      100000 FMFlg1=           0
         NFxFlg=           0 DoJE=F BraDBF=F KetDBF=F FulRan=T
         wScrn=  0.000000 ICntrl=         0 IOpCl=  0 I1Cent=           0 NGrid=           0
         NMat0=    1 NMatS0=      1 NMatT0=    0 NMatD0=    1 NMtDS0=    0 NMtDT0=    0
 Symmetry not used in FoFCou.
 E= -579.708687083851    
 DIIS: error= 4.34D-02 at cycle   1 NSaved=   1.
 NSaved= 1 IEnMin= 1 EnMin= -579.708687083851     IErMin= 1 ErrMin= 4.34D-02
 ErrMax= 4.34D-02  0.00D+00 EMaxC= 1.00D-01 BMatC= 3.23D-01 BMatP= 3.23D-01
 IDIUse=3 WtCom= 5.66D-01 WtEn= 4.34D-01
 Coeff-Com:  0.100D+01
 Coeff-En:   0.100D+01
 Coeff:      0.100D+01
 Gap=     0.181 Goal=   None    Shift=    0.000
 GapD=    0.181 DampG=1.000 DampE=0.500 DampFc=0.5000 IDamp=-1.
 Damping current iteration by 5.00D-01
 RMSDP=4.95D-02 MaxDP=2.49D+00              OVMax= 1.81D-01

 Cycle   2  Pass 1  IDiag  1:
 RMSU=  2.42D-02    CP:  1.07D+00
 E= -579.873760375517     Delta-E=       -0.165073291666 Rises=F Damp=T
 DIIS: error= 9.76D-03 at cycle   2 NSaved=   2.
 NSaved= 2 IEnMin= 2 EnMin= -579.873760375517     IErMin= 2 ErrMin= 9.76D-03
 ErrMax= 9.76D-03  0.00D+00 EMaxC= 1.00D-01 BMatC= 1.67D-02 BMatP= 3.23D-01
 IDIUse=3 WtCom= 9.02D-01 WtEn= 9.76D-02
 Coeff-Com:  0.193D-01 0.981D+00
 Coeff-En:   0.574D-01 0.943D+00
 Coeff:      0.230D-01 0.977D+00
 Gap=     0.227 Goal=   None    Shift=    0.000
 RMSDP=3.66D-02 MaxDP=2.19D+00 DE=-1.65D-01 OVMax= 1.05D-01

 Cycle   3  Pass 1  IDiag  1:
 RMSU=  1.07D-02    CP:  6.55D-01  4.27D-01
 E= -580.065857291189     Delta-E=       -0.192096915672 Rises=F Damp=F
 DIIS: error= 2.95D-03 at cycle   3 NSaved=   3.
 NSaved= 3 IEnMin= 3 EnMin= -580.065857291189     IErMin= 3 ErrMin= 2.95D-03
 ErrMax= 2.95D-03  0.00D+00 EMaxC= 1.00D-01 BMatC= 3.56D-03 BMatP= 1.67D-02
 IDIUse=3 WtCom= 9.70D-01 WtEn= 2.95D-02
 Coeff-Com: -0.424D-01 0.267D+00 0.776D+00
 Coeff-En:   0.000D+00 0.000D+00 0.100D+01
 Coeff:     -0.411D-01 0.259D+00 0.782D+00
 Gap=     0.179 Goal=   None    Shift=    0.000
 RMSDP=4.63D-03 MaxDP=3.27D-01 DE=-1.92D-01 OVMax= 3.06D-02

 Cycle   4  Pass 1  IDiag  1:
 RMSU=  3.08D-03    CP:  6.81D-01  4.61D-01  7.54D-01
 E= -580.067349951288     Delta-E=       -0.001492660100 Rises=F Damp=F
 DIIS: error= 3.85D-03 at cycle   4 NSaved=   4.
 NSaved= 4 IEnMin= 4 EnMin= -580.067349951288     IErMin= 3 ErrMin= 2.95D-03
 ErrMax= 3.85D-03  0.00D+00 EMaxC= 1.00D-01 BMatC= 2.11D-03 BMatP= 3.56D-03
 IDIUse=3 WtCom= 9.61D-01 WtEn= 3.85D-02
 Coeff-Com: -0.280D-01 0.115D+00 0.486D+00 0.426D+00
 Coeff-En:   0.000D+00 0.000D+00 0.377D+00 0.623D+00
 Coeff:     -0.269D-01 0.111D+00 0.482D+00 0.434D+00
 Gap=     0.180 Goal=   None    Shift=    0.000
 RMSDP=1.79D-03 MaxDP=1.24D-01 DE=-1.49D-03 OVMax= 2.18D-02

 Cycle   5  Pass 1  IDiag  1:
 RMSU=  7.83D-04    CP:  6.74D-01  4.80D-01  8.49D-01  6.81D-01
 E= -580.069519094461     Delta-E=       -0.002169143173 Rises=F Damp=F
 DIIS: error= 1.20D-03 at cycle   5 NSaved=   5.
 NSaved= 5 IEnMin= 5 EnMin= -580.069519094461     IErMin= 5 ErrMin= 1.20D-03
 ErrMax= 1.20D-03  0.00D+00 EMaxC= 1.00D-01 BMatC= 1.81D-04 BMatP= 2.11D-03
 IDIUse=3 WtCom= 9.88D-01 WtEn= 1.20D-02
 Coeff-Com: -0.815D-02 0.174D-01 0.136D+00 0.253D+00 0.602D+00
 Coeff-En:   0.000D+00 0.000D+00 0.000D+00 0.755D-01 0.924D+00
 Coeff:     -0.805D-02 0.171D-01 0.135D+00 0.251D+00 0.606D+00
 Gap=     0.180 Goal=   None    Shift=    0.000
 RMSDP=3.22D-04 MaxDP=1.82D-02 DE=-2.17D-03 OVMax= 5.57D-03

 Cycle   6  Pass 1  IDiag  1:
 RMSU=  1.45D-04    CP:  6.75D-01  4.79D-01  8.43D-01  6.92D-01  6.85D-01
 E= -580.069707176099     Delta-E=       -0.000188081638 Rises=F Damp=F
 DIIS: error= 2.18D-04 at cycle   6 NSaved=   6.
 NSaved= 6 IEnMin= 6 EnMin= -580.069707176099     IErMin= 6 ErrMin= 2.18D-04
 ErrMax= 2.18D-04  0.00D+00 EMaxC= 1.00D-01 BMatC= 1.14D-05 BMatP= 1.81D-04
 IDIUse=3 WtCom= 9.98D-01 WtEn= 2.18D-03
 Coeff-Com: -0.389D-02 0.662D-02 0.641D-01 0.135D+00 0.362D+00 0.436D+00
 Coeff-En:   0.000D+00 0.000D+00 0.000D+00 0.000D+00 0.000D+00 0.100D+01
 Coeff:     -0.388D-02 0.661D-02 0.640D-01 0.134D+00 0.362D+00 0.437D+00
 Gap=     0.180 Goal=   None    Shift=    0.000
 RMSDP=7.55D-05 MaxDP=3.35D-03 DE=-1.88D-04 OVMax= 1.16D-03

 Cycle   7  Pass 1  IDiag  1:
 RMSU=  4.07D-05    CP:  6.75D-01  4.79D-01  8.46D-01  6.80D-01  6.99D-01
                    CP:  7.30D-01
 E= -580.069719115112     Delta-E=       -0.000011939013 Rises=F Damp=F
 DIIS: error= 5.23D-05 at cycle   7 NSaved=   7.
 NSaved= 7 IEnMin= 7 EnMin= -580.069719115112     IErMin= 7 ErrMin= 5.23D-05
 ErrMax= 5.23D-05  0.00D+00 EMaxC= 1.00D-01 BMatC= 3.97D-07 BMatP= 1.14D-05
 IDIUse=1 WtCom= 1.00D+00 WtEn= 0.00D+00
 Coeff-Com: -0.966D-03 0.117D-02 0.162D-01 0.376D-01 0.107D+00 0.202D+00
 Coeff-Com:  0.637D+00
 Coeff:     -0.966D-03 0.117D-02 0.162D-01 0.376D-01 0.107D+00 0.202D+00
 Coeff:      0.637D+00
 Gap=     0.180 Goal=   None    Shift=    0.000
 RMSDP=2.78D-05 MaxDP=1.68D-03 DE=-1.19D-05 OVMax= 3.00D-04

 Cycle   8  Pass 1  IDiag  1:
 RMSU=  1.39D-05    CP:  6.75D-01  4.79D-01  8.45D-01  6.84D-01  7.06D-01
                    CP:  7.04D-01  9.01D-01
 E= -580.069719369881     Delta-E=       -0.000000254769 Rises=F Damp=F
 DIIS: error= 3.28D-05 at cycle   8 NSaved=   8.
 NSaved= 8 IEnMin= 8 EnMin= -580.069719369881     IErMin= 8 ErrMin= 3.28D-05
 ErrMax= 3.28D-05  0.00D+00 EMaxC= 1.00D-01 BMatC= 1.55D-07 BMatP= 3.97D-07
 IDIUse=1 WtCom= 1.00D+00 WtEn= 0.00D+00
 Coeff-Com: -0.264D-03 0.141D-03 0.437D-02 0.121D-01 0.370D-01 0.951D-01
 Coeff-Com:  0.433D+00 0.418D+00
 Coeff:     -0.264D-03 0.141D-03 0.437D-02 0.121D-01 0.370D-01 0.951D-01
 Coeff:      0.433D+00 0.418D+00
 Gap=     0.180 Goal=   None    Shift=    0.000
 RMSDP=1.35D-05 MaxDP=9.08D-04 DE=-2.55D-07 OVMax= 1.48D-04

 Cycle   9  Pass 1  IDiag  1:
 RMSU=  7.49D-06    CP:  6.75D-01  4.79D-01  8.46D-01  6.82D-01  7.06D-01
                    CP:  7.17D-01  8.92D-01  6.27D-01
 E= -580.069719541050     Delta-E=       -0.000000171169 Rises=F Damp=F
 DIIS: error= 5.14D-06 at cycle   9 NSaved=   9.
 NSaved= 9 IEnMin= 9 EnMin= -580.069719541050     IErMin= 9 ErrMin= 5.14D-06
 ErrMax= 5.14D-06  0.00D+00 EMaxC= 1.00D-01 BMatC= 4.27D-09 BMatP= 1.55D-07
 IDIUse=1 WtCom= 1.00D+00 WtEn= 0.00D+00
 Coeff-Com:  0.186D-04-0.928D-04-0.400D-03-0.124D-03 0.309D-03 0.869D-02
 Coeff-Com:  0.708D-01 0.174D+00 0.746D+00
 Coeff:      0.186D-04-0.928D-04-0.400D-03-0.124D-03 0.309D-03 0.869D-02
 Coeff:      0.708D-01 0.174D+00 0.746D+00
 Gap=     0.180 Goal=   None    Shift=    0.000
 RMSDP=4.33D-06 MaxDP=3.12D-04 DE=-1.71D-07 OVMax= 2.15D-05

 Cycle  10  Pass 1  IDiag  1:
 RMSU=  1.12D-06    CP:  6.75D-01  4.79D-01  8.46D-01  6.82D-01  7.06D-01
                    CP:  7.17D-01  8.97D-01  6.89D-01  7.59D-01
 E= -580.069719545663     Delta-E=       -0.000000004613 Rises=F Damp=F
 DIIS: error= 9.93D-07 at cycle  10 NSaved=  10.
 NSaved=10 IEnMin=10 EnMin= -580.069719545663     IErMin=10 ErrMin= 9.93D-07
 ErrMax= 9.93D-07  0.00D+00 EMaxC= 1.00D-01 BMatC= 2.49D-10 BMatP= 4.27D-09
 IDIUse=1 WtCom= 1.00D+00 WtEn= 0.00D+00
 Coeff-Com:  0.137D-04-0.377D-04-0.306D-03-0.390D-03-0.953D-03 0.919D-03
 Coeff-Com:  0.175D-01 0.660D-01 0.340D+00 0.577D+00
 Coeff:      0.137D-04-0.377D-04-0.306D-03-0.390D-03-0.953D-03 0.919D-03
 Coeff:      0.175D-01 0.660D-01 0.340D+00 0.577D+00
 Gap=     0.180 Goal=   None    Shift=    0.000
 RMSDP=5.93D-07 MaxDP=3.43D-05 DE=-4.61D-09 OVMax= 3.83D-06

 Cycle  11  Pass 1  IDiag  1:
 RMSU=  1.97D-07    CP:  6.75D-01  4.79D-01  8.46D-01  6.82D-01  7.06D-01
                    CP:  7.16D-01  8.97D-01  6.89D-01  7.79D-01  8.74D-01
 E= -580.069719545907     Delta-E=       -0.000000000244 Rises=F Damp=F
 DIIS: error= 2.49D-07 at cycle  11 NSaved=  11.
 NSaved=11 IEnMin=11 EnMin= -580.069719545907     IErMin=11 ErrMin= 2.49D-07
 ErrMax= 2.49D-07  0.00D+00 EMaxC= 1.00D-01 BMatC= 1.88D-11 BMatP= 2.49D-10
 IDIUse=1 WtCom= 1.00D+00 WtEn= 0.00D+00
 Coeff-Com:  0.375D-05-0.763D-05-0.100D-03-0.152D-03-0.436D-03-0.444D-03
 Coeff-Com:  0.761D-03 0.124D-01 0.781D-01 0.255D+00 0.655D+00
 Coeff:      0.375D-05-0.763D-05-0.100D-03-0.152D-03-0.436D-03-0.444D-03
 Coeff:      0.761D-03 0.124D-01 0.781D-01 0.255D+00 0.655D+00
 Gap=     0.180 Goal=   None    Shift=    0.000
 RMSDP=1.42D-07 MaxDP=1.06D-05 DE=-2.44D-10 OVMax= 9.35D-07

 Cycle  12  Pass 1  IDiag  1:
 RMSU=  5.90D-08    CP:  6.75D-01  4.79D-01  8.46D-01  6.82D-01  7.06D-01
                    CP:  7.16D-01  8.97D-01  6.90D-01  7.85D-01  8.41D-01
                    CP:  8.86D-01
 E= -580.069719545922     Delta-E=       -0.000000000015 Rises=F Damp=F
 DIIS: error= 5.61D-08 at cycle  12 NSaved=  12.
 NSaved=12 IEnMin=12 EnMin= -580.069719545922     IErMin=12 ErrMin= 5.61D-08
 ErrMax= 5.61D-08  0.00D+00 EMaxC= 1.00D-01 BMatC= 1.23D-12 BMatP= 1.88D-11
 IDIUse=1 WtCom= 1.00D+00 WtEn= 0.00D+00
 Coeff-Com:  0.861D-06-0.148D-05-0.299D-04-0.469D-04-0.140D-03-0.253D-03
 Coeff-Com: -0.489D-03 0.225D-02 0.189D-01 0.864D-01 0.296D+00 0.597D+00
 Coeff:      0.861D-06-0.148D-05-0.299D-04-0.469D-04-0.140D-03-0.253D-03
 Coeff:     -0.489D-03 0.225D-02 0.189D-01 0.864D-01 0.296D+00 0.597D+00
 Gap=     0.180 Goal=   None    Shift=    0.000
 RMSDP=4.36D-08 MaxDP=2.59D-06 DE=-1.50D-11 OVMax= 2.78D-07

 Cycle  13  Pass 1  IDiag  1:
 RMSU=  1.32D-08    CP:  6.75D-01  4.79D-01  8.46D-01  6.82D-01  7.06D-01
                    CP:  7.16D-01  8.97D-01  6.90D-01  7.85D-01  8.49D-01
                    CP:  8.89D-01  8.12D-01
 E= -580.069719545921     Delta-E=        0.000000000000 Rises=F Damp=F
 DIIS: error= 1.89D-08 at cycle  13 NSaved=  13.
 NSaved=13 IEnMin=12 EnMin= -580.069719545922     IErMin=13 ErrMin= 1.89D-08
 ErrMax= 1.89D-08  0.00D+00 EMaxC= 1.00D-01 BMatC= 1.49D-13 BMatP= 1.23D-12
 IDIUse=1 WtCom= 1.00D+00 WtEn= 0.00D+00
 Coeff-Com: -0.135D-07 0.197D-06-0.385D-05-0.639D-05-0.206D-04-0.726D-04
 Coeff-Com: -0.234D-03-0.205D-03 0.101D-02 0.124D-01 0.664D-01 0.298D+00
 Coeff-Com:  0.623D+00
 Coeff:     -0.135D-07 0.197D-06-0.385D-05-0.639D-05-0.206D-04-0.726D-04
 Coeff:     -0.234D-03-0.205D-03 0.101D-02 0.124D-01 0.664D-01 0.298D+00
 Coeff:      0.623D+00
 Gap=     0.180 Goal=   None    Shift=    0.000
 RMSDP=9.62D-09 MaxDP=4.76D-07 DE= 4.55D-13 OVMax= 8.66D-08

 SCF Done:  E(RB3LYP) =  -580.069719546     A.U. after   13 cycles
            NFock= 13  Conv=0.96D-08     -V/T= 2.0098
 KE= 5.744176806372D+02 PE=-3.193519831696D+03 EE= 1.113004164291D+03
 Leave Link  502 at Fri Mar 13 23:25:00 2026, MaxMem=   104857600 cpu:             136.6 elap:             137.0
 (Enter /sw/cluster/pub/apps//g16/l601.exe)
 Copying SCF densities to generalized density rwf, IOpCl= 0 IROHF=0.

 **********************************************************************

            Population analysis using the SCF density.

 **********************************************************************

 Orbital symmetries:
       Occupied  (A) (A) (A) (A) (A) (A) (A) (A) (A) (A) (A) (A)
                 (A) (A) (A) (A) (A) (A) (A) (A) (A) (A) (A) (A)
                 (A) (A) (A) (A) (A) (A) (A) (A) (A) (A) (A) (A)
                 (A) (A) (A) (A) (A) (A) (A) (A) (A) (A) (A) (A)
                 (A) (A) (A) (A)
       Virtual   (A) (A) (A) (A) (A) (A) (A) (A) (A) (A) (A) (A)
                 (A) (A) (A) (A) (A) (A) (A) (A) (A) (A) (A) (A)
                 (A) (A) (A) (A) (A) (A) (A) (A) (A) (A) (A) (A)
                 (A) (A) (A) (A) (A) (A) (A) (A) (A) (A) (A) (A)
                 (A) (A) (A) (A) (A) (A) (A) (A) (A) (A) (A) (A)
                 (A) (A) (A) (A) (A) (A) (A) (A) (A) (A) (A) (A)
                 (A) (A) (A) (A) (A) (A) (A) (A) (A) (A) (A) (A)
                 (A) (A) (A) (A) (A) (A) (A) (A) (A) (A) (A) (A)
                 (A) (A) (A) (A) (A) (A) (A) (A) (A) (A) (A) (A)
                 (A) (A) (A) (A) (A) (A) (A) (A) (A) (A) (A) (A)
                 (A) (A) (A) (A) (A) (A) (A) (A) (A) (A) (A) (A)
                 (A) (A) (A) (A) (A) (A) (A) (A) (A) (A) (A) (A)
                 (A) (A) (A) (A) (A) (A) (A) (A) (A) (A) (A) (A)
                 (A) (A) (A) (A) (A) (A) (A) (A) (A) (A) (A) (A)
                 (A) (A) (A) (A) (A) (A) (A) (A) (A) (A) (A) (A)
                 (A) (A) (A) (A) (A) (A) (A) (A) (A) (A) (A) (A)
                 (A) (A) (A) (A) (A) (A) (A) (A) (A) (A) (A) (A)
                 (A) (A) (A) (A) (A) (A) (A) (A) (A) (A) (A) (A)
                 (A) (A) (A) (A) (A) (A) (A) (A) (A) (A) (A) (A)
                 (A) (A) (A) (A) (A) (A) (A) (A) (A) (A) (A) (A)
                 (A) (A) (A) (A) (A) (A) (A) (A) (A) (A) (A) (A)
                 (A) (A) (A) (A) (A)
 The electronic state is 1-A.
 Alpha  occ. eigenvalues --  -10.21390 -10.19863 -10.19831 -10.19654 -10.19654
 Alpha  occ. eigenvalues --  -10.19641 -10.19640 -10.19602 -10.19602 -10.19562
 Alpha  occ. eigenvalues --  -10.19561 -10.19545 -10.19544 -10.18564 -10.18563
 Alpha  occ. eigenvalues --   -0.89414  -0.84868  -0.81705  -0.77915  -0.74756
 Alpha  occ. eigenvalues --   -0.73704  -0.71862  -0.69272  -0.64880  -0.62635
 Alpha  occ. eigenvalues --   -0.58887  -0.58023  -0.56201  -0.51467  -0.50016
 Alpha  occ. eigenvalues --   -0.47747  -0.45660  -0.45226  -0.44182  -0.43597
 Alpha  occ. eigenvalues --   -0.43366  -0.42279  -0.42209  -0.39718  -0.38765
 Alpha  occ. eigenvalues --   -0.38715  -0.37910  -0.35603  -0.35248  -0.34869
 Alpha  occ. eigenvalues --   -0.34612  -0.32488  -0.32413  -0.28708  -0.25422
 Alpha  occ. eigenvalues --   -0.25053  -0.22081
 Alpha virt. eigenvalues --   -0.04119  -0.02128  -0.00289   0.00024   0.01106
 Alpha virt. eigenvalues --    0.01224   0.02756   0.02861   0.02967   0.03171
 Alpha virt. eigenvalues --    0.03904   0.04970   0.05035   0.05947   0.06384
 Alpha virt. eigenvalues --    0.06442   0.06966   0.07708   0.07813   0.08356
 Alpha virt. eigenvalues --    0.08791   0.08829   0.10770   0.11190   0.11551
 Alpha virt. eigenvalues --    0.11949   0.12456   0.12995   0.13040   0.13197
 Alpha virt. eigenvalues --    0.14786   0.14920   0.14993   0.15587   0.16307
 Alpha virt. eigenvalues --    0.17054   0.17207   0.17433   0.17687   0.18279
 Alpha virt. eigenvalues --    0.18364   0.18912   0.19068   0.20189   0.20672
 Alpha virt. eigenvalues --    0.20762   0.20948   0.21387   0.21696   0.21967
 Alpha virt. eigenvalues --    0.21988   0.22189   0.23273   0.23357   0.23426
 Alpha virt. eigenvalues --    0.23466   0.24202   0.24517   0.24932   0.25312
 Alpha virt. eigenvalues --    0.26111   0.27535   0.27930   0.28013   0.28059
 Alpha virt. eigenvalues --    0.28897   0.29285   0.29602   0.30327   0.30703
 Alpha virt. eigenvalues --    0.31045   0.31290   0.31897   0.32960   0.34069
 Alpha virt. eigenvalues --    0.34354   0.34451   0.35875   0.36184   0.36376
 Alpha virt. eigenvalues --    0.36696   0.39154   0.40577   0.42295   0.44646
 Alpha virt. eigenvalues --    0.44702   0.47906   0.50336   0.50638   0.56844
 Alpha virt. eigenvalues --    0.60971   0.61588   0.63291   0.66726   0.67107
 Alpha virt. eigenvalues --    0.67628   0.68266   0.69209   0.69392   0.69709
 Alpha virt. eigenvalues --    0.70224   0.71629   0.72809   0.73306   0.73749
 Alpha virt. eigenvalues --    0.74136   0.75041   0.76012   0.77072   0.77760
 Alpha virt. eigenvalues --    0.77768   0.77868   0.80192   0.81441   0.81502
 Alpha virt. eigenvalues --    0.81839   0.82474   0.83555   0.83561   0.83584
 Alpha virt. eigenvalues --    0.85007   0.87664   0.89884   0.90562   0.91853
 Alpha virt. eigenvalues --    0.93340   0.94337   0.95103   0.95738   0.95788
 Alpha virt. eigenvalues --    0.98883   1.00070   1.01593   1.01866   1.01887
 Alpha virt. eigenvalues --    1.02528   1.04194   1.05328   1.06561   1.09376
 Alpha virt. eigenvalues --    1.10306   1.11930   1.13230   1.15152   1.15255
 Alpha virt. eigenvalues --    1.17693   1.19027   1.19029   1.21606   1.22800
 Alpha virt. eigenvalues --    1.23818   1.24330   1.25254   1.27067   1.29251
 Alpha virt. eigenvalues --    1.30653   1.32243   1.34109   1.35139   1.38002
 Alpha virt. eigenvalues --    1.41485   1.42656   1.45176   1.46187   1.47703
 Alpha virt. eigenvalues --    1.47914   1.48927   1.48990   1.49453   1.49757
 Alpha virt. eigenvalues --    1.53644   1.59176   1.63824   1.64801   1.65535
 Alpha virt. eigenvalues --    1.68451   1.72506   1.77583   1.80579   1.80822
 Alpha virt. eigenvalues --    1.82412   1.86029   1.88245   1.88364   1.92296
 Alpha virt. eigenvalues --    1.92301   1.94249   1.96034   1.97516   1.97986
 Alpha virt. eigenvalues --    1.98243   2.02456   2.04380   2.06534   2.08019
 Alpha virt. eigenvalues --    2.08436   2.08996   2.12425   2.14831   2.17209
 Alpha virt. eigenvalues --    2.17585   2.19620   2.21108   2.22374   2.23560
 Alpha virt. eigenvalues --    2.25507   2.28623   2.28920   2.29019   2.29022
 Alpha virt. eigenvalues --    2.30257   2.32278   2.32658   2.37980   2.39259
 Alpha virt. eigenvalues --    2.40005   2.43715   2.50753   2.52039   2.52563
 Alpha virt. eigenvalues --    2.60840   2.61277   2.61551   2.67127   2.69543
 Alpha virt. eigenvalues --    2.69634   2.71638   2.72355   2.74913   2.76756
 Alpha virt. eigenvalues --    2.77002   2.77701   2.82881   2.84620   2.86267
 Alpha virt. eigenvalues --    2.95699   2.99618   3.02499   3.09965   3.29040
 Alpha virt. eigenvalues --    3.34453   3.50176   4.24385   4.26327   4.27832
 Alpha virt. eigenvalues --    4.28920   4.32373   4.33418   4.35155   4.35231
 Alpha virt. eigenvalues --    4.40158   4.42482   4.49828   4.52130   4.66894
 Alpha virt. eigenvalues --    4.83669   4.86388
          Condensed to atoms (all electrons):
               1          2          3          4          5          6
     1  C    8.902517   1.590398  -1.030612  -1.031426   1.592041  -0.948906
     2  C    1.590398  13.030169  -2.001019  -2.728649   1.939515  -0.639574
     3  C   -1.030612  -2.001019  13.427772   3.416284  -2.736436  -1.623511
     4  C   -1.031426  -2.728649   3.416284  13.429425  -2.006954  -0.777389
     5  C    1.592041   1.939515  -2.736436  -2.006954  13.038943  -2.379081
     6  C   -0.948906  -0.639574  -1.623511  -0.777389  -2.379081  10.742031
     7  C    0.105293  -0.012070   0.152830   0.149421  -0.474701   0.587340
     8  C    0.023423   0.194946   0.369217  -0.383688  -0.010108  -0.672041
     9  C   -0.984518  -1.394305  -1.216405  -2.066216  -0.860094   1.958568
    10  H    0.001548   0.019108   0.028317  -0.086969   0.056811  -0.030296
    11  H    0.001308   0.000883  -0.021151  -0.032916   0.024623   0.034179
    12  H   -0.003501  -0.002750   0.002341   0.010317  -0.005075  -0.012058
    13  H   -0.059800  -0.028242   0.037175   0.167608  -0.008907   0.198427
    14  C   -0.983163  -0.861189  -2.062386  -1.214203  -1.395707   0.462763
    15  C    0.022388  -0.012042  -0.384364   0.368653   0.193856   0.127361
    16  C    0.105792  -0.475577   0.147030   0.152069  -0.012221  -0.046267
    17  C   -0.942815  -2.383085  -0.776332  -1.623589  -0.640509  -0.781405
    18  H   -0.059960  -0.008541   0.167675   0.037198  -0.028236  -0.000701
    19  H   -0.003496  -0.004996   0.010372   0.002342  -0.002752  -0.000046
    20  H    0.001327   0.024587  -0.032842  -0.021157   0.000875  -0.000340
    21  H    0.001550   0.056646  -0.086928   0.028509   0.019103   0.000712
    22  C   -0.169501  -0.201715   0.219294   0.219309  -0.202924  -0.086159
    23  H   -0.114886  -0.026372   0.040660   0.040570  -0.026609  -0.011196
    24  H   -0.027165   0.006598  -0.013468  -0.027770  -0.015113   0.011593
    25  H   -0.027169  -0.015167  -0.027792  -0.013471   0.006634   0.009255
    26  C   -0.168552  -0.202132   0.220282   0.219782  -0.202595  -0.087229
    27  H   -0.027183  -0.015269  -0.027785  -0.013467   0.006711   0.009254
    28  H   -0.027218   0.006650  -0.013503  -0.027822  -0.015121   0.011634
    29  H   -0.114747  -0.026471   0.040762   0.040663  -0.026676  -0.011232
               7          8          9         10         11         12
     1  C    0.105293   0.023423  -0.984518   0.001548   0.001308  -0.003501
     2  C   -0.012070   0.194946  -1.394305   0.019108   0.000883  -0.002750
     3  C    0.152830   0.369217  -1.216405   0.028317  -0.021151   0.002341
     4  C    0.149421  -0.383688  -2.066216  -0.086969  -0.032916   0.010317
     5  C   -0.474701  -0.010108  -0.860094   0.056811   0.024623  -0.005075
     6  C    0.587340  -0.672041   1.958568  -0.030296   0.034179  -0.012058
     7  C    5.366502   0.849420  -0.752439   0.010208  -0.040491   0.299176
     8  C    0.849420   6.581354  -0.681212   0.013935   0.324209  -0.036087
     9  C   -0.752439  -0.681212  10.798154   0.290058   0.007117   0.041550
    10  H    0.010208   0.013935   0.290058   0.545765  -0.004206  -0.000159
    11  H   -0.040491   0.324209   0.007117  -0.004206   0.534694  -0.004328
    12  H    0.299176  -0.036087   0.041550  -0.000159  -0.004328   0.537284
    13  H    0.008593  -0.003804  -0.037607   0.000020  -0.000160  -0.004528
    14  C   -0.059836  -0.101294   0.715573  -0.024569  -0.001585   0.000942
    15  C   -0.014615  -0.188624  -0.100856   0.000126  -0.000374   0.000135
    16  C    0.001515  -0.014588  -0.059949  -0.001124   0.000055  -0.000029
    17  C   -0.046132   0.127402   0.462533   0.000710  -0.000339  -0.000046
    18  H   -0.000186   0.000120   0.001733   0.000000   0.000000  -0.000000
    19  H   -0.000029   0.000135   0.000941  -0.000000  -0.000000  -0.000000
    20  H    0.000055  -0.000374  -0.001583   0.000001   0.000000  -0.000000
    21  H   -0.001126   0.000137  -0.024578   0.001103   0.000001  -0.000000
    22  C    0.016080  -0.001756   0.001372  -0.000095  -0.000244  -0.000236
    23  H    0.000951  -0.001709   0.004129   0.000001   0.000000  -0.000000
    24  H   -0.001014  -0.001170  -0.000735   0.000000  -0.000000   0.000002
    25  H    0.000182   0.000323   0.000367  -0.000000  -0.000000  -0.000000
    26  C    0.016271  -0.001824   0.001010  -0.000095  -0.000245  -0.000237
    27  H    0.000189   0.000322   0.000364  -0.000000  -0.000000  -0.000000
    28  H   -0.001007  -0.001168  -0.000734   0.000000  -0.000000   0.000002
    29  H    0.000949  -0.001713   0.004135   0.000001   0.000000  -0.000000
              13         14         15         16         17         18
     1  C   -0.059800  -0.983163   0.022388   0.105792  -0.942815  -0.059960
     2  C   -0.028242  -0.861189  -0.012042  -0.475577  -2.383085  -0.008541
     3  C    0.037175  -2.062386  -0.384364   0.147030  -0.776332   0.167675
     4  C    0.167608  -1.214203   0.368653   0.152069  -1.623589   0.037198
     5  C   -0.008907  -1.395707   0.193856  -0.012221  -0.640509  -0.028236
     6  C    0.198427   0.462763   0.127361  -0.046267  -0.781405  -0.000701
     7  C    0.008593  -0.059836  -0.014615   0.001515  -0.046132  -0.000186
     8  C   -0.003804  -0.101294  -0.188624  -0.014588   0.127402   0.000120
     9  C   -0.037607   0.715573  -0.100856  -0.059949   0.462533   0.001733
    10  H    0.000020  -0.024569   0.000126  -0.001124   0.000710   0.000000
    11  H   -0.000160  -0.001585  -0.000374   0.000055  -0.000339   0.000000
    12  H   -0.004528   0.000942   0.000135  -0.000029  -0.000046  -0.000000
    13  H    0.544528   0.001734   0.000119  -0.000185  -0.000705   0.000000
    14  C    0.001734  10.792302  -0.677132  -0.751570   1.953893  -0.037576
    15  C    0.000119  -0.677132   6.580270   0.849470  -0.669474  -0.003879
    16  C   -0.000185  -0.751570   0.849470   5.366392   0.589785   0.008540
    17  C   -0.000705   1.953893  -0.669474   0.589785  10.739152   0.198195
    18  H    0.000000  -0.037576  -0.003879   0.008540   0.198195   0.544538
    19  H   -0.000000   0.041493  -0.036217   0.299254  -0.012087  -0.004533
    20  H    0.000000   0.007018   0.324347  -0.040562   0.034166  -0.000160
    21  H    0.000000   0.290207   0.013706   0.010236  -0.030323   0.000020
    22  C    0.003262   0.001617  -0.001870   0.016425  -0.086632   0.003284
    23  H    0.000047   0.004154  -0.001719   0.000984  -0.011109   0.000048
    24  H    0.000160   0.000376   0.000323   0.000180   0.009259  -0.000039
    25  H   -0.000039  -0.000743  -0.001172  -0.000989   0.011527   0.000160
    26  C    0.003281   0.001214  -0.001753   0.016341  -0.086981   0.003295
    27  H   -0.000039  -0.000740  -0.001171  -0.001000   0.011517   0.000158
    28  H    0.000161   0.000372   0.000322   0.000182   0.009258  -0.000039
    29  H    0.000047   0.004138  -0.001722   0.000982  -0.011191   0.000048
              19         20         21         22         23         24
     1  C   -0.003496   0.001327   0.001550  -0.169501  -0.114886  -0.027165
     2  C   -0.004996   0.024587   0.056646  -0.201715  -0.026372   0.006598
     3  C    0.010372  -0.032842  -0.086928   0.219294   0.040660  -0.013468
     4  C    0.002342  -0.021157   0.028509   0.219309   0.040570  -0.027770
     5  C   -0.002752   0.000875   0.019103  -0.202924  -0.026609  -0.015113
     6  C   -0.000046  -0.000340   0.000712  -0.086159  -0.011196   0.011593
     7  C   -0.000029   0.000055  -0.001126   0.016080   0.000951  -0.001014
     8  C    0.000135  -0.000374   0.000137  -0.001756  -0.001709  -0.001170
     9  C    0.000941  -0.001583  -0.024578   0.001372   0.004129  -0.000735
    10  H   -0.000000   0.000001   0.001103  -0.000095   0.000001   0.000000
    11  H   -0.000000   0.000000   0.000001  -0.000244   0.000000  -0.000000
    12  H   -0.000000  -0.000000  -0.000000  -0.000236  -0.000000   0.000002
    13  H   -0.000000   0.000000   0.000000   0.003262   0.000047   0.000160
    14  C    0.041493   0.007018   0.290207   0.001617   0.004154   0.000376
    15  C   -0.036217   0.324347   0.013706  -0.001870  -0.001719   0.000323
    16  C    0.299254  -0.040562   0.010236   0.016425   0.000984   0.000180
    17  C   -0.012087   0.034166  -0.030323  -0.086632  -0.011109   0.009259
    18  H   -0.004533  -0.000160   0.000020   0.003284   0.000048  -0.000039
    19  H    0.537302  -0.004329  -0.000159  -0.000233  -0.000000  -0.000000
    20  H   -0.004329   0.534681  -0.004198  -0.000245   0.000000  -0.000000
    21  H   -0.000159  -0.004198   0.545751  -0.000092   0.000001  -0.000000
    22  C   -0.000233  -0.000245  -0.000092   6.404180   0.432944   0.410572
    23  H   -0.000000   0.000000   0.000001   0.432944   0.490196  -0.027912
    24  H   -0.000000  -0.000000  -0.000000   0.410572  -0.027912   0.513772
    25  H    0.000002  -0.000000   0.000000   0.410731  -0.027909  -0.029917
    26  C   -0.000235  -0.000244  -0.000094  -0.534973   0.007742  -0.026005
    27  H    0.000002  -0.000000   0.000000  -0.026064   0.000010   0.000181
    28  H   -0.000000  -0.000000  -0.000000  -0.026074   0.000008   0.002287
    29  H   -0.000000   0.000000   0.000001   0.007808  -0.000146   0.000009
              25         26         27         28         29
     1  C   -0.027169  -0.168552  -0.027183  -0.027218  -0.114747
     2  C   -0.015167  -0.202132  -0.015269   0.006650  -0.026471
     3  C   -0.027792   0.220282  -0.027785  -0.013503   0.040762
     4  C   -0.013471   0.219782  -0.013467  -0.027822   0.040663
     5  C    0.006634  -0.202595   0.006711  -0.015121  -0.026676
     6  C    0.009255  -0.087229   0.009254   0.011634  -0.011232
     7  C    0.000182   0.016271   0.000189  -0.001007   0.000949
     8  C    0.000323  -0.001824   0.000322  -0.001168  -0.001713
     9  C    0.000367   0.001010   0.000364  -0.000734   0.004135
    10  H   -0.000000  -0.000095  -0.000000   0.000000   0.000001
    11  H   -0.000000  -0.000245  -0.000000  -0.000000   0.000000
    12  H   -0.000000  -0.000237  -0.000000   0.000002  -0.000000
    13  H   -0.000039   0.003281  -0.000039   0.000161   0.000047
    14  C   -0.000743   0.001214  -0.000740   0.000372   0.004138
    15  C   -0.001172  -0.001753  -0.001171   0.000322  -0.001722
    16  C   -0.000989   0.016341  -0.001000   0.000182   0.000982
    17  C    0.011527  -0.086981   0.011517   0.009258  -0.011191
    18  H    0.000160   0.003295   0.000158  -0.000039   0.000048
    19  H    0.000002  -0.000235   0.000002  -0.000000  -0.000000
    20  H   -0.000000  -0.000244  -0.000000  -0.000000   0.000000
    21  H    0.000000  -0.000094   0.000000  -0.000000   0.000001
    22  C    0.410731  -0.534973  -0.026064  -0.026074   0.007808
    23  H   -0.027909   0.007742   0.000010   0.000008  -0.000146
    24  H   -0.029917  -0.026005   0.000181   0.002287   0.000009
    25  H    0.513791  -0.026100   0.002301   0.000182   0.000009
    26  C   -0.026100   6.404141   0.410741   0.410670   0.432836
    27  H    0.002301   0.410741   0.513788  -0.029909  -0.027917
    28  H    0.000182   0.410670  -0.029909   0.513774  -0.027906
    29  H    0.000009   0.432836  -0.027917  -0.027906   0.490193
 Mulliken charges:
               1
     1  C    0.377034
     2  C    0.169666
     3  C   -0.225475
     4  C   -0.226465
     5  C    0.170706
     6  C   -0.045686
     7  C   -0.161326
     8  C   -0.383783
     9  C   -0.106373
    10  H    0.179803
    11  H    0.178969
    12  H    0.177285
    13  H    0.178852
    14  C   -0.106102
    15  C   -0.384090
    16  C   -0.161167
    17  C   -0.044642
    18  H    0.178839
    19  H    0.177270
    20  H    0.178978
    21  H    0.179816
    22  C   -0.808067
    23  H    0.227124
    24  H    0.214996
    25  H    0.215004
    26  C   -0.808313
    27  H    0.215006
    28  H    0.214999
    29  H    0.227143
 Sum of Mulliken charges =  -0.00000
 Mulliken charges with hydrogens summed into heavy atoms:
               1
     1  C    0.377034
     2  C    0.169666
     3  C   -0.225475
     4  C   -0.226465
     5  C    0.170706
     6  C    0.133165
     7  C    0.015960
     8  C   -0.204814
     9  C    0.073429
    14  C    0.073714
    15  C   -0.205112
    16  C    0.016103
    17  C    0.134196
    22  C   -0.150943
    26  C   -0.151165
 Electronic spatial extent (au):  <R**2>=           2921.7593
 Charge=             -0.0000 electrons
 Dipole moment (field-independent basis, Debye):
    X=             -0.0000    Y=              0.5200    Z=              0.0007  Tot=              0.5200
 Quadrupole moment (field-independent basis, Debye-Ang):
   XX=            -83.1913   YY=            -81.5223   ZZ=            -95.5805
   XY=              0.0011   XZ=             -0.0003   YZ=             -0.0004
 Traceless Quadrupole moment (field-independent basis, Debye-Ang):
   XX=              3.5734   YY=              5.2424   ZZ=             -8.8158
   XY=              0.0011   XZ=             -0.0003   YZ=             -0.0004
 Octapole moment (field-independent basis, Debye-Ang**2):
  XXX=             -0.0052  YYY=            -11.1703  ZZZ=              0.0006  XYY=             -0.0013
  XXY=             -1.0178  XXZ=              0.0065  XZZ=              0.0006  YZZ=              5.8237
  YYZ=              0.0035  XYZ=             -0.0028
 Hexadecapole moment (field-independent basis, Debye-Ang**3):
 XXXX=          -2317.0391 YYYY=          -1296.4419 ZZZZ=           -293.5609 XXXY=              0.0010
 XXXZ=             -0.0128 YYYX=              0.0147 YYYZ=             -0.0031 ZZZX=              0.0043
 ZZZY=             -0.0050 XXYY=           -594.7268 XXZZ=           -528.3293 YYZZ=           -295.0675
 XXYZ=             -0.0014 YYXZ=              0.0005 ZZXY=             -0.0041
 N-N= 9.260282672228D+02 E-N=-3.193519834154D+03  KE= 5.744176806372D+02
 No NMR shielding tensors so no spin-rotation constants.
 Leave Link  601 at Fri Mar 13 23:25:00 2026, MaxMem=   104857600 cpu:               0.1 elap:               0.1
 (Enter /sw/cluster/pub/apps//g16/l701.exe)
 ... and contract with generalized density number  0.
 Compute integral first derivatives.
 Leave Link  701 at Fri Mar 13 23:25:00 2026, MaxMem=   104857600 cpu:               0.1 elap:               0.1
 (Enter /sw/cluster/pub/apps//g16/l702.exe)
 L702 exits ... SP integral derivatives will be done elsewhere.
 Leave Link  702 at Fri Mar 13 23:25:00 2026, MaxMem=   104857600 cpu:               0.0 elap:               0.0
 (Enter /sw/cluster/pub/apps//g16/l703.exe)
 Integral derivatives from FoFJK, PRISM(SPDF).
 Compute integral first derivatives, UseDBF=F ICtDFT=           0.
 Calling FoFJK, ICntrl=      2127 FMM=F ISym2X=0 I1Cent= 0 IOpClX= 0 NMat=1 NMatS=1 NMatT=0.
 FoFJK:  IHMeth= 1 ICntrl=    2127 DoSepK=F KAlg= 0 I1Cent=           0 FoldK=F
 IRaf=         0 NMat=       1 IRICut=       1 DoRegI=T DoRafI=F ISym2E= 0 IDoP0=0 IntGTp=1.
 FoFCou: FMM=F IPFlag=           0 FMFlag=      100000 FMFlg1=         800
         NFxFlg=           0 DoJE=F BraDBF=F KetDBF=F FulRan=T
         wScrn=  0.000000 ICntrl=      2127 IOpCl=  0 I1Cent=           0 NGrid=           0
         NMat0=    1 NMatS0=      1 NMatT0=    0 NMatD0=    1 NMtDS0=    0 NMtDT0=    0
 Symmetry not used in FoFCou.
 Leave Link  703 at Fri Mar 13 23:25:35 2026, MaxMem=   104857600 cpu:              34.9 elap:              34.9
 (Enter /sw/cluster/pub/apps//g16/l716.exe)
 Dipole        =-1.09688121D-05 2.04584691D-01 2.72349159D-04
 ***** Axes restored to original set *****
 -------------------------------------------------------------------
 Center     Atomic                   Forces (Hartrees/Bohr)
 Number     Number              X              Y              Z
 -------------------------------------------------------------------
      1        6           0.000109683   -0.000140480    0.000011004
      2        6          -0.000946140    0.000728979   -0.000009169
      3        6          -0.000652339    0.000047871    0.000001966
      4        6           0.000084875   -0.000607759    0.000006685
      5        6           0.000706032   -0.000922311   -0.000000753
      6        6          -0.000841401   -0.000926368    0.000006915
      7        6          -0.001433541    0.000628154   -0.000018080
      8        6           0.000168129    0.001587685   -0.000033727
      9        6           0.001244020    0.000309596    0.000012875
     10        1           0.000158340    0.000246352   -0.000000989
     11        1          -0.000033983    0.000255133   -0.000006829
     12        1          -0.000221107    0.000160212   -0.000001902
     13        1          -0.000298626    0.000033341    0.000003357
     14        6           0.000084496    0.001204669   -0.000024476
     15        6           0.001549444    0.000356765    0.000010877
     16        6           0.000850079   -0.001328984    0.000026125
     17        6          -0.000832605   -0.000918551    0.000005814
     18        1           0.000039680   -0.000315848    0.000007192
     19        1           0.000183608   -0.000195680    0.000006840
     20        1           0.000257040    0.000002421    0.000001645
     21        1           0.000272646    0.000192601   -0.000001069
     22        6          -0.000158057   -0.000142632    0.000028924
     23        1           0.000144155    0.000175386    0.000315449
     24        1          -0.000298639    0.000062184   -0.000047629
     25        1           0.000096138   -0.000295278   -0.000008789
     26        6          -0.000170739   -0.000162833   -0.000050042
     27        1           0.000088404   -0.000252937    0.000036937
     28        1          -0.000288657    0.000053094    0.000041994
     29        1           0.000139063    0.000165219   -0.000321143
 -------------------------------------------------------------------
 Cartesian Forces:  Max     0.001587685 RMS     0.000494354
 Leave Link  716 at Fri Mar 13 23:25:35 2026, MaxMem=   104857600 cpu:               0.0 elap:               0.0
 (Enter /sw/cluster/pub/apps//g16/l103.exe)

 GradGradGradGradGradGradGradGradGradGradGradGradGradGradGradGradGradGrad
 Berny optimization.
 FormGI is forming the generalized inverse of G from B-inverse, IUseBI=4.
 Internal  Forces:  Max     0.001682784 RMS     0.000422560
 Search for a local minimum.
 Step number   1 out of a maximum of  174
 All quantities printed in internal units (Hartrees-Bohrs-Radians)
 RMS Force = .42256D-03 SwitMx=.10000D-02 MixMth= 2
 Mixed Optimization -- En-DIIS/RFO-DIIS
 Second derivative matrix not updated -- first step.
 ITU=  0
     Eigenvalues ---    0.00230   0.00230   0.00755   0.01247   0.01447
     Eigenvalues ---    0.01649   0.01717   0.01880   0.02096   0.02097
     Eigenvalues ---    0.02113   0.02113   0.02118   0.02119   0.02135
     Eigenvalues ---    0.02135   0.02145   0.02146   0.02160   0.02161
     Eigenvalues ---    0.04412   0.05430   0.05430   0.05498   0.05499
     Eigenvalues ---    0.05969   0.08008   0.11622   0.16000   0.16000
     Eigenvalues ---    0.16000   0.16000   0.16000   0.16000   0.16000
     Eigenvalues ---    0.16000   0.16000   0.16000   0.16000   0.16000
     Eigenvalues ---    0.16000   0.16000   0.18959   0.22000   0.22000
     Eigenvalues ---    0.22600   0.22628   0.24494   0.24596   0.25000
     Eigenvalues ---    0.28039   0.28040   0.28507   0.29046   0.34098
     Eigenvalues ---    0.34102   0.34104   0.34106   0.34282   0.34283
     Eigenvalues ---    0.34531   0.35074   0.35080   0.35140   0.35144
     Eigenvalues ---    0.35181   0.35181   0.35184   0.35185   0.37944
     Eigenvalues ---    0.40615   0.42113   0.42123   0.44326   0.44713
     Eigenvalues ---    0.45815   0.45816   0.46110   0.46111   0.46877
     Eigenvalues ---    0.46883
 RFO step:  Lambda=-6.86190460D-05 EMin= 2.30000000D-03
 Linear search not attempted -- first point.
 Iteration  1 RMS(Cart)=  0.00238074 RMS(Int)=  0.00000078
 Iteration  2 RMS(Cart)=  0.00000089 RMS(Int)=  0.00000011
 ITry= 1 IFail=0 DXMaxC= 8.65D-03 DCOld= 1.00D+10 DXMaxT= 3.00D-01 DXLimC= 3.00D+00 Rises=F
 Variable       Old X    -DE/DX   Delta X   Delta X   Delta X     New X
                                 (Linear)    (Quad)   (Total)
    R1        2.88883   0.00035   0.00000   0.00110   0.00110   2.88992
    R2        2.88841   0.00040   0.00000   0.00129   0.00129   2.88970
    R3        2.92052   0.00040   0.00000   0.00144   0.00144   2.92196
    R4        2.92053   0.00041   0.00000   0.00147   0.00147   2.92200
    R5        2.66325   0.00076   0.00000   0.00165   0.00165   2.66490
    R6        2.62762   0.00153   0.00000   0.00319   0.00319   2.63080
    R7        2.77576   0.00058   0.00000   0.00169   0.00169   2.77745
    R8        2.63863   0.00154   0.00000   0.00330   0.00330   2.64193
    R9        2.66305   0.00083   0.00000   0.00183   0.00183   2.66489
   R10        2.63866   0.00153   0.00000   0.00326   0.00326   2.64193
   R11        2.62755   0.00156   0.00000   0.00326   0.00326   2.63081
   R12        2.64570   0.00166   0.00000   0.00368   0.00368   2.64937
   R13        2.05555   0.00024   0.00000   0.00069   0.00069   2.05624
   R14        2.64321   0.00168   0.00000   0.00375   0.00375   2.64696
   R15        2.05375   0.00027   0.00000   0.00077   0.00077   2.05452
   R16        2.63942   0.00161   0.00000   0.00353   0.00353   2.64295
   R17        2.05382   0.00026   0.00000   0.00073   0.00073   2.05455
   R18        2.05449   0.00026   0.00000   0.00074   0.00074   2.05523
   R19        2.63939   0.00162   0.00000   0.00356   0.00356   2.64294
   R20        2.05441   0.00028   0.00000   0.00081   0.00081   2.05522
   R21        2.64327   0.00164   0.00000   0.00367   0.00367   2.64694
   R22        2.05382   0.00026   0.00000   0.00073   0.00073   2.05455
   R23        2.64571   0.00166   0.00000   0.00367   0.00367   2.64938
   R24        2.05377   0.00027   0.00000   0.00076   0.00076   2.05453
   R25        2.05546   0.00028   0.00000   0.00079   0.00079   2.05625
   R26        2.06855   0.00039   0.00000   0.00113   0.00113   2.06968
   R27        2.07155   0.00030   0.00000   0.00089   0.00089   2.07244
   R28        2.07152   0.00031   0.00000   0.00090   0.00090   2.07242
   R29        2.07164   0.00027   0.00000   0.00078   0.00078   2.07242
   R30        2.07159   0.00029   0.00000   0.00085   0.00085   2.07244
   R31        2.06856   0.00039   0.00000   0.00113   0.00113   2.06969
    A1        1.76651  -0.00004   0.00000  -0.00034  -0.00034   1.76617
    A2        1.94379   0.00005   0.00000   0.00053   0.00053   1.94432
    A3        1.94345   0.00006   0.00000   0.00073   0.00073   1.94418
    A4        1.94438   0.00003   0.00000   0.00002   0.00002   1.94440
    A5        1.94430   0.00002   0.00000  -0.00001  -0.00001   1.94428
    A6        1.91768  -0.00011   0.00000  -0.00085  -0.00085   1.91683
    A7        1.93555   0.00016   0.00000   0.00056   0.00056   1.93611
    A8        2.24948  -0.00016   0.00000  -0.00042  -0.00042   2.24906
    A9        2.09815   0.00000   0.00000  -0.00013  -0.00013   2.09802
   A10        1.89349  -0.00012   0.00000  -0.00033  -0.00033   1.89317
   A11        2.10492   0.00009   0.00000   0.00012   0.00012   2.10504
   A12        2.28477   0.00002   0.00000   0.00020   0.00020   2.28498
   A13        1.89343  -0.00011   0.00000  -0.00029  -0.00029   1.89313
   A14        2.28529  -0.00005   0.00000  -0.00012  -0.00012   2.28517
   A15        2.10447   0.00016   0.00000   0.00041   0.00041   2.10488
   A16        1.93580   0.00011   0.00000   0.00040   0.00040   1.93620
   A17        2.24885  -0.00006   0.00000  -0.00004  -0.00004   2.24881
   A18        2.09854  -0.00005   0.00000  -0.00036  -0.00036   2.09818
   A19        2.08040   0.00013   0.00000   0.00056   0.00056   2.08096
   A20        2.10946   0.00012   0.00000   0.00086   0.00086   2.11031
   A21        2.09333  -0.00025   0.00000  -0.00141  -0.00141   2.09191
   A22        2.10333  -0.00013   0.00000  -0.00035  -0.00035   2.10297
   A23        2.08979   0.00009   0.00000   0.00036   0.00036   2.09014
   A24        2.09007   0.00003   0.00000  -0.00000  -0.00000   2.09007
   A25        2.10420  -0.00018   0.00000  -0.00060  -0.00059   2.10360
   A26        2.08954   0.00006   0.00000   0.00009   0.00009   2.08963
   A27        2.08945   0.00012   0.00000   0.00050   0.00050   2.08995
   A28        2.07544   0.00007   0.00000   0.00034   0.00034   2.07578
   A29        2.10883   0.00010   0.00000   0.00068   0.00068   2.10950
   A30        2.09892  -0.00017   0.00000  -0.00102  -0.00102   2.09791
   A31        2.07524   0.00011   0.00000   0.00049   0.00049   2.07573
   A32        2.10849   0.00013   0.00000   0.00088   0.00088   2.10937
   A33        2.09946  -0.00023   0.00000  -0.00137  -0.00137   2.09808
   A34        2.10409  -0.00018   0.00000  -0.00056  -0.00056   2.10353
   A35        2.08960   0.00012   0.00000   0.00047   0.00047   2.09006
   A36        2.08950   0.00006   0.00000   0.00009   0.00009   2.08960
   A37        2.10357  -0.00016   0.00000  -0.00051  -0.00050   2.10306
   A38        2.08995   0.00005   0.00000   0.00008   0.00008   2.09003
   A39        2.08967   0.00011   0.00000   0.00042   0.00042   2.09009
   A40        2.08040   0.00014   0.00000   0.00059   0.00059   2.08099
   A41        2.10970   0.00009   0.00000   0.00071   0.00071   2.11040
   A42        2.09308  -0.00023   0.00000  -0.00129  -0.00129   2.09179
   A43        1.93948   0.00001   0.00000   0.00005   0.00005   1.93953
   A44        1.93189  -0.00008   0.00000  -0.00052  -0.00052   1.93137
   A45        1.93145  -0.00003   0.00000  -0.00016  -0.00016   1.93129
   A46        1.88840   0.00003   0.00000   0.00018   0.00018   1.88858
   A47        1.88848   0.00002   0.00000   0.00015   0.00015   1.88864
   A48        1.88231   0.00005   0.00000   0.00033   0.00033   1.88264
   A49        1.93162  -0.00005   0.00000  -0.00035  -0.00035   1.93127
   A50        1.93190  -0.00007   0.00000  -0.00050  -0.00050   1.93140
   A51        1.93935   0.00002   0.00000   0.00018   0.00018   1.93953
   A52        1.88238   0.00006   0.00000   0.00027   0.00027   1.88265
   A53        1.88837   0.00003   0.00000   0.00024   0.00024   1.88861
   A54        1.88839   0.00003   0.00000   0.00019   0.00019   1.88859
    D1       -0.00026   0.00000   0.00000   0.00024   0.00024  -0.00002
    D2        3.14150   0.00000   0.00000   0.00010   0.00010  -3.14159
    D3       -2.06842  -0.00003   0.00000   0.00017   0.00017  -2.06825
    D4        1.07334  -0.00003   0.00000   0.00003   0.00003   1.07337
    D5        2.06765   0.00003   0.00000   0.00036   0.00036   2.06801
    D6       -1.07378   0.00003   0.00000   0.00022   0.00022  -1.07356
    D7        0.00022  -0.00000   0.00000  -0.00021  -0.00021   0.00001
    D8        3.14148   0.00001   0.00000   0.00015   0.00015  -3.14155
    D9        2.06795   0.00004   0.00000   0.00022   0.00022   2.06817
   D10       -1.07397   0.00005   0.00000   0.00059   0.00059  -1.07339
   D11       -2.06708  -0.00006   0.00000  -0.00086  -0.00087  -2.06795
   D12        1.07418  -0.00006   0.00000  -0.00050  -0.00050   1.07368
   D13        0.97876  -0.00001   0.00000   0.00078   0.00078   0.97954
   D14        3.07752  -0.00001   0.00000   0.00069   0.00069   3.07821
   D15       -1.11981  -0.00001   0.00000   0.00066   0.00066  -1.11915
   D16       -0.97933  -0.00000   0.00000   0.00087   0.00087  -0.97847
   D17        1.11943  -0.00001   0.00000   0.00078   0.00078   1.12021
   D18       -3.07790  -0.00001   0.00000   0.00075   0.00075  -3.07715
   D19        3.14056   0.00003   0.00000   0.00147   0.00147  -3.14115
   D20       -1.04386   0.00002   0.00000   0.00138   0.00138  -1.04248
   D21        1.04199   0.00002   0.00000   0.00135   0.00135   1.04335
   D22        1.12067   0.00001   0.00000  -0.00166  -0.00166   1.11901
   D23       -3.07646  -0.00000   0.00000  -0.00187  -0.00187  -3.07833
   D24       -0.97779   0.00000   0.00000  -0.00184  -0.00184  -0.97963
   D25        3.07851   0.00001   0.00000  -0.00165  -0.00165   3.07686
   D26       -1.11861  -0.00000   0.00000  -0.00187  -0.00187  -1.12048
   D27        0.98006  -0.00000   0.00000  -0.00184  -0.00184   0.97822
   D28       -1.04133  -0.00001   0.00000  -0.00224  -0.00224  -1.04357
   D29        1.04473  -0.00002   0.00000  -0.00245  -0.00245   1.04228
   D30       -3.13978  -0.00002   0.00000  -0.00242  -0.00242   3.14098
   D31        0.00022  -0.00000   0.00000  -0.00019  -0.00019   0.00003
   D32       -3.14138  -0.00000   0.00000  -0.00017  -0.00017  -3.14155
   D33       -3.14153  -0.00000   0.00000  -0.00006  -0.00006  -3.14158
   D34        0.00006  -0.00000   0.00000  -0.00004  -0.00004   0.00002
   D35        3.14134   0.00000   0.00000   0.00022   0.00022   3.14155
   D36       -0.00017   0.00000   0.00000   0.00009   0.00009  -0.00008
   D37       -0.00008   0.00000   0.00000   0.00006   0.00006  -0.00001
   D38       -3.14159  -0.00000   0.00000  -0.00006  -0.00006   3.14154
   D39       -0.00007   0.00000   0.00000   0.00004   0.00004  -0.00002
   D40       -3.14153  -0.00000   0.00000  -0.00007  -0.00007   3.14159
   D41        3.14153   0.00000   0.00000   0.00002   0.00002   3.14155
   D42        0.00007  -0.00000   0.00000  -0.00009  -0.00009  -0.00002
   D43        0.00002  -0.00000   0.00000  -0.00004  -0.00004  -0.00003
   D44        3.14157   0.00000   0.00000   0.00002   0.00002   3.14158
   D45       -3.14158  -0.00000   0.00000  -0.00002  -0.00002   3.14159
   D46       -0.00003   0.00000   0.00000   0.00004   0.00004   0.00001
   D47       -0.00011  -0.00000   0.00000   0.00012   0.00012   0.00001
   D48       -3.14140  -0.00001   0.00000  -0.00021  -0.00021   3.14157
   D49        3.14137   0.00000   0.00000   0.00022   0.00022   3.14159
   D50        0.00008  -0.00000   0.00000  -0.00011  -0.00011  -0.00004
   D51        3.14153   0.00000   0.00000   0.00005   0.00005   3.14158
   D52       -0.00007   0.00000   0.00000   0.00008   0.00008   0.00000
   D53        0.00008  -0.00000   0.00000  -0.00007  -0.00007   0.00000
   D54       -3.14152  -0.00000   0.00000  -0.00005  -0.00005  -3.14157
   D55       -3.14137  -0.00000   0.00000  -0.00024  -0.00024   3.14158
   D56        0.00009  -0.00000   0.00000  -0.00008  -0.00008   0.00000
   D57       -0.00013   0.00000   0.00000   0.00016   0.00016   0.00003
   D58        3.14132   0.00001   0.00000   0.00031   0.00031  -3.14155
   D59        0.00003  -0.00000   0.00000  -0.00002  -0.00002   0.00002
   D60        3.14157   0.00000   0.00000   0.00004   0.00004  -3.14157
   D61       -3.14142  -0.00000   0.00000  -0.00017  -0.00017  -3.14159
   D62        0.00012  -0.00000   0.00000  -0.00011  -0.00011   0.00001
   D63        0.00012  -0.00000   0.00000  -0.00017  -0.00017  -0.00005
   D64       -3.14157  -0.00000   0.00000  -0.00001  -0.00001  -3.14158
   D65       -3.14142  -0.00000   0.00000  -0.00023  -0.00023   3.14154
   D66        0.00008  -0.00000   0.00000  -0.00007  -0.00007   0.00001
   D67       -0.00017   0.00000   0.00000   0.00021   0.00021   0.00004
   D68        3.14143   0.00000   0.00000   0.00019   0.00019  -3.14157
   D69        3.14151   0.00000   0.00000   0.00006   0.00006   3.14157
   D70       -0.00007   0.00000   0.00000   0.00003   0.00003  -0.00004
   D71       -0.00009   0.00000   0.00000   0.00010   0.00010   0.00001
   D72        3.14156   0.00000   0.00000   0.00005   0.00005  -3.14158
   D73        3.14155   0.00000   0.00000   0.00004   0.00004   3.14159
   D74        0.00001  -0.00000   0.00000  -0.00001  -0.00001  -0.00000
   D75        0.00008  -0.00000   0.00000  -0.00008  -0.00008  -0.00000
   D76       -3.14159   0.00000   0.00000   0.00002   0.00002  -3.14157
   D77       -3.14157  -0.00000   0.00000  -0.00002  -0.00002   3.14159
   D78       -0.00005   0.00000   0.00000   0.00007   0.00007   0.00002
   D79        0.00001  -0.00000   0.00000  -0.00000  -0.00000   0.00000
   D80        3.14152   0.00000   0.00000   0.00012   0.00012  -3.14155
   D81       -3.14151  -0.00000   0.00000  -0.00010  -0.00010   3.14157
   D82       -0.00000   0.00000   0.00000   0.00002   0.00002   0.00002
         Item               Value     Threshold  Converged?
 Maximum Force            0.001683     0.000450     NO 
 RMS     Force            0.000423     0.000300     NO 
 Maximum Displacement     0.008653     0.001800     NO 
 RMS     Displacement     0.002381     0.001200     NO 
 Predicted change in Energy=-3.431644D-05
 Lowest energy point so far.  Saving SCF results.
 GradGradGradGradGradGradGradGradGradGradGradGradGradGradGradGradGradGrad

 Leave Link  103 at Fri Mar 13 23:25:35 2026, MaxMem=   104857600 cpu:               0.0 elap:               0.0
 (Enter /sw/cluster/pub/apps//g16/l202.exe)
                          Input orientation:                          
 ---------------------------------------------------------------------
 Center     Atomic      Atomic             Coordinates (Angstroms)
 Number     Number       Type             X           Y           Z
 ---------------------------------------------------------------------
      1          6           0        0.009407    0.003837    0.039739
      2          6           0        1.537867   -0.044797    0.051919
      3          6           0        2.083446    1.255451    0.032744
      4          6           0        0.978139    2.223879    0.007315
      5          6           0       -0.239388    1.512354    0.011000
      6          6           0       -1.451229    2.197271   -0.010138
      7          6           0       -1.445031    3.599024   -0.035083
      8          6           0       -0.234935    4.304461   -0.038767
      9          6           0        0.985483    3.621687   -0.017563
     10          1           0        1.921928    4.174767   -0.020522
     11          1           0       -0.244632    5.391465   -0.058205
     12          1           0       -2.386461    4.142578   -0.051690
     13          1           0       -2.397274    1.659693   -0.007509
     14          6           0        3.468361    1.446521    0.039528
     15          6           0        4.305723    0.326618    0.065693
     16          6           0        3.765257   -0.965473    0.084773
     17          6           0        2.376274   -1.155881    0.077934
     18          1           0        1.967762   -2.164293    0.092965
     19          1           0        4.427883   -1.827180    0.105062
     20          1           0        5.384745    0.459760    0.071271
     21          1           0        3.893461    2.447468    0.024797
     22          6           0       -0.585808   -0.642151    1.312240
     23          1           0       -0.191573   -0.167656    2.217205
     24          1           0       -1.678010   -0.543501    1.321595
     25          1           0       -0.344154   -1.711110    1.352663
     26          6           0       -0.566884   -0.687064   -1.217820
     27          1           0       -0.324736   -1.756675   -1.216766
     28          1           0       -1.658816   -0.589292   -1.246936
     29          1           0       -0.159159   -0.244752   -2.133054
 ---------------------------------------------------------------------
                    Distance matrix (angstroms):
                    1          2          3          4          5
     1  C    0.000000
     2  C    1.529282   0.000000
     3  C    2.422442   1.410203   0.000000
     4  C    2.422412   2.337130   1.469763   0.000000
     5  C    1.529166   2.363266   2.337099   1.410197   0.000000
     6  C    2.635735   3.737033   3.658250   2.429577   1.392163
     7  C    3.878964   4.709849   4.236400   2.786499   2.410372
     8  C    4.308275   4.697563   3.830988   2.408837   2.792555
     9  C    3.747645   3.708512   2.609046   1.398048   2.439346
    10  H    4.588903   4.237626   2.924266   2.167366   3.429392
    11  H    5.394503   5.722095   4.747086   3.396036   3.879732
    12  H    4.783066   5.739791   5.321908   3.873683   3.395870
    13  H    2.921678   4.288840   4.499098   3.422271   2.162989
    14  C    3.747759   2.439465   1.398049   2.608932   3.708443
    15  C    4.308502   2.792699   2.408802   3.830903   4.697552
    16  C    3.879175   2.410393   2.786341   4.236271   4.709803
    17  C    2.635994   1.392161   2.429468   3.658217   3.737063
    18  H    2.922118   2.163044   3.422231   4.499194   4.289051
    19  H    4.783285   3.395866   3.873529   5.321782   5.739752
    20  H    5.394731   3.879875   3.396054   4.747039   5.722102
    21  H    4.588838   3.429424   2.167284   2.923935   4.237342
    22  C    1.546234   2.540715   3.516095   3.516090   2.540693
    23  H    2.193435   2.773899   3.460176   3.459954   2.773456
    24  H    2.188632   3.493229   4.364164   4.054733   2.830872
    25  H    2.188565   2.830289   4.054123   4.363778   3.493101
    26  C    1.546257   2.540614   3.515897   3.515914   2.540608
    27  H    2.188575   2.830085   4.053829   4.363562   3.493028
    28  H    2.188677   3.493176   4.364080   4.054703   2.830918
    29  H    2.193455   2.773803   3.459851   3.459591   2.773234
                    6          7          8          9         10
     6  C    0.000000
     7  C    1.401989   0.000000
     8  C    2.433196   1.400710   0.000000
     9  C    2.822513   2.430683   1.398589   0.000000
    10  H    3.910088   3.415861   2.160836   1.087583   0.000000
    11  H    3.414829   2.157391   1.087220   2.155678   2.485107
    12  H    2.158844   1.087206   2.157646   3.412111   4.308622
    13  H    1.088117   2.160679   3.416356   3.910571   4.998127
    14  C    4.976792   5.364723   4.678499   3.301407   3.136620
    15  C    6.053725   6.617399   6.037526   4.678504   4.527489
    16  C    6.101122   6.927922   6.617326   5.364666   5.461778
    17  C    5.089319   6.101169   6.053707   4.976803   5.350882
    18  H    5.542867   6.699207   6.834765   5.869809   6.340242
    19  H    7.125548   7.997153   7.704517   6.446340   6.505302
    20  H    7.053801   7.517455   6.809893   5.418411   5.079449
    21  H    5.350657   5.461608   4.527264   3.136386   2.621556
    22  C    3.249608   4.532230   5.139776   4.734727   5.591752
    23  H    3.484346   4.564191   5.009104   4.553984   5.322682
    24  H    3.055614   4.365246   5.237919   5.122142   6.084644
    25  H    4.284657   5.597793   6.175363   5.664289   6.454790
    26  C    3.249608   4.532170   5.139619   4.734532   5.591522
    27  H    4.284697   5.597763   6.175202   5.664057   6.454496
    28  H    3.055765   4.365351   5.237932   5.122111   6.084578
    29  H    3.484207   4.563942   5.008705   4.553554   5.322205
                   11         12         13         14         15
    11  H    0.000000
    12  H    2.479353   0.000000
    13  H    4.308429   2.483302   0.000000
    14  C    5.418343   6.446393   5.869695   0.000000
    15  C    6.809827   7.704587   6.834662   1.398586   0.000000
    16  C    7.517333   7.997152   6.699015   2.430619   1.400702
    17  C    7.053752   7.125596   5.542699   2.822521   2.433254
    18  H    7.874453   7.665299   5.804007   3.910579   3.416350
    19  H    8.600458   9.060787   7.665097   3.412051   2.157619
    20  H    7.485209   8.600576   7.874380   2.155744   1.087220
    21  H    5.079155   6.505126   6.339951   1.087576   2.160934
    22  C    6.196695   5.291152   3.212730   4.734831   5.139987
    23  H    6.007006   5.342615   3.626799   4.554444   5.009888
    24  H    6.259572   4.934284   2.671689   5.664717   6.175715
    25  H    7.242031   6.356799   4.174647   5.121545   5.237364
    26  C    6.196537   5.291141   3.212857   4.734586   5.139772
    27  H    7.241863   6.356831   4.174839   5.121165   5.236981
    28  H    6.259589   4.934438   2.671972   5.664580   6.175566
    29  H    6.006600   5.342436   3.626846   4.554055   5.009603
                   16         17         18         19         20
    16  C    0.000000
    17  C    1.401990   0.000000
    18  H    2.160608   1.088119   0.000000
    19  H    1.087209   2.158814   2.483141   0.000000
    20  H    2.157362   3.414855   4.308352   2.479278   0.000000
    21  H    3.415874   3.910090   4.998130   4.308673   2.485372
    22  C    4.532436   3.249824   3.213140   5.291377   6.196911
    23  H    4.565116   3.485241   3.627903   5.343645   6.007828
    24  H    5.597942   4.284731   4.174704   6.356864   7.242400
    25  H    4.364720   3.055150   2.671548   4.933794   6.258987
    26  C    4.532296   3.249761   3.213221   5.291274   6.196680
    27  H    4.364408   3.054940   2.671535   4.933517   6.258578
    28  H    5.597815   4.284654   4.174689   6.356742   7.242233
    29  H    4.565001   3.485261   3.628167   5.343613   6.007517
                   21         22         23         24         25
    21  H    0.000000
    22  C    5.591699   0.000000
    23  H    5.322878   1.095229   0.000000
    24  H    6.455143   1.096688   1.775633   0.000000
    25  H    6.083945   1.096679   1.775659   1.772977   0.000000
    26  C    5.591428   2.530530   3.494287   2.775580   2.775907
    27  H    6.083543   2.776004   3.786142   3.121926   2.569906
    28  H    6.454998   2.775523   3.785612   2.569012   3.121655
    29  H    5.322415   3.494283   4.351063   3.785600   3.786113
                   26         27         28         29
    26  C    0.000000
    27  H    1.096679   0.000000
    28  H    1.096687   1.772981   0.000000
    29  H    1.095232   1.775644   1.775637   0.000000
 Stoichiometry    C15H14
 Framework group  C1[X(C15H14)]
 Deg. of freedom    81
 Full point group                 C1      NOp   1
 RotChk:  IX=0 Diff= 1.71D-04
 Largest Abelian subgroup         C1      NOp   1
 Largest concise Abelian subgroup C1      NOp   1
                         Standard orientation:                         
 ---------------------------------------------------------------------
 Center     Atomic      Atomic             Coordinates (Angstroms)
 Number     Number       Type             X           Y           Z
 ---------------------------------------------------------------------
      1          6           0       -0.000146    1.417323   -0.000020
      2          6           0        1.181638    0.446710   -0.000046
      3          6           0        0.734974   -0.890886   -0.000024
      4          6           0       -0.734789   -0.891006   -0.000023
      5          6           0       -1.181628    0.446525   -0.000012
      6          6           0       -2.544651    0.729871   -0.000035
      7          6           0       -3.463951   -0.328647   -0.000035
      8          6           0       -3.018690   -1.656702    0.000007
      9          6           0       -1.650626   -1.947311   -0.000011
     10          1           0       -1.310782   -2.980433    0.000002
     11          1           0       -3.742479   -2.467983   -0.000006
     12          1           0       -4.530389   -0.117155   -0.000070
     13          1           0       -2.901934    1.757658   -0.000065
     14          6           0        1.650780   -1.947219    0.000012
     15          6           0        3.018836   -1.656590   -0.000004
     16          6           0        3.463970   -0.328500   -0.000038
     17          6           0        2.544667    0.730017   -0.000061
     18          1           0        2.902073    1.757764   -0.000129
     19          1           0        4.530399   -0.116948   -0.000071
     20          1           0        3.742730   -2.467777    0.000012
     21          1           0        1.310774   -2.980281    0.000037
     22          6           0       -0.000182    2.306283   -1.265164
     23          1           0       -0.000644    1.697349   -2.175507
     24          1           0       -0.886443    2.951961   -1.284339
     25          1           0        0.886534    2.951308   -1.284739
     26          6           0       -0.000128    2.305979    1.265367
     27          1           0        0.886707    2.950832    1.285167
     28          1           0       -0.886274    2.951809    1.284673
     29          1           0       -0.000731    1.696808    2.175556
 ---------------------------------------------------------------------
 Rotational constants (GHZ):           1.0539417           0.5482606           0.3911394
 Leave Link  202 at Fri Mar 13 23:25:35 2026, MaxMem=   104857600 cpu:               0.0 elap:               0.0
 (Enter /sw/cluster/pub/apps//g16/l301.exe)
 Standard basis: 6-31+G(d) (6D, 7F)
 Ernie: Thresh=  0.10000D-02 Tol=  0.10000D-05 Strict=F.
 There are   313 symmetry adapted cartesian basis functions of A   symmetry.
 There are   313 symmetry adapted basis functions of A   symmetry.
   313 basis functions,   536 primitive gaussians,   313 cartesian basis functions
    52 alpha electrons       52 beta electrons
       nuclear repulsion energy       925.1956863983 Hartrees.
 IExCor=  402 DFT=T Ex+Corr=B3LYP ExCW=0 ScaHFX=  0.200000
 ScaDFX=  0.800000  0.720000  1.000000  0.810000 ScalE2=  1.000000  1.000000
 IRadAn=      5 IRanWt=     -1 IRanGd=            0 ICorTp=0 IEmpDi=  4
 NAtoms=   29 NActive=   29 NUniq=   29 SFac= 1.00D+00 NAtFMM=   60 NAOKFM=F Big=F
 Integral buffers will be    131072 words long.
 Raffenetti 2 integral format.
 Two-electron integral symmetry is turned on.
 Leave Link  301 at Fri Mar 13 23:25:35 2026, MaxMem=   104857600 cpu:               0.0 elap:               0.0
 (Enter /sw/cluster/pub/apps//g16/l302.exe)
 NPDir=0 NMtPBC=     1 NCelOv=     1 NCel=       1 NClECP=     1 NCelD=      1
         NCelK=      1 NCelE2=     1 NClLst=     1 CellRange=     0.0.
 One-electron integrals computed using PRISM.
 One-electron integral symmetry used in STVInt
 NBasis=   313 RedAO= T EigKep=  1.23D-06  NBF=   313
 NBsUse=   309 1.00D-06 EigRej=  7.63D-07 NBFU=   309
 Precomputing XC quadrature grid using
 IXCGrd= 4 IRadAn=           5 IRanWt=          -1 IRanGd=           0 AccXCQ= 0.00D+00.
 Generated NRdTot=       0 NPtTot=           0 NUsed=           0 NTot=          32
 NSgBfM=   312   312   312   312   312 MxSgAt=    29 MxSgA2=    29.
 Leave Link  302 at Fri Mar 13 23:25:35 2026, MaxMem=   104857600 cpu:               0.4 elap:               0.4
 (Enter /sw/cluster/pub/apps//g16/l303.exe)
 DipDrv:  MaxL=1.
 Leave Link  303 at Fri Mar 13 23:25:35 2026, MaxMem=   104857600 cpu:               0.0 elap:               0.0
 (Enter /sw/cluster/pub/apps//g16/l401.exe)
 Initial guess from the checkpoint file:  "f1-6-31+Gstar.chk"
 B after Tr=     0.000000    0.000000   -0.000000
         Rot=    1.000000    0.000032    0.000006   -0.000044 Ang=   0.01 deg.
 Guess basis will be translated and rotated to current coordinates.
 JPrj=2 DoOrth=T DoCkMO=T.
 Leave Link  401 at Fri Mar 13 23:25:36 2026, MaxMem=   104857600 cpu:               0.0 elap:               0.0
 (Enter /sw/cluster/pub/apps//g16/l502.exe)
 Integral symmetry usage will be decided dynamically.
 Closed shell SCF:
 Using DIIS extrapolation, IDIIS=  1040.
 NGot=   104857600 LenX=   104656419 LenY=   104558009
 Requested convergence on RMS density matrix=1.00D-08 within 128 cycles.
 Requested convergence on MAX density matrix=1.00D-06.
 Requested convergence on             energy=1.00D-06.
 No special actions if energy rises.
 Fock matrices will be formed incrementally for  20 cycles.

 Cycle   1  Pass 1  IDiag  1:
 FoFJK:  IHMeth= 1 ICntrl=       0 DoSepK=F KAlg= 0 I1Cent=           0 FoldK=F
 IRaf= 930000000 NMat=       1 IRICut=       1 DoRegI=T DoRafI=F ISym2E= 0 IDoP0=0 IntGTp=1.
 FoFCou: FMM=F IPFlag=           0 FMFlag=      100000 FMFlg1=           0
         NFxFlg=           0 DoJE=F BraDBF=F KetDBF=F FulRan=T
         wScrn=  0.000000 ICntrl=         0 IOpCl=  0 I1Cent=           0 NGrid=           0
         NMat0=    1 NMatS0=      1 NMatT0=    0 NMatD0=    1 NMtDS0=    0 NMtDT0=    0
 Symmetry not used in FoFCou.
 E= -580.069736728399    
 DIIS: error= 2.80D-04 at cycle   1 NSaved=   1.
 NSaved= 1 IEnMin= 1 EnMin= -580.069736728399     IErMin= 1 ErrMin= 2.80D-04
 ErrMax= 2.80D-04  0.00D+00 EMaxC= 1.00D-01 BMatC= 1.33D-05 BMatP= 1.33D-05
 IDIUse=3 WtCom= 9.97D-01 WtEn= 2.80D-03
 Coeff-Com:  0.100D+01
 Coeff-En:   0.100D+01
 Coeff:      0.100D+01
 Gap=     0.410 Goal=   None    Shift=    0.000
 RMSDP=5.77D-04 MaxDP=2.84D-02              OVMax= 8.06D-04

 Cycle   2  Pass 1  IDiag  1:
 RMSU=  3.14D-04    CP:  9.91D-01
 E= -580.069748592850     Delta-E=       -0.000011864451 Rises=F Damp=F
 DIIS: error= 7.65D-05 at cycle   2 NSaved=   2.
 NSaved= 2 IEnMin= 2 EnMin= -580.069748592850     IErMin= 2 ErrMin= 7.65D-05
 ErrMax= 7.65D-05  0.00D+00 EMaxC= 1.00D-01 BMatC= 1.88D-06 BMatP= 1.33D-05
 IDIUse=1 WtCom= 1.00D+00 WtEn= 0.00D+00
 Coeff-Com:  0.188D+00 0.812D+00
 Coeff:      0.188D+00 0.812D+00
 Gap=     0.179 Goal=   None    Shift=    0.000
 RMSDP=1.02D-04 MaxDP=5.04D-03 DE=-1.19D-05 OVMax= 6.01D-04

 Cycle   3  Pass 1  IDiag  1:
 RMSU=  9.29D-05    CP:  9.90D-01  9.83D-01
 E= -580.069748788906     Delta-E=       -0.000000196056 Rises=F Damp=F
 DIIS: error= 1.01D-04 at cycle   3 NSaved=   3.
 NSaved= 3 IEnMin= 3 EnMin= -580.069748788906     IErMin= 2 ErrMin= 7.65D-05
 ErrMax= 1.01D-04  0.00D+00 EMaxC= 1.00D-01 BMatC= 1.69D-06 BMatP= 1.88D-06
 IDIUse=3 WtCom= 9.99D-01 WtEn= 1.01D-03
 Coeff-Com:  0.156D-01 0.485D+00 0.499D+00
 Coeff-En:   0.000D+00 0.476D+00 0.524D+00
 Coeff:      0.155D-01 0.485D+00 0.499D+00
 Gap=     0.179 Goal=   None    Shift=    0.000
 RMSDP=5.75D-05 MaxDP=2.78D-03 DE=-1.96D-07 OVMax= 4.69D-04

 Cycle   4  Pass 1  IDiag  1:
 RMSU=  1.86D-05    CP:  9.91D-01  1.03D+00  4.44D-01
 E= -580.069750304483     Delta-E=       -0.000001515577 Rises=F Damp=F
 DIIS: error= 4.70D-05 at cycle   4 NSaved=   4.
 NSaved= 4 IEnMin= 4 EnMin= -580.069750304483     IErMin= 4 ErrMin= 4.70D-05
 ErrMax= 4.70D-05  0.00D+00 EMaxC= 1.00D-01 BMatC= 2.43D-07 BMatP= 1.69D-06
 IDIUse=1 WtCom= 1.00D+00 WtEn= 0.00D+00
 Coeff-Com: -0.461D-02 0.264D+00 0.339D+00 0.401D+00
 Coeff:     -0.461D-02 0.264D+00 0.339D+00 0.401D+00
 Gap=     0.179 Goal=   None    Shift=    0.000
 RMSDP=1.85D-05 MaxDP=1.38D-03 DE=-1.52D-06 OVMax= 1.76D-04

 Cycle   5  Pass 1  IDiag  1:
 RMSU=  9.30D-06    CP:  9.91D-01  1.01D+00  4.95D-01  2.93D-01
 E= -580.069750583109     Delta-E=       -0.000000278626 Rises=F Damp=F
 DIIS: error= 3.77D-06 at cycle   5 NSaved=   5.
 NSaved= 5 IEnMin= 5 EnMin= -580.069750583109     IErMin= 5 ErrMin= 3.77D-06
 ErrMax= 3.77D-06  0.00D+00 EMaxC= 1.00D-01 BMatC= 2.99D-09 BMatP= 2.43D-07
 IDIUse=1 WtCom= 1.00D+00 WtEn= 0.00D+00
 Coeff-Com: -0.244D-02 0.495D-01 0.763D-01 0.152D+00 0.725D+00
 Coeff:     -0.244D-02 0.495D-01 0.763D-01 0.152D+00 0.725D+00
 Gap=     0.179 Goal=   None    Shift=    0.000
 RMSDP=3.31D-06 MaxDP=2.26D-04 DE=-2.79D-07 OVMax= 2.00D-05

 Cycle   6  Pass 1  IDiag  1:
 RMSU=  8.91D-07    CP:  9.91D-01  1.02D+00  4.90D-01  3.79D-01  7.93D-01
 E= -580.069750586400     Delta-E=       -0.000000003291 Rises=F Damp=F
 DIIS: error= 8.88D-07 at cycle   6 NSaved=   6.
 NSaved= 6 IEnMin= 6 EnMin= -580.069750586400     IErMin= 6 ErrMin= 8.88D-07
 ErrMax= 8.88D-07  0.00D+00 EMaxC= 1.00D-01 BMatC= 2.73D-10 BMatP= 2.99D-09
 IDIUse=1 WtCom= 1.00D+00 WtEn= 0.00D+00
 Coeff-Com: -0.982D-03 0.123D-01 0.230D-01 0.571D-01 0.350D+00 0.558D+00
 Coeff:     -0.982D-03 0.123D-01 0.230D-01 0.571D-01 0.350D+00 0.558D+00
 Gap=     0.179 Goal=   None    Shift=    0.000
 RMSDP=5.45D-07 MaxDP=3.36D-05 DE=-3.29D-09 OVMax= 3.81D-06

 Cycle   7  Pass 1  IDiag  1:
 RMSU=  2.95D-07    CP:  9.91D-01  1.02D+00  4.90D-01  3.93D-01  7.80D-01
                    CP:  7.84D-01
 E= -580.069750586631     Delta-E=       -0.000000000231 Rises=F Damp=F
 DIIS: error= 3.29D-07 at cycle   7 NSaved=   7.
 NSaved= 7 IEnMin= 7 EnMin= -580.069750586631     IErMin= 7 ErrMin= 3.29D-07
 ErrMax= 3.29D-07  0.00D+00 EMaxC= 1.00D-01 BMatC= 3.48D-11 BMatP= 2.73D-10
 IDIUse=1 WtCom= 1.00D+00 WtEn= 0.00D+00
 Coeff-Com: -0.166D-03-0.667D-03 0.144D-02 0.781D-02 0.795D-01 0.289D+00
 Coeff-Com:  0.623D+00
 Coeff:     -0.166D-03-0.667D-03 0.144D-02 0.781D-02 0.795D-01 0.289D+00
 Coeff:      0.623D+00
 Gap=     0.179 Goal=   None    Shift=    0.000
 RMSDP=2.72D-07 MaxDP=1.97D-05 DE=-2.31D-10 OVMax= 1.87D-06

 Cycle   8  Pass 1  IDiag  1:
 RMSU=  8.24D-08    CP:  9.91D-01  1.02D+00  4.92D-01  3.88D-01  7.94D-01
                    CP:  7.86D-01  6.91D-01
 E= -580.069750586664     Delta-E=       -0.000000000033 Rises=F Damp=F
 DIIS: error= 1.38D-07 at cycle   8 NSaved=   8.
 NSaved= 8 IEnMin= 8 EnMin= -580.069750586664     IErMin= 8 ErrMin= 1.38D-07
 ErrMax= 1.38D-07  0.00D+00 EMaxC= 1.00D-01 BMatC= 3.57D-12 BMatP= 3.48D-11
 IDIUse=1 WtCom= 1.00D+00 WtEn= 0.00D+00
 Coeff-Com: -0.456D-04-0.945D-03-0.299D-03 0.131D-02 0.272D-01 0.133D+00
 Coeff-Com:  0.351D+00 0.489D+00
 Coeff:     -0.456D-04-0.945D-03-0.299D-03 0.131D-02 0.272D-01 0.133D+00
 Coeff:      0.351D+00 0.489D+00
 Gap=     0.179 Goal=   None    Shift=    0.000
 RMSDP=3.92D-08 MaxDP=1.78D-06 DE=-3.32D-11 OVMax= 9.76D-07

 Cycle   9  Pass 1  IDiag  1:
 RMSU=  2.99D-08    CP:  9.91D-01  1.02D+00  4.92D-01  3.87D-01  7.94D-01
                    CP:  7.91D-01  7.14D-01  7.51D-01
 E= -580.069750586676     Delta-E=       -0.000000000012 Rises=F Damp=F
 DIIS: error= 5.91D-08 at cycle   9 NSaved=   9.
 NSaved= 9 IEnMin= 9 EnMin= -580.069750586676     IErMin= 9 ErrMin= 5.91D-08
 ErrMax= 5.91D-08  0.00D+00 EMaxC= 1.00D-01 BMatC= 4.82D-13 BMatP= 3.57D-12
 IDIUse=1 WtCom= 1.00D+00 WtEn= 0.00D+00
 Coeff-Com:  0.179D-05-0.442D-03-0.446D-03-0.683D-03 0.272D-02 0.263D-01
 Coeff-Com:  0.939D-01 0.290D+00 0.589D+00
 Coeff:      0.179D-05-0.442D-03-0.446D-03-0.683D-03 0.272D-02 0.263D-01
 Coeff:      0.939D-01 0.290D+00 0.589D+00
 Gap=     0.179 Goal=   None    Shift=    0.000
 RMSDP=1.92D-08 MaxDP=1.11D-06 DE=-1.18D-11 OVMax= 4.00D-07

 Cycle  10  Pass 1  IDiag  1:
 RMSU=  9.34D-09    CP:  9.91D-01  1.02D+00  4.92D-01  3.87D-01  7.95D-01
                    CP:  7.95D-01  7.15D-01  7.98D-01  6.07D-01
 E= -580.069750586675     Delta-E=        0.000000000000 Rises=F Damp=F
 DIIS: error= 1.29D-08 at cycle  10 NSaved=  10.
 NSaved=10 IEnMin= 9 EnMin= -580.069750586676     IErMin=10 ErrMin= 1.29D-08
 ErrMax= 1.29D-08  0.00D+00 EMaxC= 1.00D-01 BMatC= 5.45D-14 BMatP= 4.82D-13
 IDIUse=1 WtCom= 1.00D+00 WtEn= 0.00D+00
 Coeff-Com:  0.485D-05-0.192D-03-0.253D-03-0.530D-03-0.594D-03 0.455D-02
 Coeff-Com:  0.265D-01 0.132D+00 0.351D+00 0.487D+00
 Coeff:      0.485D-05-0.192D-03-0.253D-03-0.530D-03-0.594D-03 0.455D-02
 Coeff:      0.265D-01 0.132D+00 0.351D+00 0.487D+00
 Gap=     0.179 Goal=   None    Shift=    0.000
 RMSDP=4.87D-09 MaxDP=2.78D-07 DE= 2.27D-13 OVMax= 7.67D-08

 SCF Done:  E(RB3LYP) =  -580.069750587     A.U. after   10 cycles
            NFock= 10  Conv=0.49D-08     -V/T= 2.0100
 KE= 5.743516507450D+02 PE=-3.191797465685D+03 EE= 1.112180377955D+03
 Leave Link  502 at Fri Mar 13 23:27:19 2026, MaxMem=   104857600 cpu:             103.3 elap:             103.4
 (Enter /sw/cluster/pub/apps//g16/l701.exe)
 ... and contract with generalized density number  0.
 Compute integral first derivatives.
 Leave Link  701 at Fri Mar 13 23:27:19 2026, MaxMem=   104857600 cpu:               0.1 elap:               0.1
 (Enter /sw/cluster/pub/apps//g16/l702.exe)
 L702 exits ... SP integral derivatives will be done elsewhere.
 Leave Link  702 at Fri Mar 13 23:27:19 2026, MaxMem=   104857600 cpu:               0.0 elap:               0.0
 (Enter /sw/cluster/pub/apps//g16/l703.exe)
 Integral derivatives from FoFJK, PRISM(SPDF).
 Compute integral first derivatives, UseDBF=F ICtDFT=           0.
 Calling FoFJK, ICntrl=      2127 FMM=F ISym2X=0 I1Cent= 0 IOpClX= 0 NMat=1 NMatS=1 NMatT=0.
 FoFJK:  IHMeth= 1 ICntrl=    2127 DoSepK=F KAlg= 0 I1Cent=           0 FoldK=F
 IRaf=         0 NMat=       1 IRICut=       1 DoRegI=T DoRafI=F ISym2E= 0 IDoP0=0 IntGTp=1.
 FoFCou: FMM=F IPFlag=           0 FMFlag=      100000 FMFlg1=         800
         NFxFlg=           0 DoJE=F BraDBF=F KetDBF=F FulRan=T
         wScrn=  0.000000 ICntrl=      2127 IOpCl=  0 I1Cent=           0 NGrid=           0
         NMat0=    1 NMatS0=      1 NMatT0=    0 NMatD0=    1 NMtDS0=    0 NMtDT0=    0
 Symmetry not used in FoFCou.
 Leave Link  703 at Fri Mar 13 23:27:54 2026, MaxMem=   104857600 cpu:              34.8 elap:              34.9
 (Enter /sw/cluster/pub/apps//g16/l716.exe)
 Dipole        = 4.94957455D-05 2.05190653D-01-1.67219233D-05
 ***** Axes restored to original set *****
 -------------------------------------------------------------------
 Center     Atomic                   Forces (Hartrees/Bohr)
 Number     Number              X              Y              Z
 -------------------------------------------------------------------
      1        6           0.000088149    0.000030729   -0.000017996
      2        6           0.000074319    0.000138596    0.000003622
      3        6           0.000072642   -0.000130137    0.000001332
      4        6          -0.000175878    0.000054362   -0.000005172
      5        6           0.000086474    0.000098420    0.000009867
      6        6           0.000104793    0.000016366    0.000000798
      7        6           0.000033964   -0.000109874    0.000000348
      8        6           0.000074580   -0.000087180    0.000007588
      9        6          -0.000040552   -0.000076824   -0.000002092
     10        1          -0.000051587   -0.000000647    0.000000138
     11        1           0.000004170   -0.000055549   -0.000000135
     12        1           0.000040947   -0.000036428    0.000000130
     13        1           0.000006948    0.000065552   -0.000001423
     14        6          -0.000085411   -0.000063907    0.000002341
     15        6          -0.000101855    0.000065207   -0.000003343
     16        6          -0.000105850    0.000006444    0.000000990
     17        6          -0.000007701    0.000089736    0.000000738
     18        1           0.000055627    0.000018787   -0.000001877
     19        1          -0.000042805    0.000036135   -0.000001574
     20        1          -0.000056797    0.000003723   -0.000000547
     21        1           0.000020691   -0.000054151    0.000001056
     22        6          -0.000039993   -0.000041601    0.000060954
     23        1           0.000004200   -0.000004512   -0.000019038
     24        1           0.000026297    0.000021742   -0.000026636
     25        1           0.000013392    0.000021920   -0.000021035
     26        6          -0.000037832   -0.000049412   -0.000059778
     27        1           0.000010898    0.000021347    0.000021362
     28        1           0.000025155    0.000024704    0.000027634
     29        1           0.000003015   -0.000003546    0.000021750
 -------------------------------------------------------------------
 Cartesian Forces:  Max     0.000175878 RMS     0.000053122
 Leave Link  716 at Fri Mar 13 23:27:54 2026, MaxMem=   104857600 cpu:               0.0 elap:               0.0
 (Enter /sw/cluster/pub/apps//g16/l103.exe)

 GradGradGradGradGradGradGradGradGradGradGradGradGradGradGradGradGradGrad
 Berny optimization.
 Using GEDIIS/GDIIS optimizer.
 FormGI is forming the generalized inverse of G from B-inverse, IUseBI=4.
 Internal  Forces:  Max     0.000190898 RMS     0.000049829
 Search for a local minimum.
 Step number   2 out of a maximum of  174
 All quantities printed in internal units (Hartrees-Bohrs-Radians)
 RMS Force = .49829D-04 SwitMx=.10000D-02 MixMth= 2
 Mixed Optimization -- En-DIIS/RFO-DIIS
 Swapping is turned off.
 Update second derivatives using D2CorX and points    1    2
 DE= -3.10D-05 DEPred=-3.43D-05 R= 9.05D-01
 TightC=F SS=  1.41D+00  RLast= 1.46D-02 DXNew= 5.0454D-01 4.3657D-02
 Trust test= 9.05D-01 RLast= 1.46D-02 DXMaxT set to 3.00D-01
 ITU=  1  0
     Eigenvalues ---    0.00230   0.00230   0.00755   0.01247   0.01447
     Eigenvalues ---    0.01649   0.01717   0.01880   0.02096   0.02097
     Eigenvalues ---    0.02113   0.02113   0.02118   0.02119   0.02135
     Eigenvalues ---    0.02135   0.02145   0.02146   0.02160   0.02161
     Eigenvalues ---    0.04414   0.05431   0.05431   0.05502   0.05502
     Eigenvalues ---    0.05966   0.08004   0.11617   0.15754   0.16000
     Eigenvalues ---    0.16000   0.16000   0.16000   0.16000   0.16000
     Eigenvalues ---    0.16000   0.16000   0.16000   0.16000   0.16000
     Eigenvalues ---    0.16000   0.16010   0.18911   0.21999   0.22000
     Eigenvalues ---    0.22600   0.22682   0.24483   0.24595   0.24994
     Eigenvalues ---    0.28000   0.28039   0.28566   0.29040   0.34099
     Eigenvalues ---    0.34103   0.34105   0.34111   0.34270   0.34283
     Eigenvalues ---    0.34647   0.35076   0.35089   0.35141   0.35151
     Eigenvalues ---    0.35181   0.35183   0.35185   0.35351   0.37952
     Eigenvalues ---    0.40370   0.42118   0.42126   0.44329   0.45061
     Eigenvalues ---    0.45815   0.45922   0.46110   0.46385   0.46882
     Eigenvalues ---    0.51099
 En-DIIS/RFO-DIIS/Sim-DIIS IScMMF=       -3 using points:     2    1
 RFO step:  Lambda=-9.91603723D-07.
 NNeg= 0 NGDIIS= 2 SimSw=  2.50D-03 Rises=F DC= -3.10D-05 SmlDif=  1.00D-05
 NRisDI= 0 DoIntr=F SqrtH=F CThrHd= 10.0 CDAdj=  3.0
 RMS Error=  0.3092327877D-03 NUsed= 2 OKEnD=T EnDIS=F
 InvSVX:  RCond= 2.38D-04 Info=           0 Equed=N FErr=  1.09D-15 BErr=  3.33D-17
 DidBck=F Rises=F RFO-DIIS coefs:    0.83901    0.16099
 Iteration  1 RMS(Cart)=  0.00040248 RMS(Int)=  0.00000013
 Iteration  2 RMS(Cart)=  0.00000014 RMS(Int)=  0.00000002
 ITry= 1 IFail=0 DXMaxC= 1.75D-03 DCOld= 1.00D+10 DXMaxT= 3.00D-01 DXLimC= 3.00D+00 Rises=F
 Variable       Old X    -DE/DX   Delta X   Delta X   Delta X     New X
                                 (Linear)    (Quad)   (Total)
    R1        2.88992  -0.00013  -0.00018  -0.00020  -0.00038   2.88954
    R2        2.88970  -0.00008  -0.00021  -0.00002  -0.00023   2.88948
    R3        2.92196  -0.00001  -0.00023   0.00022  -0.00001   2.92195
    R4        2.92200  -0.00001  -0.00024   0.00023  -0.00001   2.92199
    R5        2.66490  -0.00018  -0.00027  -0.00010  -0.00037   2.66453
    R6        2.63080  -0.00015  -0.00051   0.00024  -0.00027   2.63053
    R7        2.77745  -0.00007  -0.00027   0.00008  -0.00019   2.77726
    R8        2.64193  -0.00018  -0.00053   0.00020  -0.00034   2.64159
    R9        2.66489  -0.00018  -0.00029  -0.00007  -0.00036   2.66453
   R10        2.64193  -0.00018  -0.00053   0.00019  -0.00033   2.64159
   R11        2.63081  -0.00015  -0.00052   0.00025  -0.00027   2.63054
   R12        2.64937  -0.00019  -0.00059   0.00024  -0.00035   2.64902
   R13        2.05624  -0.00004  -0.00011   0.00002  -0.00010   2.05615
   R14        2.64696  -0.00009  -0.00060   0.00046  -0.00014   2.64682
   R15        2.05452  -0.00005  -0.00012  -0.00001  -0.00013   2.05439
   R16        2.64295  -0.00018  -0.00057   0.00023  -0.00034   2.64261
   R17        2.05455  -0.00006  -0.00012  -0.00002  -0.00014   2.05441
   R18        2.05523  -0.00004  -0.00012   0.00001  -0.00011   2.05512
   R19        2.64294  -0.00018  -0.00057   0.00024  -0.00033   2.64261
   R20        2.05522  -0.00004  -0.00013   0.00003  -0.00010   2.05512
   R21        2.64694  -0.00008  -0.00059   0.00046  -0.00013   2.64681
   R22        2.05455  -0.00006  -0.00012  -0.00002  -0.00014   2.05441
   R23        2.64938  -0.00019  -0.00059   0.00024  -0.00036   2.64902
   R24        2.05453  -0.00005  -0.00012  -0.00002  -0.00014   2.05439
   R25        2.05625  -0.00004  -0.00013   0.00003  -0.00009   2.05615
   R26        2.06968  -0.00002  -0.00018   0.00015  -0.00004   2.06965
   R27        2.07244  -0.00002  -0.00014   0.00008  -0.00006   2.07238
   R28        2.07242  -0.00002  -0.00015   0.00010  -0.00005   2.07238
   R29        2.07242  -0.00002  -0.00013   0.00008  -0.00004   2.07238
   R30        2.07244  -0.00002  -0.00014   0.00008  -0.00006   2.07238
   R31        2.06969  -0.00002  -0.00018   0.00014  -0.00004   2.06965
    A1        1.76617  -0.00002   0.00005  -0.00014  -0.00009   1.76608
    A2        1.94432   0.00001  -0.00009   0.00012   0.00004   1.94436
    A3        1.94418   0.00002  -0.00012   0.00023   0.00011   1.94429
    A4        1.94440   0.00001  -0.00000   0.00001   0.00001   1.94441
    A5        1.94428   0.00001   0.00000   0.00007   0.00008   1.94436
    A6        1.91683  -0.00003   0.00014  -0.00027  -0.00013   1.91670
    A7        1.93611   0.00002  -0.00009   0.00020   0.00011   1.93622
    A8        2.24906  -0.00005   0.00007  -0.00026  -0.00019   2.24887
    A9        2.09802   0.00003   0.00002   0.00006   0.00008   2.09810
   A10        1.89317  -0.00000   0.00005  -0.00009  -0.00004   1.89313
   A11        2.10504   0.00002  -0.00002   0.00009   0.00007   2.10511
   A12        2.28498  -0.00001  -0.00003   0.00000  -0.00003   2.28495
   A13        1.89313  -0.00001   0.00005  -0.00009  -0.00004   1.89309
   A14        2.28517  -0.00004   0.00002  -0.00015  -0.00013   2.28504
   A15        2.10488   0.00004  -0.00007   0.00024   0.00017   2.10505
   A16        1.93620   0.00001  -0.00006   0.00013   0.00006   1.93626
   A17        2.24881  -0.00001   0.00001  -0.00005  -0.00005   2.24877
   A18        2.09818  -0.00000   0.00006  -0.00008  -0.00002   2.09816
   A19        2.08096  -0.00002  -0.00009   0.00001  -0.00008   2.08088
   A20        2.11031   0.00007  -0.00014   0.00050   0.00036   2.11068
   A21        2.09191  -0.00004   0.00023  -0.00051  -0.00028   2.09163
   A22        2.10297   0.00001   0.00006  -0.00000   0.00005   2.10303
   A23        2.09014  -0.00002  -0.00006  -0.00003  -0.00009   2.09005
   A24        2.09007   0.00001   0.00000   0.00004   0.00004   2.09010
   A25        2.10360   0.00000   0.00010  -0.00007   0.00002   2.10362
   A26        2.08963   0.00000  -0.00002   0.00002   0.00001   2.08964
   A27        2.08995  -0.00001  -0.00008   0.00005  -0.00003   2.08992
   A28        2.07578  -0.00003  -0.00005  -0.00009  -0.00014   2.07563
   A29        2.10950   0.00004  -0.00011   0.00034   0.00023   2.10973
   A30        2.09791  -0.00001   0.00016  -0.00025  -0.00008   2.09782
   A31        2.07573  -0.00003  -0.00008  -0.00004  -0.00012   2.07561
   A32        2.10937   0.00006  -0.00014   0.00044   0.00030   2.10967
   A33        2.09808  -0.00003   0.00022  -0.00041  -0.00018   2.09790
   A34        2.10353   0.00002   0.00009  -0.00002   0.00007   2.10359
   A35        2.09006  -0.00002  -0.00008  -0.00002  -0.00010   2.08997
   A36        2.08960   0.00000  -0.00002   0.00004   0.00003   2.08962
   A37        2.10306  -0.00000   0.00008  -0.00008  -0.00000   2.10306
   A38        2.09003   0.00001  -0.00001   0.00008   0.00007   2.09010
   A39        2.09009  -0.00001  -0.00007   0.00000  -0.00007   2.09002
   A40        2.08099  -0.00003  -0.00009  -0.00001  -0.00010   2.08089
   A41        2.11040   0.00006  -0.00011   0.00043   0.00032   2.11072
   A42        2.09179  -0.00003   0.00021  -0.00042  -0.00022   2.09157
   A43        1.93953  -0.00000  -0.00001   0.00000  -0.00001   1.93953
   A44        1.93137  -0.00004   0.00008  -0.00033  -0.00024   1.93113
   A45        1.93129  -0.00003   0.00003  -0.00019  -0.00016   1.93112
   A46        1.88858   0.00002  -0.00003   0.00016   0.00013   1.88871
   A47        1.88864   0.00002  -0.00002   0.00012   0.00009   1.88873
   A48        1.88264   0.00004  -0.00005   0.00026   0.00021   1.88284
   A49        1.93127  -0.00003   0.00006  -0.00020  -0.00015   1.93112
   A50        1.93140  -0.00005   0.00008  -0.00035  -0.00027   1.93113
   A51        1.93953  -0.00000  -0.00003   0.00002  -0.00001   1.93952
   A52        1.88265   0.00004  -0.00004   0.00025   0.00020   1.88285
   A53        1.88861   0.00002  -0.00004   0.00015   0.00011   1.88872
   A54        1.88859   0.00002  -0.00003   0.00016   0.00013   1.88872
    D1       -0.00002  -0.00000  -0.00004  -0.00000  -0.00004  -0.00006
    D2       -3.14159  -0.00000  -0.00002  -0.00002  -0.00004   3.14156
    D3       -2.06825  -0.00001  -0.00003   0.00001  -0.00002  -2.06827
    D4        1.07337  -0.00001  -0.00000  -0.00001  -0.00001   1.07335
    D5        2.06801   0.00001  -0.00006   0.00011   0.00005   2.06805
    D6       -1.07356   0.00001  -0.00004   0.00009   0.00005  -1.07351
    D7        0.00001   0.00000   0.00003   0.00003   0.00006   0.00007
    D8       -3.14155   0.00000  -0.00002   0.00002  -0.00001  -3.14156
    D9        2.06817   0.00001  -0.00004   0.00009   0.00006   2.06823
   D10       -1.07339   0.00001  -0.00009   0.00009  -0.00001  -1.07339
   D11       -2.06795  -0.00001   0.00014  -0.00019  -0.00005  -2.06800
   D12        1.07368  -0.00001   0.00008  -0.00020  -0.00012   1.07356
   D13        0.97954  -0.00001  -0.00012  -0.00067  -0.00079   0.97875
   D14        3.07821  -0.00001  -0.00011  -0.00068  -0.00079   3.07742
   D15       -1.11915  -0.00001  -0.00011  -0.00069  -0.00079  -1.11994
   D16       -0.97847   0.00001  -0.00014  -0.00057  -0.00071  -0.97918
   D17        1.12021   0.00001  -0.00013  -0.00058  -0.00071   1.11950
   D18       -3.07715   0.00001  -0.00012  -0.00059  -0.00071  -3.07786
   D19       -3.14115  -0.00000  -0.00024  -0.00048  -0.00072   3.14131
   D20       -1.04248  -0.00000  -0.00022  -0.00050  -0.00072  -1.04320
   D21        1.04335  -0.00000  -0.00022  -0.00050  -0.00072   1.04262
   D22        1.11901   0.00001   0.00027   0.00072   0.00099   1.12000
   D23       -3.07833   0.00001   0.00030   0.00067   0.00097  -3.07736
   D24       -0.97963   0.00001   0.00030   0.00066   0.00095  -0.97868
   D25        3.07686  -0.00000   0.00027   0.00072   0.00099   3.07785
   D26       -1.12048  -0.00000   0.00030   0.00067   0.00097  -1.11951
   D27        0.97822  -0.00000   0.00030   0.00065   0.00095   0.97917
   D28       -1.04357   0.00000   0.00036   0.00060   0.00096  -1.04261
   D29        1.04228   0.00000   0.00039   0.00055   0.00094   1.04322
   D30        3.14098   0.00000   0.00039   0.00053   0.00092  -3.14129
   D31        0.00003   0.00000   0.00003  -0.00002   0.00001   0.00004
   D32       -3.14155   0.00000   0.00003  -0.00004  -0.00001  -3.14156
   D33       -3.14158   0.00000   0.00001  -0.00001   0.00000  -3.14158
   D34        0.00002   0.00000   0.00001  -0.00002  -0.00001   0.00001
   D35        3.14155  -0.00000  -0.00003   0.00003  -0.00000   3.14155
   D36       -0.00008   0.00000  -0.00001   0.00006   0.00004  -0.00004
   D37       -0.00001  -0.00000  -0.00001   0.00001   0.00000  -0.00001
   D38        3.14154   0.00000   0.00001   0.00004   0.00005   3.14158
   D39       -0.00002   0.00000  -0.00001   0.00004   0.00003   0.00001
   D40        3.14159  -0.00000   0.00001  -0.00002  -0.00001   3.14158
   D41        3.14155   0.00000  -0.00000   0.00005   0.00005  -3.14159
   D42       -0.00002   0.00000   0.00001  -0.00000   0.00001  -0.00001
   D43       -0.00003   0.00000   0.00001   0.00001   0.00002  -0.00000
   D44        3.14158   0.00000  -0.00000   0.00001   0.00000   3.14159
   D45        3.14159  -0.00000   0.00000  -0.00000   0.00000   3.14159
   D46        0.00001  -0.00000  -0.00001  -0.00001  -0.00002  -0.00000
   D47        0.00001  -0.00000  -0.00002  -0.00004  -0.00006  -0.00005
   D48        3.14157  -0.00000   0.00003  -0.00003   0.00000   3.14157
   D49        3.14159  -0.00000  -0.00003   0.00001  -0.00003   3.14156
   D50       -0.00004   0.00000   0.00002   0.00002   0.00003  -0.00000
   D51        3.14158   0.00000  -0.00001   0.00005   0.00004  -3.14157
   D52        0.00000   0.00000  -0.00001   0.00003   0.00001   0.00002
   D53        0.00000   0.00000   0.00001  -0.00001   0.00000   0.00001
   D54       -3.14157  -0.00000   0.00001  -0.00003  -0.00003   3.14159
   D55        3.14158   0.00000   0.00004   0.00001   0.00005  -3.14155
   D56        0.00000   0.00000   0.00001   0.00001   0.00003   0.00003
   D57        0.00003  -0.00000  -0.00003   0.00000  -0.00002   0.00000
   D58       -3.14155  -0.00000  -0.00005   0.00000  -0.00005   3.14159
   D59        0.00002  -0.00000   0.00000  -0.00002  -0.00002  -0.00001
   D60       -3.14157  -0.00000  -0.00001  -0.00001  -0.00002   3.14159
   D61       -3.14159   0.00000   0.00003  -0.00003  -0.00000  -3.14159
   D62        0.00001   0.00000   0.00002  -0.00002   0.00000   0.00001
   D63       -0.00005   0.00000   0.00003   0.00003   0.00006   0.00001
   D64       -3.14158  -0.00000   0.00000  -0.00001  -0.00001  -3.14159
   D65        3.14154   0.00000   0.00004   0.00002   0.00006  -3.14159
   D66        0.00001  -0.00000   0.00001  -0.00002  -0.00001  -0.00000
   D67        0.00004  -0.00000  -0.00003  -0.00001  -0.00005  -0.00001
   D68       -3.14157  -0.00000  -0.00003   0.00001  -0.00002  -3.14159
   D69        3.14157   0.00000  -0.00001   0.00003   0.00002   3.14159
   D70       -0.00004   0.00000  -0.00000   0.00005   0.00005   0.00001
   D71        0.00001  -0.00000  -0.00002  -0.00000  -0.00002  -0.00001
   D72       -3.14158  -0.00000  -0.00001  -0.00001  -0.00002   3.14159
   D73        3.14159  -0.00000  -0.00001   0.00000  -0.00000   3.14159
   D74       -0.00000  -0.00000   0.00000  -0.00000  -0.00000  -0.00001
   D75       -0.00000   0.00000   0.00001  -0.00000   0.00001   0.00001
   D76       -3.14157  -0.00000  -0.00000  -0.00001  -0.00002  -3.14159
   D77        3.14159   0.00000   0.00000   0.00000   0.00001  -3.14159
   D78        0.00002  -0.00000  -0.00001  -0.00001  -0.00002   0.00000
   D79        0.00000  -0.00000   0.00000  -0.00001  -0.00000  -0.00000
   D80       -3.14155  -0.00000  -0.00002  -0.00003  -0.00004   3.14159
   D81        3.14157   0.00000   0.00002   0.00001   0.00002  -3.14159
   D82        0.00002  -0.00000  -0.00000  -0.00001  -0.00002   0.00000
         Item               Value     Threshold  Converged?
 Maximum Force            0.000191     0.000450     YES
 RMS     Force            0.000050     0.000300     YES
 Maximum Displacement     0.001752     0.001800     YES
 RMS     Displacement     0.000402     0.001200     YES
 Predicted change in Energy=-4.958085D-07
 Optimization completed.
    -- Stationary point found.
                           ----------------------------
                           !   Optimized Parameters   !
                           ! (Angstroms and Degrees)  !
 --------------------------                            --------------------------
 ! Name  Definition              Value          Derivative Info.                !
 --------------------------------------------------------------------------------
 ! R1    R(1,2)                  1.5293         -DE/DX =   -0.0001              !
 ! R2    R(1,5)                  1.5292         -DE/DX =   -0.0001              !
 ! R3    R(1,22)                 1.5462         -DE/DX =    0.0                 !
 ! R4    R(1,26)                 1.5463         -DE/DX =    0.0                 !
 ! R5    R(2,3)                  1.4102         -DE/DX =   -0.0002              !
 ! R6    R(2,17)                 1.3922         -DE/DX =   -0.0002              !
 ! R7    R(3,4)                  1.4698         -DE/DX =   -0.0001              !
 ! R8    R(3,14)                 1.398          -DE/DX =   -0.0002              !
 ! R9    R(4,5)                  1.4102         -DE/DX =   -0.0002              !
 ! R10   R(4,9)                  1.398          -DE/DX =   -0.0002              !
 ! R11   R(5,6)                  1.3922         -DE/DX =   -0.0002              !
 ! R12   R(6,7)                  1.402          -DE/DX =   -0.0002              !
 ! R13   R(6,13)                 1.0881         -DE/DX =    0.0                 !
 ! R14   R(7,8)                  1.4007         -DE/DX =   -0.0001              !
 ! R15   R(7,12)                 1.0872         -DE/DX =   -0.0001              !
 ! R16   R(8,9)                  1.3986         -DE/DX =   -0.0002              !
 ! R17   R(8,11)                 1.0872         -DE/DX =   -0.0001              !
 ! R18   R(9,10)                 1.0876         -DE/DX =    0.0                 !
 ! R19   R(14,15)                1.3986         -DE/DX =   -0.0002              !
 ! R20   R(14,21)                1.0876         -DE/DX =    0.0                 !
 ! R21   R(15,16)                1.4007         -DE/DX =   -0.0001              !
 ! R22   R(15,20)                1.0872         -DE/DX =   -0.0001              !
 ! R23   R(16,17)                1.402          -DE/DX =   -0.0002              !
 ! R24   R(16,19)                1.0872         -DE/DX =   -0.0001              !
 ! R25   R(17,18)                1.0881         -DE/DX =    0.0                 !
 ! R26   R(22,23)                1.0952         -DE/DX =    0.0                 !
 ! R27   R(22,24)                1.0967         -DE/DX =    0.0                 !
 ! R28   R(22,25)                1.0967         -DE/DX =    0.0                 !
 ! R29   R(26,27)                1.0967         -DE/DX =    0.0                 !
 ! R30   R(26,28)                1.0967         -DE/DX =    0.0                 !
 ! R31   R(26,29)                1.0952         -DE/DX =    0.0                 !
 ! A1    A(2,1,5)              101.1942         -DE/DX =    0.0                 !
 ! A2    A(2,1,22)             111.4013         -DE/DX =    0.0                 !
 ! A3    A(2,1,26)             111.3933         -DE/DX =    0.0                 !
 ! A4    A(5,1,22)             111.4061         -DE/DX =    0.0                 !
 ! A5    A(5,1,26)             111.3992         -DE/DX =    0.0                 !
 ! A6    A(22,1,26)            109.8264         -DE/DX =    0.0                 !
 ! A7    A(1,2,3)              110.9309         -DE/DX =    0.0                 !
 ! A8    A(1,2,17)             128.8616         -DE/DX =    0.0                 !
 ! A9    A(3,2,17)             120.2075         -DE/DX =    0.0                 !
 ! A10   A(2,3,4)              108.4704         -DE/DX =    0.0                 !
 ! A11   A(2,3,14)             120.61           -DE/DX =    0.0                 !
 ! A12   A(4,3,14)             130.9195         -DE/DX =    0.0                 !
 ! A13   A(3,4,5)              108.4686         -DE/DX =    0.0                 !
 ! A14   A(3,4,9)              130.9306         -DE/DX =    0.0                 !
 ! A15   A(5,4,9)              120.6008         -DE/DX =    0.0                 !
 ! A16   A(1,5,4)              110.9359         -DE/DX =    0.0                 !
 ! A17   A(1,5,6)              128.8474         -DE/DX =    0.0                 !
 ! A18   A(4,5,6)              120.2167         -DE/DX =    0.0                 !
 ! A19   A(5,6,7)              119.2302         -DE/DX =    0.0                 !
 ! A20   A(5,6,13)             120.912          -DE/DX =    0.0001              !
 ! A21   A(7,6,13)             119.8577         -DE/DX =    0.0                 !
 ! A22   A(6,7,8)              120.4915         -DE/DX =    0.0                 !
 ! A23   A(6,7,12)             119.7565         -DE/DX =    0.0                 !
 ! A24   A(8,7,12)             119.7521         -DE/DX =    0.0                 !
 ! A25   A(7,8,9)              120.5276         -DE/DX =    0.0                 !
 ! A26   A(7,8,11)             119.7271         -DE/DX =    0.0                 !
 ! A27   A(9,8,11)             119.7452         -DE/DX =    0.0                 !
 ! A28   A(4,9,8)              118.9332         -DE/DX =    0.0                 !
 ! A29   A(4,9,10)             120.8655         -DE/DX =    0.0                 !
 ! A30   A(8,9,10)             120.2012         -DE/DX =    0.0                 !
 ! A31   A(3,14,15)            118.9306         -DE/DX =    0.0                 !
 ! A32   A(3,14,21)            120.8581         -DE/DX =    0.0001              !
 ! A33   A(15,14,21)           120.2112         -DE/DX =    0.0                 !
 ! A34   A(14,15,16)           120.5231         -DE/DX =    0.0                 !
 ! A35   A(14,15,20)           119.7518         -DE/DX =    0.0                 !
 ! A36   A(16,15,20)           119.7251         -DE/DX =    0.0                 !
 ! A37   A(15,16,17)           120.4967         -DE/DX =    0.0                 !
 ! A38   A(15,16,19)           119.7499         -DE/DX =    0.0                 !
 ! A39   A(17,16,19)           119.7533         -DE/DX =    0.0                 !
 ! A40   A(2,17,16)            119.2319         -DE/DX =    0.0                 !
 ! A41   A(2,17,18)            120.9172         -DE/DX =    0.0001              !
 ! A42   A(16,17,18)           119.8508         -DE/DX =    0.0                 !
 ! A43   A(1,22,23)            111.1272         -DE/DX =    0.0                 !
 ! A44   A(1,22,24)            110.6593         -DE/DX =    0.0                 !
 ! A45   A(1,22,25)            110.6545         -DE/DX =    0.0                 !
 ! A46   A(23,22,24)           108.2079         -DE/DX =    0.0                 !
 ! A47   A(23,22,25)           108.2109         -DE/DX =    0.0                 !
 ! A48   A(24,22,25)           107.8673         -DE/DX =    0.0                 !
 ! A49   A(1,26,27)            110.6537         -DE/DX =    0.0                 !
 ! A50   A(1,26,28)            110.6612         -DE/DX =    0.0                 !
 ! A51   A(1,26,29)            111.1269         -DE/DX =    0.0                 !
 ! A52   A(27,26,28)           107.8677         -DE/DX =    0.0                 !
 ! A53   A(27,26,29)           108.2094         -DE/DX =    0.0                 !
 ! A54   A(28,26,29)           108.2081         -DE/DX =    0.0                 !
 ! D1    D(5,1,2,3)             -0.0012         -DE/DX =    0.0                 !
 ! D2    D(5,1,2,17)           180.0001         -DE/DX =    0.0                 !
 ! D3    D(22,1,2,3)          -118.5019         -DE/DX =    0.0                 !
 ! D4    D(22,1,2,17)           61.4994         -DE/DX =    0.0                 !
 ! D5    D(26,1,2,3)           118.488          -DE/DX =    0.0                 !
 ! D6    D(26,1,2,17)          -61.5107         -DE/DX =    0.0                 !
 ! D7    D(2,1,5,4)              0.0004         -DE/DX =    0.0                 !
 ! D8    D(2,1,5,6)           -179.9976         -DE/DX =    0.0                 !
 ! D9    D(22,1,5,4)           118.4976         -DE/DX =    0.0                 !
 ! D10   D(22,1,5,6)           -61.5005         -DE/DX =    0.0                 !
 ! D11   D(26,1,5,4)          -118.4846         -DE/DX =    0.0                 !
 ! D12   D(26,1,5,6)            61.5174         -DE/DX =    0.0                 !
 ! D13   D(2,1,22,23)           56.1233         -DE/DX =    0.0                 !
 ! D14   D(2,1,22,24)          176.3686         -DE/DX =    0.0                 !
 ! D15   D(2,1,22,25)          -64.1226         -DE/DX =    0.0                 !
 ! D16   D(5,1,22,23)          -56.0619         -DE/DX =    0.0                 !
 ! D17   D(5,1,22,24)           64.1834         -DE/DX =    0.0                 !
 ! D18   D(5,1,22,25)         -176.3078         -DE/DX =    0.0                 !
 ! D19   D(26,1,22,23)         180.0252         -DE/DX =    0.0                 !
 ! D20   D(26,1,22,24)         -59.7296         -DE/DX =    0.0                 !
 ! D21   D(26,1,22,25)          59.7793         -DE/DX =    0.0                 !
 ! D22   D(2,1,26,27)           64.1146         -DE/DX =    0.0                 !
 ! D23   D(2,1,26,28)         -176.3753         -DE/DX =    0.0                 !
 ! D24   D(2,1,26,29)          -56.1287         -DE/DX =    0.0                 !
 ! D25   D(5,1,26,27)          176.2911         -DE/DX =    0.0                 !
 ! D26   D(5,1,26,28)          -64.1987         -DE/DX =    0.0                 !
 ! D27   D(5,1,26,29)           56.0479         -DE/DX =    0.0                 !
 ! D28   D(22,1,26,27)         -59.792          -DE/DX =    0.0                 !
 ! D29   D(22,1,26,28)          59.7182         -DE/DX =    0.0                 !
 ! D30   D(22,1,26,29)        -180.0352         -DE/DX =    0.0                 !
 ! D31   D(1,2,3,4)              0.0016         -DE/DX =    0.0                 !
 ! D32   D(1,2,3,14)          -179.9974         -DE/DX =    0.0                 !
 ! D33   D(17,2,3,4)          -179.9995         -DE/DX =    0.0                 !
 ! D34   D(17,2,3,14)            0.0014         -DE/DX =    0.0                 !
 ! D35   D(1,2,17,16)          179.9978         -DE/DX =    0.0                 !
 ! D36   D(1,2,17,18)           -0.0046         -DE/DX =    0.0                 !
 ! D37   D(3,2,17,16)           -0.0008         -DE/DX =    0.0                 !
 ! D38   D(3,2,17,18)          179.9968         -DE/DX =    0.0                 !
 ! D39   D(2,3,4,5)             -0.0014         -DE/DX =    0.0                 !
 ! D40   D(2,3,4,9)            179.9997         -DE/DX =    0.0                 !
 ! D41   D(14,3,4,5)          -180.0025         -DE/DX =    0.0                 !
 ! D42   D(14,3,4,9)            -0.0014         -DE/DX =    0.0                 !
 ! D43   D(2,3,14,15)           -0.0014         -DE/DX =    0.0                 !
 ! D44   D(2,3,14,21)          179.9995         -DE/DX =    0.0                 !
 ! D45   D(4,3,14,15)          179.9998         -DE/DX =    0.0                 !
 ! D46   D(4,3,14,21)            0.0008         -DE/DX =    0.0                 !
 ! D47   D(3,4,5,1)              0.0006         -DE/DX =    0.0                 !
 ! D48   D(3,4,5,6)            179.9988         -DE/DX =    0.0                 !
 ! D49   D(9,4,5,1)            179.9996         -DE/DX =    0.0                 !
 ! D50   D(9,4,5,6)             -0.0022         -DE/DX =    0.0                 !
 ! D51   D(3,4,9,8)           -180.001          -DE/DX =    0.0                 !
 ! D52   D(3,4,9,10)             0.0001         -DE/DX =    0.0                 !
 ! D53   D(5,4,9,8)              0.0002         -DE/DX =    0.0                 !
 ! D54   D(5,4,9,10)           180.0013         -DE/DX =    0.0                 !
 ! D55   D(1,5,6,7)           -180.0006         -DE/DX =    0.0                 !
 ! D56   D(1,5,6,13)             0.0002         -DE/DX =    0.0                 !
 ! D57   D(4,5,6,7)              0.0016         -DE/DX =    0.0                 !
 ! D58   D(4,5,6,13)           180.0023         -DE/DX =    0.0                 !
 ! D59   D(5,6,7,8)              0.0009         -DE/DX =    0.0                 !
 ! D60   D(5,6,7,12)           180.0011         -DE/DX =    0.0                 !
 ! D61   D(13,6,7,8)          -179.9998         -DE/DX =    0.0                 !
 ! D62   D(13,6,7,12)            0.0003         -DE/DX =    0.0                 !
 ! D63   D(6,7,8,9)             -0.0029         -DE/DX =    0.0                 !
 ! D64   D(6,7,8,11)          -179.9992         -DE/DX =    0.0                 !
 ! D65   D(12,7,8,9)          -180.0031         -DE/DX =    0.0                 !
 ! D66   D(12,7,8,11)            0.0006         -DE/DX =    0.0                 !
 ! D67   D(7,8,9,4)              0.0023         -DE/DX =    0.0                 !
 ! D68   D(7,8,9,10)          -179.9988         -DE/DX =    0.0                 !
 ! D69   D(11,8,9,4)           179.9986         -DE/DX =    0.0                 !
 ! D70   D(11,8,9,10)           -0.0025         -DE/DX =    0.0                 !
 ! D71   D(3,14,15,16)           0.0009         -DE/DX =    0.0                 !
 ! D72   D(3,14,15,20)         180.0007         -DE/DX =    0.0                 !
 ! D73   D(21,14,15,16)        179.9999         -DE/DX =    0.0                 !
 ! D74   D(21,14,15,20)         -0.0003         -DE/DX =    0.0                 !
 ! D75   D(14,15,16,17)         -0.0002         -DE/DX =    0.0                 !
 ! D76   D(14,15,16,19)       -179.9987         -DE/DX =    0.0                 !
 ! D77   D(20,15,16,17)       -180.0001         -DE/DX =    0.0                 !
 ! D78   D(20,15,16,19)          0.0014         -DE/DX =    0.0                 !
 ! D79   D(15,16,17,2)           0.0002         -DE/DX =    0.0                 !
 ! D80   D(15,16,17,18)        180.0026         -DE/DX =    0.0                 !
 ! D81   D(19,16,17,2)        -180.0013         -DE/DX =    0.0                 !
 ! D82   D(19,16,17,18)          0.0011         -DE/DX =    0.0                 !
 --------------------------------------------------------------------------------
 Lowest energy point so far.  Saving SCF results.
 Largest change from initial coordinates is atom   20       0.004 Angstoms.
 GradGradGradGradGradGradGradGradGradGradGradGradGradGradGradGradGradGrad

 Leave Link  103 at Fri Mar 13 23:27:54 2026, MaxMem=   104857600 cpu:               0.0 elap:               0.0
 (Enter /sw/cluster/pub/apps//g16/l202.exe)
                          Input orientation:                          
 ---------------------------------------------------------------------
 Center     Atomic      Atomic             Coordinates (Angstroms)
 Number     Number       Type             X           Y           Z
 ---------------------------------------------------------------------
      1          6           0        0.009407    0.003837    0.039739
      2          6           0        1.537867   -0.044797    0.051919
      3          6           0        2.083446    1.255451    0.032744
      4          6           0        0.978139    2.223879    0.007315
      5          6           0       -0.239388    1.512354    0.011000
      6          6           0       -1.451229    2.197271   -0.010138
      7          6           0       -1.445031    3.599024   -0.035083
      8          6           0       -0.234935    4.304461   -0.038767
      9          6           0        0.985483    3.621687   -0.017563
     10          1           0        1.921928    4.174767   -0.020522
     11          1           0       -0.244632    5.391465   -0.058205
     12          1           0       -2.386461    4.142578   -0.051690
     13          1           0       -2.397274    1.659693   -0.007509
     14          6           0        3.468361    1.446521    0.039528
     15          6           0        4.305723    0.326618    0.065693
     16          6           0        3.765257   -0.965473    0.084773
     17          6           0        2.376274   -1.155881    0.077934
     18          1           0        1.967762   -2.164293    0.092965
     19          1           0        4.427883   -1.827180    0.105062
     20          1           0        5.384745    0.459760    0.071271
     21          1           0        3.893461    2.447468    0.024797
     22          6           0       -0.585808   -0.642151    1.312240
     23          1           0       -0.191573   -0.167656    2.217205
     24          1           0       -1.678010   -0.543501    1.321595
     25          1           0       -0.344154   -1.711110    1.352663
     26          6           0       -0.566884   -0.687064   -1.217820
     27          1           0       -0.324736   -1.756675   -1.216766
     28          1           0       -1.658816   -0.589292   -1.246936
     29          1           0       -0.159159   -0.244752   -2.133054
 ---------------------------------------------------------------------
                    Distance matrix (angstroms):
                    1          2          3          4          5
     1  C    0.000000
     2  C    1.529282   0.000000
     3  C    2.422442   1.410203   0.000000
     4  C    2.422412   2.337130   1.469763   0.000000
     5  C    1.529166   2.363266   2.337099   1.410197   0.000000
     6  C    2.635735   3.737033   3.658250   2.429577   1.392163
     7  C    3.878964   4.709849   4.236400   2.786499   2.410372
     8  C    4.308275   4.697563   3.830988   2.408837   2.792555
     9  C    3.747645   3.708512   2.609046   1.398048   2.439346
    10  H    4.588903   4.237626   2.924266   2.167366   3.429392
    11  H    5.394503   5.722095   4.747086   3.396036   3.879732
    12  H    4.783066   5.739791   5.321908   3.873683   3.395870
    13  H    2.921678   4.288840   4.499098   3.422271   2.162989
    14  C    3.747759   2.439465   1.398049   2.608932   3.708443
    15  C    4.308502   2.792699   2.408802   3.830903   4.697552
    16  C    3.879175   2.410393   2.786341   4.236271   4.709803
    17  C    2.635994   1.392161   2.429468   3.658217   3.737063
    18  H    2.922118   2.163044   3.422231   4.499194   4.289051
    19  H    4.783285   3.395866   3.873529   5.321782   5.739752
    20  H    5.394731   3.879875   3.396054   4.747039   5.722102
    21  H    4.588838   3.429424   2.167284   2.923935   4.237342
    22  C    1.546234   2.540715   3.516095   3.516090   2.540693
    23  H    2.193435   2.773899   3.460176   3.459954   2.773456
    24  H    2.188632   3.493229   4.364164   4.054733   2.830872
    25  H    2.188565   2.830289   4.054123   4.363778   3.493101
    26  C    1.546257   2.540614   3.515897   3.515914   2.540608
    27  H    2.188575   2.830085   4.053829   4.363562   3.493028
    28  H    2.188677   3.493176   4.364080   4.054703   2.830918
    29  H    2.193455   2.773803   3.459851   3.459591   2.773234
                    6          7          8          9         10
     6  C    0.000000
     7  C    1.401989   0.000000
     8  C    2.433196   1.400710   0.000000
     9  C    2.822513   2.430683   1.398589   0.000000
    10  H    3.910088   3.415861   2.160836   1.087583   0.000000
    11  H    3.414829   2.157391   1.087220   2.155678   2.485107
    12  H    2.158844   1.087206   2.157646   3.412111   4.308622
    13  H    1.088117   2.160679   3.416356   3.910571   4.998127
    14  C    4.976792   5.364723   4.678499   3.301407   3.136620
    15  C    6.053725   6.617399   6.037526   4.678504   4.527489
    16  C    6.101122   6.927922   6.617326   5.364666   5.461778
    17  C    5.089319   6.101169   6.053707   4.976803   5.350882
    18  H    5.542867   6.699207   6.834765   5.869809   6.340242
    19  H    7.125548   7.997153   7.704517   6.446340   6.505302
    20  H    7.053801   7.517455   6.809893   5.418411   5.079449
    21  H    5.350657   5.461608   4.527264   3.136386   2.621556
    22  C    3.249608   4.532230   5.139776   4.734727   5.591752
    23  H    3.484346   4.564191   5.009104   4.553984   5.322682
    24  H    3.055614   4.365246   5.237919   5.122142   6.084644
    25  H    4.284657   5.597793   6.175363   5.664289   6.454790
    26  C    3.249608   4.532170   5.139619   4.734532   5.591522
    27  H    4.284697   5.597763   6.175202   5.664057   6.454496
    28  H    3.055765   4.365351   5.237932   5.122111   6.084578
    29  H    3.484207   4.563942   5.008705   4.553554   5.322205
                   11         12         13         14         15
    11  H    0.000000
    12  H    2.479353   0.000000
    13  H    4.308429   2.483302   0.000000
    14  C    5.418343   6.446393   5.869695   0.000000
    15  C    6.809827   7.704587   6.834662   1.398586   0.000000
    16  C    7.517333   7.997152   6.699015   2.430619   1.400702
    17  C    7.053752   7.125596   5.542699   2.822521   2.433254
    18  H    7.874453   7.665299   5.804007   3.910579   3.416350
    19  H    8.600458   9.060787   7.665097   3.412051   2.157619
    20  H    7.485209   8.600576   7.874380   2.155744   1.087220
    21  H    5.079155   6.505126   6.339951   1.087576   2.160934
    22  C    6.196695   5.291152   3.212730   4.734831   5.139987
    23  H    6.007006   5.342615   3.626799   4.554444   5.009888
    24  H    6.259572   4.934284   2.671689   5.664717   6.175715
    25  H    7.242031   6.356799   4.174647   5.121545   5.237364
    26  C    6.196537   5.291141   3.212857   4.734586   5.139772
    27  H    7.241863   6.356831   4.174839   5.121165   5.236981
    28  H    6.259589   4.934438   2.671972   5.664580   6.175566
    29  H    6.006600   5.342436   3.626846   4.554055   5.009603
                   16         17         18         19         20
    16  C    0.000000
    17  C    1.401990   0.000000
    18  H    2.160608   1.088119   0.000000
    19  H    1.087209   2.158814   2.483141   0.000000
    20  H    2.157362   3.414855   4.308352   2.479278   0.000000
    21  H    3.415874   3.910090   4.998130   4.308673   2.485372
    22  C    4.532436   3.249824   3.213140   5.291377   6.196911
    23  H    4.565116   3.485241   3.627903   5.343645   6.007828
    24  H    5.597942   4.284731   4.174704   6.356864   7.242400
    25  H    4.364720   3.055150   2.671548   4.933794   6.258987
    26  C    4.532296   3.249761   3.213221   5.291274   6.196680
    27  H    4.364408   3.054940   2.671535   4.933517   6.258578
    28  H    5.597815   4.284654   4.174689   6.356742   7.242233
    29  H    4.565001   3.485261   3.628167   5.343613   6.007517
                   21         22         23         24         25
    21  H    0.000000
    22  C    5.591699   0.000000
    23  H    5.322878   1.095229   0.000000
    24  H    6.455143   1.096688   1.775633   0.000000
    25  H    6.083945   1.096679   1.775659   1.772977   0.000000
    26  C    5.591428   2.530530   3.494287   2.775580   2.775907
    27  H    6.083543   2.776004   3.786142   3.121926   2.569906
    28  H    6.454998   2.775523   3.785612   2.569012   3.121655
    29  H    5.322415   3.494283   4.351063   3.785600   3.786113
                   26         27         28         29
    26  C    0.000000
    27  H    1.096679   0.000000
    28  H    1.096687   1.772981   0.000000
    29  H    1.095232   1.775644   1.775637   0.000000
 Stoichiometry    C15H14
 Framework group  C1[X(C15H14)]
 Deg. of freedom    81
 Full point group                 C1      NOp   1
 RotChk:  IX=0 Diff= 7.63D-16
 Largest Abelian subgroup         C1      NOp   1
 Largest concise Abelian subgroup C1      NOp   1
                         Standard orientation:                         
 ---------------------------------------------------------------------
 Center     Atomic      Atomic             Coordinates (Angstroms)
 Number     Number       Type             X           Y           Z
 ---------------------------------------------------------------------
      1          6           0       -0.000146    1.417323   -0.000020
      2          6           0        1.181638    0.446710   -0.000046
      3          6           0        0.734974   -0.890886   -0.000024
      4          6           0       -0.734789   -0.891006   -0.000023
      5          6           0       -1.181628    0.446525   -0.000012
      6          6           0       -2.544651    0.729871   -0.000035
      7          6           0       -3.463951   -0.328647   -0.000035
      8          6           0       -3.018690   -1.656702    0.000007
      9          6           0       -1.650626   -1.947311   -0.000011
     10          1           0       -1.310782   -2.980433    0.000002
     11          1           0       -3.742479   -2.467983   -0.000006
     12          1           0       -4.530389   -0.117155   -0.000070
     13          1           0       -2.901934    1.757658   -0.000065
     14          6           0        1.650780   -1.947219    0.000012
     15          6           0        3.018836   -1.656590   -0.000004
     16          6           0        3.463970   -0.328500   -0.000038
     17          6           0        2.544667    0.730017   -0.000061
     18          1           0        2.902073    1.757764   -0.000129
     19          1           0        4.530399   -0.116948   -0.000071
     20          1           0        3.742730   -2.467777    0.000012
     21          1           0        1.310774   -2.980281    0.000037
     22          6           0       -0.000182    2.306283   -1.265164
     23          1           0       -0.000644    1.697349   -2.175507
     24          1           0       -0.886443    2.951961   -1.284339
     25          1           0        0.886534    2.951308   -1.284739
     26          6           0       -0.000128    2.305979    1.265367
     27          1           0        0.886707    2.950832    1.285167
     28          1           0       -0.886274    2.951809    1.284673
     29          1           0       -0.000731    1.696808    2.175556
 ---------------------------------------------------------------------
 Rotational constants (GHZ):           1.0539417           0.5482606           0.3911394
 Leave Link  202 at Fri Mar 13 23:27:54 2026, MaxMem=   104857600 cpu:               0.0 elap:               0.0
 (Enter /sw/cluster/pub/apps//g16/l601.exe)
 Copying SCF densities to generalized density rwf, IOpCl= 0 IROHF=0.

 **********************************************************************

            Population analysis using the SCF density.

 **********************************************************************

 Orbital symmetries:
       Occupied  (A) (A) (A) (A) (A) (A) (A) (A) (A) (A) (A) (A)
                 (A) (A) (A) (A) (A) (A) (A) (A) (A) (A) (A) (A)
                 (A) (A) (A) (A) (A) (A) (A) (A) (A) (A) (A) (A)
                 (A) (A) (A) (A) (A) (A) (A) (A) (A) (A) (A) (A)
                 (A) (A) (A) (A)
       Virtual   (A) (A) (A) (A) (A) (A) (A) (A) (A) (A) (A) (A)
                 (A) (A) (A) (A) (A) (A) (A) (A) (A) (A) (A) (A)
                 (A) (A) (A) (A) (A) (A) (A) (A) (A) (A) (A) (A)
                 (A) (A) (A) (A) (A) (A) (A) (A) (A) (A) (A) (A)
                 (A) (A) (A) (A) (A) (A) (A) (A) (A) (A) (A) (A)
                 (A) (A) (A) (A) (A) (A) (A) (A) (A) (A) (A) (A)
                 (A) (A) (A) (A) (A) (A) (A) (A) (A) (A) (A) (A)
                 (A) (A) (A) (A) (A) (A) (A) (A) (A) (A) (A) (A)
                 (A) (A) (A) (A) (A) (A) (A) (A) (A) (A) (A) (A)
                 (A) (A) (A) (A) (A) (A) (A) (A) (A) (A) (A) (A)
                 (A) (A) (A) (A) (A) (A) (A) (A) (A) (A) (A) (A)
                 (A) (A) (A) (A) (A) (A) (A) (A) (A) (A) (A) (A)
                 (A) (A) (A) (A) (A) (A) (A) (A) (A) (A) (A) (A)
                 (A) (A) (A) (A) (A) (A) (A) (A) (A) (A) (A) (A)
                 (A) (A) (A) (A) (A) (A) (A) (A) (A) (A) (A) (A)
                 (A) (A) (A) (A) (A) (A) (A) (A) (A) (A) (A) (A)
                 (A) (A) (A) (A) (A) (A) (A) (A) (A) (A) (A) (A)
                 (A) (A) (A) (A) (A) (A) (A) (A) (A) (A) (A) (A)
                 (A) (A) (A) (A) (A) (A) (A) (A) (A) (A) (A) (A)
                 (A) (A) (A) (A) (A) (A) (A) (A) (A) (A) (A) (A)
                 (A) (A) (A) (A) (A) (A) (A) (A) (A) (A) (A) (A)
                 (A) (A) (A) (A) (A)
 The electronic state is 1-A.
 Alpha  occ. eigenvalues --  -10.21429 -10.19918 -10.19887 -10.19709 -10.19709
 Alpha  occ. eigenvalues --  -10.19695 -10.19695 -10.19657 -10.19656 -10.19618
 Alpha  occ. eigenvalues --  -10.19618 -10.19598 -10.19597 -10.18591 -10.18590
 Alpha  occ. eigenvalues --   -0.89356  -0.84787  -0.81656  -0.77872  -0.74712
 Alpha  occ. eigenvalues --   -0.73673  -0.71830  -0.69255  -0.64855  -0.62617
 Alpha  occ. eigenvalues --   -0.58870  -0.58003  -0.56178  -0.51446  -0.49989
 Alpha  occ. eigenvalues --   -0.47721  -0.45653  -0.45226  -0.44175  -0.43570
 Alpha  occ. eigenvalues --   -0.43355  -0.42266  -0.42174  -0.39709  -0.38769
 Alpha  occ. eigenvalues --   -0.38711  -0.37880  -0.35555  -0.35253  -0.34856
 Alpha  occ. eigenvalues --   -0.34621  -0.32500  -0.32425  -0.28683  -0.25402
 Alpha  occ. eigenvalues --   -0.25037  -0.22074
 Alpha virt. eigenvalues --   -0.04151  -0.02164  -0.00330   0.00023   0.01104
 Alpha virt. eigenvalues --    0.01223   0.02709   0.02855   0.02961   0.03172
 Alpha virt. eigenvalues --    0.03906   0.04958   0.05024   0.05952   0.06387
 Alpha virt. eigenvalues --    0.06436   0.06968   0.07697   0.07800   0.08350
 Alpha virt. eigenvalues --    0.08789   0.08825   0.10760   0.11174   0.11503
 Alpha virt. eigenvalues --    0.11938   0.12449   0.12987   0.13028   0.13187
 Alpha virt. eigenvalues --    0.14773   0.14915   0.14972   0.15566   0.16289
 Alpha virt. eigenvalues --    0.17052   0.17199   0.17403   0.17650   0.18247
 Alpha virt. eigenvalues --    0.18353   0.18893   0.19045   0.20172   0.20661
 Alpha virt. eigenvalues --    0.20744   0.20933   0.21361   0.21683   0.21953
 Alpha virt. eigenvalues --    0.21972   0.22170   0.23264   0.23338   0.23385
 Alpha virt. eigenvalues --    0.23439   0.24174   0.24501   0.24897   0.25267
 Alpha virt. eigenvalues --    0.26057   0.27498   0.27908   0.27992   0.28043
 Alpha virt. eigenvalues --    0.28868   0.29233   0.29570   0.30268   0.30666
 Alpha virt. eigenvalues --    0.30967   0.31237   0.31859   0.32886   0.33992
 Alpha virt. eigenvalues --    0.34305   0.34388   0.35812   0.36152   0.36349
 Alpha virt. eigenvalues --    0.36631   0.39073   0.40536   0.42223   0.44548
 Alpha virt. eigenvalues --    0.44617   0.47814   0.50278   0.50538   0.56706
 Alpha virt. eigenvalues --    0.60763   0.61431   0.63155   0.66739   0.67124
 Alpha virt. eigenvalues --    0.67628   0.68217   0.69177   0.69334   0.69694
 Alpha virt. eigenvalues --    0.70233   0.71560   0.72717   0.73308   0.73740
 Alpha virt. eigenvalues --    0.74041   0.75032   0.75944   0.77059   0.77689
 Alpha virt. eigenvalues --    0.77727   0.77852   0.80184   0.81417   0.81454
 Alpha virt. eigenvalues --    0.81783   0.82454   0.83522   0.83567   0.83571
 Alpha virt. eigenvalues --    0.84979   0.87675   0.89853   0.90557   0.91816
 Alpha virt. eigenvalues --    0.93354   0.94292   0.95093   0.95722   0.95807
 Alpha virt. eigenvalues --    0.98774   1.00003   1.01564   1.01819   1.01854
 Alpha virt. eigenvalues --    1.02502   1.04165   1.05295   1.06507   1.09384
 Alpha virt. eigenvalues --    1.10272   1.11840   1.13145   1.15105   1.15213
 Alpha virt. eigenvalues --    1.17637   1.18962   1.18975   1.21582   1.22724
 Alpha virt. eigenvalues --    1.23806   1.24250   1.25159   1.27062   1.29128
 Alpha virt. eigenvalues --    1.30537   1.32171   1.34096   1.35136   1.37901
 Alpha virt. eigenvalues --    1.41465   1.42600   1.45200   1.46131   1.47598
 Alpha virt. eigenvalues --    1.47911   1.48828   1.48933   1.49416   1.49725
 Alpha virt. eigenvalues --    1.53603   1.59040   1.63696   1.64775   1.65455
 Alpha virt. eigenvalues --    1.68397   1.72439   1.77426   1.80532   1.80637
 Alpha virt. eigenvalues --    1.82232   1.85844   1.88045   1.88243   1.92076
 Alpha virt. eigenvalues --    1.92252   1.94108   1.95912   1.97358   1.97850
 Alpha virt. eigenvalues --    1.98079   2.02277   2.04300   2.06253   2.07792
 Alpha virt. eigenvalues --    2.08294   2.08865   2.12155   2.14609   2.17012
 Alpha virt. eigenvalues --    2.17314   2.19490   2.20990   2.22208   2.23305
 Alpha virt. eigenvalues --    2.25359   2.28450   2.28736   2.28790   2.28887
 Alpha virt. eigenvalues --    2.30086   2.32108   2.32484   2.37796   2.39108
 Alpha virt. eigenvalues --    2.39904   2.43497   2.50650   2.51866   2.52423
 Alpha virt. eigenvalues --    2.60547   2.61050   2.61305   2.66952   2.69199
 Alpha virt. eigenvalues --    2.69490   2.71486   2.72169   2.74683   2.76553
 Alpha virt. eigenvalues --    2.76829   2.77584   2.82579   2.84380   2.86064
 Alpha virt. eigenvalues --    2.95465   2.99449   3.02297   3.09746   3.28742
 Alpha virt. eigenvalues --    3.33932   3.49634   4.24152   4.26091   4.27734
 Alpha virt. eigenvalues --    4.28805   4.32309   4.33344   4.35103   4.35127
 Alpha virt. eigenvalues --    4.40134   4.42453   4.49763   4.52035   4.66800
 Alpha virt. eigenvalues --    4.83443   4.86210
          Condensed to atoms (all electrons):
               1          2          3          4          5          6
     1  C    8.866596   1.572617  -1.032519  -1.032550   1.574178  -0.925786
     2  C    1.572617  12.934518  -1.967196  -2.706317   1.906210  -0.639513
     3  C   -1.032519  -1.967196  13.347539   3.391486  -2.707494  -1.610358
     4  C   -1.032550  -2.706317   3.391486  13.347275  -1.969589  -0.771803
     5  C    1.574178   1.906210  -2.707494  -1.969589  12.939028  -2.342091
     6  C   -0.925786  -0.639513  -1.610358  -0.771803  -2.342091  10.681467
     7  C    0.104049  -0.011819   0.148851   0.145423  -0.468221   0.589312
     8  C    0.021021   0.193596   0.370282  -0.374136  -0.015781  -0.667283
     9  C   -0.962909  -1.374931  -1.203399  -2.043292  -0.835582   1.932840
    10  H    0.001492   0.018922   0.027960  -0.086285   0.056108  -0.029905
    11  H    0.001319   0.000870  -0.020856  -0.032312   0.024254   0.033890
    12  H   -0.003454  -0.002677   0.002330   0.010171  -0.004609  -0.012331
    13  H   -0.059638  -0.027824   0.036857   0.166425  -0.008439   0.198970
    14  C   -0.963733  -0.835286  -2.044490  -1.205147  -1.376118   0.452509
    15  C    0.021101  -0.014340  -0.375464   0.369984   0.194289   0.126162
    16  C    0.103686  -0.470367   0.146728   0.149029  -0.012391  -0.045558
    17  C   -0.923932  -2.339767  -0.775192  -1.611650  -0.639716  -0.774209
    18  H   -0.059690  -0.008362   0.166296   0.036838  -0.027821  -0.000689
    19  H   -0.003455  -0.004592   0.010150   0.002331  -0.002671  -0.000043
    20  H    0.001323   0.024235  -0.032308  -0.020851   0.000867  -0.000330
    21  H    0.001476   0.056154  -0.086457   0.028014   0.018953   0.000693
    22  C   -0.170467  -0.200716   0.216751   0.216783  -0.200709  -0.084476
    23  H   -0.114845  -0.026043   0.040190   0.040236  -0.026055  -0.011088
    24  H   -0.027055   0.006786  -0.013375  -0.027634  -0.015752   0.011685
    25  H   -0.026997  -0.015827  -0.027668  -0.013406   0.006853   0.009141
    26  C   -0.170042  -0.200675   0.216984   0.217151  -0.200860  -0.084618
    27  H   -0.027005  -0.015826  -0.027675  -0.013411   0.006858   0.009134
    28  H   -0.027052   0.006805  -0.013380  -0.027636  -0.015774   0.011691
    29  H   -0.114776  -0.026057   0.040218   0.040266  -0.026087  -0.011109
               7          8          9         10         11         12
     1  C    0.104049   0.021021  -0.962909   0.001492   0.001319  -0.003454
     2  C   -0.011819   0.193596  -1.374931   0.018922   0.000870  -0.002677
     3  C    0.148851   0.370282  -1.203399   0.027960  -0.020856   0.002330
     4  C    0.145423  -0.374136  -2.043292  -0.086285  -0.032312   0.010171
     5  C   -0.468221  -0.015781  -0.835582   0.056108   0.024254  -0.004609
     6  C    0.589312  -0.667283   1.932840  -0.029905   0.033890  -0.012331
     7  C    5.360447   0.847116  -0.745416   0.010035  -0.040054   0.299274
     8  C    0.847116   6.557078  -0.669004   0.014145   0.323858  -0.035738
     9  C   -0.745416  -0.669004  10.737279   0.289892   0.006877   0.041115
    10  H    0.010035   0.014145   0.289892   0.545279  -0.004167  -0.000157
    11  H   -0.040054   0.323858   0.006877  -0.004167   0.534250  -0.004271
    12  H    0.299274  -0.035738   0.041115  -0.000157  -0.004271   0.536857
    13  H    0.008428  -0.003719  -0.037284   0.000020  -0.000158  -0.004492
    14  C   -0.059567  -0.099303   0.691124  -0.023977  -0.001549   0.000923
    15  C   -0.014336  -0.184952  -0.099433   0.000166  -0.000365   0.000132
    16  C    0.001510  -0.014287  -0.059361  -0.001092   0.000054  -0.000029
    17  C   -0.045432   0.126084   0.451867   0.000687  -0.000330  -0.000044
    18  H   -0.000184   0.000117   0.001718   0.000000   0.000000  -0.000000
    19  H   -0.000029   0.000131   0.000924  -0.000000  -0.000000  -0.000000
    20  H    0.000054  -0.000365  -0.001549   0.000001   0.000000  -0.000000
    21  H   -0.001097   0.000178  -0.024016   0.001084   0.000001  -0.000000
    22  C    0.016087  -0.001797   0.002093  -0.000095  -0.000239  -0.000235
    23  H    0.000952  -0.001680   0.004088   0.000001   0.000000  -0.000000
    24  H   -0.000994  -0.001139  -0.000749   0.000000  -0.000000   0.000002
    25  H    0.000192   0.000311   0.000371  -0.000000  -0.000000  -0.000000
    26  C    0.016017  -0.001756   0.002045  -0.000096  -0.000240  -0.000235
    27  H    0.000192   0.000311   0.000371  -0.000000  -0.000000  -0.000000
    28  H   -0.000999  -0.001138  -0.000749   0.000000  -0.000000   0.000002
    29  H    0.000953  -0.001681   0.004085   0.000001   0.000000  -0.000000
              13         14         15         16         17         18
     1  C   -0.059638  -0.963733   0.021101   0.103686  -0.923932  -0.059690
     2  C   -0.027824  -0.835286  -0.014340  -0.470367  -2.339767  -0.008362
     3  C    0.036857  -2.044490  -0.375464   0.146728  -0.775192   0.166296
     4  C    0.166425  -1.205147   0.369984   0.149029  -1.611650   0.036838
     5  C   -0.008439  -1.376118   0.194289  -0.012391  -0.639716  -0.027821
     6  C    0.198970   0.452509   0.126162  -0.045558  -0.774209  -0.000689
     7  C    0.008428  -0.059567  -0.014336   0.001510  -0.045432  -0.000184
     8  C   -0.003719  -0.099303  -0.184952  -0.014287   0.126084   0.000117
     9  C   -0.037284   0.691124  -0.099433  -0.059361   0.451867   0.001718
    10  H    0.000020  -0.023977   0.000166  -0.001092   0.000687   0.000000
    11  H   -0.000158  -0.001549  -0.000365   0.000054  -0.000330   0.000000
    12  H   -0.004492   0.000923   0.000132  -0.000029  -0.000044  -0.000000
    13  H    0.544175   0.001720   0.000117  -0.000182  -0.000690   0.000000
    14  C    0.001720  10.739424  -0.668908  -0.744563   1.933716  -0.037231
    15  C    0.000117  -0.668908   6.557468   0.846741  -0.667555  -0.003732
    16  C   -0.000182  -0.744563   0.846741   5.360571   0.590237   0.008507
    17  C   -0.000690   1.933716  -0.667555   0.590237  10.680783   0.198999
    18  H    0.000000  -0.037231  -0.003732   0.008507   0.198999   0.544179
    19  H   -0.000000   0.041076  -0.035673   0.299220  -0.012305  -0.004494
    20  H    0.000000   0.006903   0.323818  -0.040022   0.033878  -0.000158
    21  H    0.000000   0.290095   0.014024   0.010050  -0.029917   0.000020
    22  C    0.003222   0.001979  -0.001750   0.015932  -0.084365   0.003211
    23  H    0.000047   0.004076  -0.001677   0.000943  -0.011109   0.000047
    24  H    0.000157   0.000370   0.000313   0.000188   0.009138  -0.000038
    25  H   -0.000038  -0.000752  -0.001138  -0.001014   0.011738   0.000159
    26  C    0.003225   0.001880  -0.001778   0.015997  -0.084530   0.003210
    27  H   -0.000038  -0.000753  -0.001137  -0.001012   0.011754   0.000159
    28  H    0.000157   0.000369   0.000313   0.000190   0.009139  -0.000038
    29  H    0.000047   0.004076  -0.001679   0.000943  -0.011126   0.000047
              19         20         21         22         23         24
     1  C   -0.003455   0.001323   0.001476  -0.170467  -0.114845  -0.027055
     2  C   -0.004592   0.024235   0.056154  -0.200716  -0.026043   0.006786
     3  C    0.010150  -0.032308  -0.086457   0.216751   0.040190  -0.013375
     4  C    0.002331  -0.020851   0.028014   0.216783   0.040236  -0.027634
     5  C   -0.002671   0.000867   0.018953  -0.200709  -0.026055  -0.015752
     6  C   -0.000043  -0.000330   0.000693  -0.084476  -0.011088   0.011685
     7  C   -0.000029   0.000054  -0.001097   0.016087   0.000952  -0.000994
     8  C    0.000131  -0.000365   0.000178  -0.001797  -0.001680  -0.001139
     9  C    0.000924  -0.001549  -0.024016   0.002093   0.004088  -0.000749
    10  H   -0.000000   0.000001   0.001084  -0.000095   0.000001   0.000000
    11  H   -0.000000   0.000000   0.000001  -0.000239   0.000000  -0.000000
    12  H   -0.000000  -0.000000  -0.000000  -0.000235  -0.000000   0.000002
    13  H   -0.000000   0.000000   0.000000   0.003222   0.000047   0.000157
    14  C    0.041076   0.006903   0.290095   0.001979   0.004076   0.000370
    15  C   -0.035673   0.323818   0.014024  -0.001750  -0.001677   0.000313
    16  C    0.299220  -0.040022   0.010050   0.015932   0.000943   0.000188
    17  C   -0.012305   0.033878  -0.029917  -0.084365  -0.011109   0.009138
    18  H   -0.004494  -0.000158   0.000020   0.003211   0.000047  -0.000038
    19  H    0.536869  -0.004272  -0.000157  -0.000237  -0.000000  -0.000000
    20  H   -0.004272   0.534240  -0.004164  -0.000239   0.000000  -0.000000
    21  H   -0.000157  -0.004164   0.545272  -0.000096   0.000001  -0.000000
    22  C   -0.000237  -0.000239  -0.000096   6.400504   0.432856   0.410595
    23  H   -0.000000   0.000000   0.000001   0.432856   0.490271  -0.027867
    24  H   -0.000000  -0.000000  -0.000000   0.410595  -0.027867   0.513794
    25  H    0.000002  -0.000000   0.000000   0.410594  -0.027862  -0.029889
    26  C   -0.000237  -0.000239  -0.000097  -0.533847   0.007670  -0.025938
    27  H    0.000002  -0.000000   0.000000  -0.025978   0.000009   0.000181
    28  H   -0.000000  -0.000000  -0.000000  -0.025942   0.000009   0.002293
    29  H   -0.000000   0.000000   0.000001   0.007692  -0.000146   0.000009
              25         26         27         28         29
     1  C   -0.026997  -0.170042  -0.027005  -0.027052  -0.114776
     2  C   -0.015827  -0.200675  -0.015826   0.006805  -0.026057
     3  C   -0.027668   0.216984  -0.027675  -0.013380   0.040218
     4  C   -0.013406   0.217151  -0.013411  -0.027636   0.040266
     5  C    0.006853  -0.200860   0.006858  -0.015774  -0.026087
     6  C    0.009141  -0.084618   0.009134   0.011691  -0.011109
     7  C    0.000192   0.016017   0.000192  -0.000999   0.000953
     8  C    0.000311  -0.001756   0.000311  -0.001138  -0.001681
     9  C    0.000371   0.002045   0.000371  -0.000749   0.004085
    10  H   -0.000000  -0.000096  -0.000000   0.000000   0.000001
    11  H   -0.000000  -0.000240  -0.000000  -0.000000   0.000000
    12  H   -0.000000  -0.000235  -0.000000   0.000002  -0.000000
    13  H   -0.000038   0.003225  -0.000038   0.000157   0.000047
    14  C   -0.000752   0.001880  -0.000753   0.000369   0.004076
    15  C   -0.001138  -0.001778  -0.001137   0.000313  -0.001679
    16  C   -0.001014   0.015997  -0.001012   0.000190   0.000943
    17  C    0.011738  -0.084530   0.011754   0.009139  -0.011126
    18  H    0.000159   0.003210   0.000159  -0.000038   0.000047
    19  H    0.000002  -0.000237   0.000002  -0.000000  -0.000000
    20  H   -0.000000  -0.000239  -0.000000  -0.000000   0.000000
    21  H    0.000000  -0.000097   0.000000  -0.000000   0.000001
    22  C    0.410594  -0.533847  -0.025978  -0.025942   0.007692
    23  H   -0.027862   0.007670   0.000009   0.000009  -0.000146
    24  H   -0.029889  -0.025938   0.000181   0.002293   0.000009
    25  H    0.513774  -0.025955   0.002288   0.000181   0.000009
    26  C   -0.025955   6.400168   0.410616   0.410600   0.432795
    27  H    0.002288   0.410616   0.513775  -0.029889  -0.027862
    28  H    0.000181   0.410600  -0.029889   0.513792  -0.027867
    29  H    0.000009   0.432795  -0.027862  -0.027867   0.490266
 Mulliken charges:
               1
     1  C    0.377048
     2  C    0.167422
     3  C   -0.224790
     4  C   -0.225394
     5  C    0.168163
     6  C   -0.046303
     7  C   -0.160745
     8  C   -0.380468
     9  C   -0.109015
    10  H    0.179981
    11  H    0.179170
    12  H    0.177468
    13  H    0.178934
    14  C   -0.108862
    15  C   -0.380708
    16  C   -0.160650
    17  C   -0.046150
    18  H    0.178930
    19  H    0.177461
    20  H    0.179180
    21  H    0.179985
    22  C   -0.807110
    23  H    0.226976
    24  H    0.214919
    25  H    0.214932
    26  C   -0.807215
    27  H    0.214936
    28  H    0.214923
    29  H    0.226982
 Sum of Mulliken charges =  -0.00000
 Mulliken charges with hydrogens summed into heavy atoms:
               1
     1  C    0.377048
     2  C    0.167422
     3  C   -0.224790
     4  C   -0.225394
     5  C    0.168163
     6  C    0.132632
     7  C    0.016724
     8  C   -0.201298
     9  C    0.070965
    14  C    0.071123
    15  C   -0.201528
    16  C    0.016810
    17  C    0.132779
    22  C   -0.150282
    26  C   -0.150373
 Electronic spatial extent (au):  <R**2>=           2926.8967
 Charge=             -0.0000 electrons
 Dipole moment (field-independent basis, Debye):
    X=              0.0001    Y=              0.5215    Z=             -0.0000  Tot=              0.5215
 Quadrupole moment (field-independent basis, Debye-Ang):
   XX=            -83.1662   YY=            -81.5068   ZZ=            -95.6409
   XY=             -0.0005   XZ=              0.0000   YZ=             -0.0004
 Traceless Quadrupole moment (field-independent basis, Debye-Ang):
   XX=              3.6051   YY=              5.2645   ZZ=             -8.8696
   XY=             -0.0005   XZ=              0.0000   YZ=             -0.0004
 Octapole moment (field-independent basis, Debye-Ang**2):
  XXX=              0.0058  YYY=            -11.2149  ZZZ=              0.0001  XYY=             -0.0011
  XXY=             -1.0658  XXZ=             -0.0019  XZZ=             -0.0014  YZZ=              5.8691
  YYZ=             -0.0002  XYZ=             -0.0004
 Hexadecapole moment (field-independent basis, Debye-Ang**3):
 XXXX=          -2320.7123 YYYY=          -1298.4892 ZZZZ=           -293.8073 XXXY=             -0.0023
 XXXZ=              0.0013 YYYX=             -0.0070 YYYZ=             -0.0021 ZZZX=             -0.0001
 ZZZY=             -0.0015 XXYY=           -595.6528 XXZZ=           -529.6817 YYZZ=           -295.6305
 XXYZ=             -0.0016 YYXZ=              0.0001 ZZXY=             -0.0020
 N-N= 9.251956863983D+02 E-N=-3.191797465630D+03  KE= 5.743516507450D+02
 No NMR shielding tensors so no spin-rotation constants.
 Leave Link  601 at Fri Mar 13 23:27:54 2026, MaxMem=   104857600 cpu:               0.1 elap:               0.1
 (Enter /sw/cluster/pub/apps//g16/l9999.exe)
 1\1\GINC-N07\FOpt\RB3LYP\6-31+G(d)\C15H14\UNKNOWN\13-Mar-2026\0\\#P B3
 LYP/6-31+G* OPT FREQ\\OPT FREQ F1 6-31+G*\\0,1\C,0.0094071104,0.003836
 9613,0.0397392725\C,1.5378665785,-0.0447972539,0.0519189483\C,2.083446
 4802,1.2554514447,0.0327440784\C,0.9781394834,2.2238794298,0.007315433
 1\C,-0.2393877288,1.5123535636,0.0109996425\C,-1.4512288489,2.19727120
 94,-0.0101376859\C,-1.4450309044,3.5990240704,-0.0350831698\C,-0.23493
 50184,4.304461468,-0.0387666203\C,0.9854833464,3.6216865664,-0.0175633
 977\H,1.9219284539,4.1747672301,-0.0205222033\H,-0.2446315223,5.391464
 7071,-0.0582046813\H,-2.3864608949,4.1425784072,-0.0516903425\H,-2.397
 2735423,1.6596928515,-0.0075092954\C,3.4683607792,1.4465208437,0.03952
 75885\C,4.3057228502,0.3266180793,0.0656934671\C,3.7652573559,-0.96547
 25608,0.0847728282\C,2.3762740335,-1.1558811086,0.0779341394\H,1.96776
 19503,-2.1642933972,0.092964638\H,4.4278831328,-1.8271797865,0.1050619
 836\H,5.3847450526,0.4597597237,0.071271124\H,3.8934611165,2.447468029
 4,0.0247967417\C,-0.5858075504,-0.6421505788,1.3122404429\H,-0.1915726
 75,-0.1676559934,2.2172048167\H,-1.6780100011,-0.5435014647,1.32159534
 83\H,-0.3441540485,-1.7111099492,1.3526626414\C,-0.5668837226,-0.68706
 42903,-1.2178204912\H,-0.3247364888,-1.7566752469,-1.2167662864\H,-1.6
 588160633,-0.5892921262,-1.2469364709\H,-0.1591587143,-0.2447518289,-2
 .1330544897\\Version=ES64L-G16RevA.03\State=1-A\HF=-580.0697506\RMSD=4
 .871e-09\RMSF=5.312e-05\Dipole=-0.1351887,-0.1543506,0.0017703\Quadrup
 ole=3.2159772,3.3748228,-6.5908,0.6127618,0.0613277,-0.1733969\PG=C01 
 [X(C15H14)]\\@


 WE STILL HAVE JUDGEMENT HERE,
 THAT WE TEACH BUT BLOODY INSTRUCTIONS,
 WHICH, BEING TAUGHT,
 RETURN TO PLAGUE THE INVENTOR.
           MACBETH ACT I, SCENE VII
 Leave Link 9999 at Fri Mar 13 23:27:54 2026, MaxMem=   104857600 cpu:               0.0 elap:               0.0
 Job cpu time:       0 days  0 hours  5 minutes 15.5 seconds.
 Elapsed time:       0 days  0 hours  5 minutes 16.2 seconds.
 File lengths (MBytes):  RWF=     64 Int=      0 D2E=      0 Chk=      9 Scr=      1
 Normal termination of Gaussian 16 at Fri Mar 13 23:27:54 2026.
 (Enter /sw/cluster/pub/apps//g16/l1.exe)
 Link1:  Proceeding to internal job step number  2.
 ---------------------------------------------------------------------
 #P Geom=AllCheck Guess=TCheck SCRF=Check GenChk RB3LYP/6-31+G(d) Freq
 ---------------------------------------------------------------------
 1/10=4,29=7,30=1,38=1,40=1/1,3;
 2/12=2,40=1/2;
 3/5=1,6=6,7=11,11=2,14=-4,25=1,30=1,70=2,71=2,74=-5,116=1,140=1/1,2,3;
 4/5=101/1;
 5/5=2,38=6,98=1/2;
 8/6=4,10=90,11=11/1;
 11/6=1,8=1,9=11,15=111,16=1/1,2,10;
 10/6=1/2;
 6/7=2,8=2,9=2,10=2,28=1/1;
 7/8=1,10=1,25=1/1,2,3,16;
 1/10=4,30=1/3;
 99//99;
 Leave Link    1 at Fri Mar 13 23:27:54 2026, MaxMem=   104857600 cpu:               0.0 elap:               0.0
 (Enter /sw/cluster/pub/apps//g16/l101.exe)
 Structure from the checkpoint file:  "f1-6-31+Gstar.chk"
 -------------------
 OPT FREQ F1 6-31+G*
 -------------------
 Charge =  0 Multiplicity = 1
 Redundant internal coordinates found in file.  (old form).
 C,0,0.0094071104,0.0038369613,0.0397392725
 C,0,1.5378665785,-0.0447972539,0.0519189483
 C,0,2.0834464802,1.2554514447,0.0327440784
 C,0,0.9781394834,2.2238794298,0.0073154331
 C,0,-0.2393877288,1.5123535636,0.0109996425
 C,0,-1.4512288489,2.1972712094,-0.0101376859
 C,0,-1.4450309044,3.5990240704,-0.0350831698
 C,0,-0.2349350184,4.304461468,-0.0387666203
 C,0,0.9854833464,3.6216865664,-0.0175633977
 H,0,1.9219284539,4.1747672301,-0.0205222033
 H,0,-0.2446315223,5.3914647071,-0.0582046813
 H,0,-2.3864608949,4.1425784072,-0.0516903425
 H,0,-2.3972735423,1.6596928515,-0.0075092954
 C,0,3.4683607792,1.4465208437,0.0395275885
 C,0,4.3057228502,0.3266180793,0.0656934671
 C,0,3.7652573559,-0.9654725608,0.0847728282
 C,0,2.3762740335,-1.1558811086,0.0779341394
 H,0,1.9677619503,-2.1642933972,0.092964638
 H,0,4.4278831328,-1.8271797865,0.1050619836
 H,0,5.3847450526,0.4597597237,0.071271124
 H,0,3.8934611165,2.4474680294,0.0247967417
 C,0,-0.5858075504,-0.6421505788,1.3122404429
 H,0,-0.191572675,-0.1676559934,2.2172048167
 H,0,-1.6780100011,-0.5435014647,1.3215953483
 H,0,-0.3441540485,-1.7111099492,1.3526626414
 C,0,-0.5668837226,-0.6870642903,-1.2178204912
 H,0,-0.3247364888,-1.7566752469,-1.2167662864
 H,0,-1.6588160633,-0.5892921262,-1.2469364709
 H,0,-0.1591587143,-0.2447518289,-2.1330544897
 Recover connectivity data from disk.
 ITRead=  0  0  0  0  0  0  0  0  0  0  0  0  0  0  0  0  0  0  0  0
 ITRead=  0  0  0  0  0  0  0  0  0
 MicOpt= -1 -1 -1 -1 -1 -1 -1 -1 -1 -1 -1 -1 -1 -1 -1 -1 -1 -1 -1 -1
 MicOpt= -1 -1 -1 -1 -1 -1 -1 -1 -1
 NAtoms=     29 NQM=       29 NQMF=       0 NMMI=      0 NMMIF=      0
                NMic=       0 NMicF=      0.
                    Isotopes and Nuclear Properties:
 (Nuclear quadrupole moments (NQMom) in fm**2, nuclear magnetic moments (NMagM)
  in nuclear magnetons)

  Atom         1           2           3           4           5           6           7           8           9          10
 IAtWgt=          12          12          12          12          12          12          12          12          12           1
 AtmWgt=  12.0000000  12.0000000  12.0000000  12.0000000  12.0000000  12.0000000  12.0000000  12.0000000  12.0000000   1.0078250
 NucSpn=           0           0           0           0           0           0           0           0           0           1
 AtZEff=   3.6000000   3.6000000   3.6000000   3.6000000   3.6000000   3.6000000   3.6000000   3.6000000   3.6000000   1.0000000
 NQMom=    0.0000000   0.0000000   0.0000000   0.0000000   0.0000000   0.0000000   0.0000000   0.0000000   0.0000000   0.0000000
 NMagM=    0.0000000   0.0000000   0.0000000   0.0000000   0.0000000   0.0000000   0.0000000   0.0000000   0.0000000   2.7928460
 AtZNuc=   6.0000000   6.0000000   6.0000000   6.0000000   6.0000000   6.0000000   6.0000000   6.0000000   6.0000000   1.0000000

  Atom        11          12          13          14          15          16          17          18          19          20
 IAtWgt=           1           1           1          12          12          12          12           1           1           1
 AtmWgt=   1.0078250   1.0078250   1.0078250  12.0000000  12.0000000  12.0000000  12.0000000   1.0078250   1.0078250   1.0078250
 NucSpn=           1           1           1           0           0           0           0           1           1           1
 AtZEff=   1.0000000   1.0000000   1.0000000   3.6000000   3.6000000   3.6000000   3.6000000   1.0000000   1.0000000   1.0000000
 NQMom=    0.0000000   0.0000000   0.0000000   0.0000000   0.0000000   0.0000000   0.0000000   0.0000000   0.0000000   0.0000000
 NMagM=    2.7928460   2.7928460   2.7928460   0.0000000   0.0000000   0.0000000   0.0000000   2.7928460   2.7928460   2.7928460
 AtZNuc=   1.0000000   1.0000000   1.0000000   6.0000000   6.0000000   6.0000000   6.0000000   1.0000000   1.0000000   1.0000000

  Atom        21          22          23          24          25          26          27          28          29
 IAtWgt=           1          12           1           1           1          12           1           1           1
 AtmWgt=   1.0078250  12.0000000   1.0078250   1.0078250   1.0078250  12.0000000   1.0078250   1.0078250   1.0078250
 NucSpn=           1           0           1           1           1           0           1           1           1
 AtZEff=   1.0000000   3.6000000   1.0000000   1.0000000   1.0000000   3.6000000   1.0000000   1.0000000   1.0000000
 NQMom=    0.0000000   0.0000000   0.0000000   0.0000000   0.0000000   0.0000000   0.0000000   0.0000000   0.0000000
 NMagM=    2.7928460   0.0000000   2.7928460   2.7928460   2.7928460   0.0000000   2.7928460   2.7928460   2.7928460
 AtZNuc=   1.0000000   6.0000000   1.0000000   1.0000000   1.0000000   6.0000000   1.0000000   1.0000000   1.0000000
 Leave Link  101 at Fri Mar 13 23:27:54 2026, MaxMem=   104857600 cpu:               0.0 elap:               0.0
 (Enter /sw/cluster/pub/apps//g16/l103.exe)

 GradGradGradGradGradGradGradGradGradGradGradGradGradGradGradGradGradGrad
 Berny optimization.
 Initialization pass.
                           ----------------------------
                           !    Initial Parameters    !
                           ! (Angstroms and Degrees)  !
 --------------------------                            --------------------------
 ! Name  Definition              Value          Derivative Info.                !
 --------------------------------------------------------------------------------
 ! R1    R(1,2)                  1.5293         calculate D2E/DX2 analytically  !
 ! R2    R(1,5)                  1.5292         calculate D2E/DX2 analytically  !
 ! R3    R(1,22)                 1.5462         calculate D2E/DX2 analytically  !
 ! R4    R(1,26)                 1.5463         calculate D2E/DX2 analytically  !
 ! R5    R(2,3)                  1.4102         calculate D2E/DX2 analytically  !
 ! R6    R(2,17)                 1.3922         calculate D2E/DX2 analytically  !
 ! R7    R(3,4)                  1.4698         calculate D2E/DX2 analytically  !
 ! R8    R(3,14)                 1.398          calculate D2E/DX2 analytically  !
 ! R9    R(4,5)                  1.4102         calculate D2E/DX2 analytically  !
 ! R10   R(4,9)                  1.398          calculate D2E/DX2 analytically  !
 ! R11   R(5,6)                  1.3922         calculate D2E/DX2 analytically  !
 ! R12   R(6,7)                  1.402          calculate D2E/DX2 analytically  !
 ! R13   R(6,13)                 1.0881         calculate D2E/DX2 analytically  !
 ! R14   R(7,8)                  1.4007         calculate D2E/DX2 analytically  !
 ! R15   R(7,12)                 1.0872         calculate D2E/DX2 analytically  !
 ! R16   R(8,9)                  1.3986         calculate D2E/DX2 analytically  !
 ! R17   R(8,11)                 1.0872         calculate D2E/DX2 analytically  !
 ! R18   R(9,10)                 1.0876         calculate D2E/DX2 analytically  !
 ! R19   R(14,15)                1.3986         calculate D2E/DX2 analytically  !
 ! R20   R(14,21)                1.0876         calculate D2E/DX2 analytically  !
 ! R21   R(15,16)                1.4007         calculate D2E/DX2 analytically  !
 ! R22   R(15,20)                1.0872         calculate D2E/DX2 analytically  !
 ! R23   R(16,17)                1.402          calculate D2E/DX2 analytically  !
 ! R24   R(16,19)                1.0872         calculate D2E/DX2 analytically  !
 ! R25   R(17,18)                1.0881         calculate D2E/DX2 analytically  !
 ! R26   R(22,23)                1.0952         calculate D2E/DX2 analytically  !
 ! R27   R(22,24)                1.0967         calculate D2E/DX2 analytically  !
 ! R28   R(22,25)                1.0967         calculate D2E/DX2 analytically  !
 ! R29   R(26,27)                1.0967         calculate D2E/DX2 analytically  !
 ! R30   R(26,28)                1.0967         calculate D2E/DX2 analytically  !
 ! R31   R(26,29)                1.0952         calculate D2E/DX2 analytically  !
 ! A1    A(2,1,5)              101.1942         calculate D2E/DX2 analytically  !
 ! A2    A(2,1,22)             111.4013         calculate D2E/DX2 analytically  !
 ! A3    A(2,1,26)             111.3933         calculate D2E/DX2 analytically  !
 ! A4    A(5,1,22)             111.4061         calculate D2E/DX2 analytically  !
 ! A5    A(5,1,26)             111.3992         calculate D2E/DX2 analytically  !
 ! A6    A(22,1,26)            109.8264         calculate D2E/DX2 analytically  !
 ! A7    A(1,2,3)              110.9309         calculate D2E/DX2 analytically  !
 ! A8    A(1,2,17)             128.8616         calculate D2E/DX2 analytically  !
 ! A9    A(3,2,17)             120.2075         calculate D2E/DX2 analytically  !
 ! A10   A(2,3,4)              108.4704         calculate D2E/DX2 analytically  !
 ! A11   A(2,3,14)             120.61           calculate D2E/DX2 analytically  !
 ! A12   A(4,3,14)             130.9195         calculate D2E/DX2 analytically  !
 ! A13   A(3,4,5)              108.4686         calculate D2E/DX2 analytically  !
 ! A14   A(3,4,9)              130.9306         calculate D2E/DX2 analytically  !
 ! A15   A(5,4,9)              120.6008         calculate D2E/DX2 analytically  !
 ! A16   A(1,5,4)              110.9359         calculate D2E/DX2 analytically  !
 ! A17   A(1,5,6)              128.8474         calculate D2E/DX2 analytically  !
 ! A18   A(4,5,6)              120.2167         calculate D2E/DX2 analytically  !
 ! A19   A(5,6,7)              119.2302         calculate D2E/DX2 analytically  !
 ! A20   A(5,6,13)             120.912          calculate D2E/DX2 analytically  !
 ! A21   A(7,6,13)             119.8577         calculate D2E/DX2 analytically  !
 ! A22   A(6,7,8)              120.4915         calculate D2E/DX2 analytically  !
 ! A23   A(6,7,12)             119.7565         calculate D2E/DX2 analytically  !
 ! A24   A(8,7,12)             119.7521         calculate D2E/DX2 analytically  !
 ! A25   A(7,8,9)              120.5276         calculate D2E/DX2 analytically  !
 ! A26   A(7,8,11)             119.7271         calculate D2E/DX2 analytically  !
 ! A27   A(9,8,11)             119.7452         calculate D2E/DX2 analytically  !
 ! A28   A(4,9,8)              118.9332         calculate D2E/DX2 analytically  !
 ! A29   A(4,9,10)             120.8655         calculate D2E/DX2 analytically  !
 ! A30   A(8,9,10)             120.2012         calculate D2E/DX2 analytically  !
 ! A31   A(3,14,15)            118.9306         calculate D2E/DX2 analytically  !
 ! A32   A(3,14,21)            120.8581         calculate D2E/DX2 analytically  !
 ! A33   A(15,14,21)           120.2112         calculate D2E/DX2 analytically  !
 ! A34   A(14,15,16)           120.5231         calculate D2E/DX2 analytically  !
 ! A35   A(14,15,20)           119.7518         calculate D2E/DX2 analytically  !
 ! A36   A(16,15,20)           119.7251         calculate D2E/DX2 analytically  !
 ! A37   A(15,16,17)           120.4967         calculate D2E/DX2 analytically  !
 ! A38   A(15,16,19)           119.7499         calculate D2E/DX2 analytically  !
 ! A39   A(17,16,19)           119.7533         calculate D2E/DX2 analytically  !
 ! A40   A(2,17,16)            119.2319         calculate D2E/DX2 analytically  !
 ! A41   A(2,17,18)            120.9172         calculate D2E/DX2 analytically  !
 ! A42   A(16,17,18)           119.8508         calculate D2E/DX2 analytically  !
 ! A43   A(1,22,23)            111.1272         calculate D2E/DX2 analytically  !
 ! A44   A(1,22,24)            110.6593         calculate D2E/DX2 analytically  !
 ! A45   A(1,22,25)            110.6545         calculate D2E/DX2 analytically  !
 ! A46   A(23,22,24)           108.2079         calculate D2E/DX2 analytically  !
 ! A47   A(23,22,25)           108.2109         calculate D2E/DX2 analytically  !
 ! A48   A(24,22,25)           107.8673         calculate D2E/DX2 analytically  !
 ! A49   A(1,26,27)            110.6537         calculate D2E/DX2 analytically  !
 ! A50   A(1,26,28)            110.6612         calculate D2E/DX2 analytically  !
 ! A51   A(1,26,29)            111.1269         calculate D2E/DX2 analytically  !
 ! A52   A(27,26,28)           107.8677         calculate D2E/DX2 analytically  !
 ! A53   A(27,26,29)           108.2094         calculate D2E/DX2 analytically  !
 ! A54   A(28,26,29)           108.2081         calculate D2E/DX2 analytically  !
 ! D1    D(5,1,2,3)             -0.0012         calculate D2E/DX2 analytically  !
 ! D2    D(5,1,2,17)          -179.9999         calculate D2E/DX2 analytically  !
 ! D3    D(22,1,2,3)          -118.5019         calculate D2E/DX2 analytically  !
 ! D4    D(22,1,2,17)           61.4994         calculate D2E/DX2 analytically  !
 ! D5    D(26,1,2,3)           118.488          calculate D2E/DX2 analytically  !
 ! D6    D(26,1,2,17)          -61.5107         calculate D2E/DX2 analytically  !
 ! D7    D(2,1,5,4)              0.0004         calculate D2E/DX2 analytically  !
 ! D8    D(2,1,5,6)           -179.9976         calculate D2E/DX2 analytically  !
 ! D9    D(22,1,5,4)           118.4976         calculate D2E/DX2 analytically  !
 ! D10   D(22,1,5,6)           -61.5005         calculate D2E/DX2 analytically  !
 ! D11   D(26,1,5,4)          -118.4846         calculate D2E/DX2 analytically  !
 ! D12   D(26,1,5,6)            61.5174         calculate D2E/DX2 analytically  !
 ! D13   D(2,1,22,23)           56.1233         calculate D2E/DX2 analytically  !
 ! D14   D(2,1,22,24)          176.3686         calculate D2E/DX2 analytically  !
 ! D15   D(2,1,22,25)          -64.1226         calculate D2E/DX2 analytically  !
 ! D16   D(5,1,22,23)          -56.0619         calculate D2E/DX2 analytically  !
 ! D17   D(5,1,22,24)           64.1834         calculate D2E/DX2 analytically  !
 ! D18   D(5,1,22,25)         -176.3078         calculate D2E/DX2 analytically  !
 ! D19   D(26,1,22,23)        -179.9748         calculate D2E/DX2 analytically  !
 ! D20   D(26,1,22,24)         -59.7296         calculate D2E/DX2 analytically  !
 ! D21   D(26,1,22,25)          59.7793         calculate D2E/DX2 analytically  !
 ! D22   D(2,1,26,27)           64.1146         calculate D2E/DX2 analytically  !
 ! D23   D(2,1,26,28)         -176.3753         calculate D2E/DX2 analytically  !
 ! D24   D(2,1,26,29)          -56.1287         calculate D2E/DX2 analytically  !
 ! D25   D(5,1,26,27)          176.2911         calculate D2E/DX2 analytically  !
 ! D26   D(5,1,26,28)          -64.1987         calculate D2E/DX2 analytically  !
 ! D27   D(5,1,26,29)           56.0479         calculate D2E/DX2 analytically  !
 ! D28   D(22,1,26,27)         -59.792          calculate D2E/DX2 analytically  !
 ! D29   D(22,1,26,28)          59.7182         calculate D2E/DX2 analytically  !
 ! D30   D(22,1,26,29)         179.9648         calculate D2E/DX2 analytically  !
 ! D31   D(1,2,3,4)              0.0016         calculate D2E/DX2 analytically  !
 ! D32   D(1,2,3,14)          -179.9974         calculate D2E/DX2 analytically  !
 ! D33   D(17,2,3,4)          -179.9995         calculate D2E/DX2 analytically  !
 ! D34   D(17,2,3,14)            0.0014         calculate D2E/DX2 analytically  !
 ! D35   D(1,2,17,16)          179.9978         calculate D2E/DX2 analytically  !
 ! D36   D(1,2,17,18)           -0.0046         calculate D2E/DX2 analytically  !
 ! D37   D(3,2,17,16)           -0.0008         calculate D2E/DX2 analytically  !
 ! D38   D(3,2,17,18)          179.9968         calculate D2E/DX2 analytically  !
 ! D39   D(2,3,4,5)             -0.0014         calculate D2E/DX2 analytically  !
 ! D40   D(2,3,4,9)            179.9997         calculate D2E/DX2 analytically  !
 ! D41   D(14,3,4,5)           179.9975         calculate D2E/DX2 analytically  !
 ! D42   D(14,3,4,9)            -0.0014         calculate D2E/DX2 analytically  !
 ! D43   D(2,3,14,15)           -0.0014         calculate D2E/DX2 analytically  !
 ! D44   D(2,3,14,21)          179.9995         calculate D2E/DX2 analytically  !
 ! D45   D(4,3,14,15)          179.9998         calculate D2E/DX2 analytically  !
 ! D46   D(4,3,14,21)            0.0008         calculate D2E/DX2 analytically  !
 ! D47   D(3,4,5,1)              0.0006         calculate D2E/DX2 analytically  !
 ! D48   D(3,4,5,6)            179.9988         calculate D2E/DX2 analytically  !
 ! D49   D(9,4,5,1)            179.9996         calculate D2E/DX2 analytically  !
 ! D50   D(9,4,5,6)             -0.0022         calculate D2E/DX2 analytically  !
 ! D51   D(3,4,9,8)            179.999          calculate D2E/DX2 analytically  !
 ! D52   D(3,4,9,10)             0.0001         calculate D2E/DX2 analytically  !
 ! D53   D(5,4,9,8)              0.0002         calculate D2E/DX2 analytically  !
 ! D54   D(5,4,9,10)          -179.9987         calculate D2E/DX2 analytically  !
 ! D55   D(1,5,6,7)            179.9994         calculate D2E/DX2 analytically  !
 ! D56   D(1,5,6,13)             0.0002         calculate D2E/DX2 analytically  !
 ! D57   D(4,5,6,7)              0.0016         calculate D2E/DX2 analytically  !
 ! D58   D(4,5,6,13)          -179.9977         calculate D2E/DX2 analytically  !
 ! D59   D(5,6,7,8)              0.0009         calculate D2E/DX2 analytically  !
 ! D60   D(5,6,7,12)          -179.9989         calculate D2E/DX2 analytically  !
 ! D61   D(13,6,7,8)          -179.9998         calculate D2E/DX2 analytically  !
 ! D62   D(13,6,7,12)            0.0003         calculate D2E/DX2 analytically  !
 ! D63   D(6,7,8,9)             -0.0029         calculate D2E/DX2 analytically  !
 ! D64   D(6,7,8,11)          -179.9992         calculate D2E/DX2 analytically  !
 ! D65   D(12,7,8,9)           179.9969         calculate D2E/DX2 analytically  !
 ! D66   D(12,7,8,11)            0.0006         calculate D2E/DX2 analytically  !
 ! D67   D(7,8,9,4)              0.0023         calculate D2E/DX2 analytically  !
 ! D68   D(7,8,9,10)          -179.9988         calculate D2E/DX2 analytically  !
 ! D69   D(11,8,9,4)           179.9986         calculate D2E/DX2 analytically  !
 ! D70   D(11,8,9,10)           -0.0025         calculate D2E/DX2 analytically  !
 ! D71   D(3,14,15,16)           0.0009         calculate D2E/DX2 analytically  !
 ! D72   D(3,14,15,20)        -179.9993         calculate D2E/DX2 analytically  !
 ! D73   D(21,14,15,16)        179.9999         calculate D2E/DX2 analytically  !
 ! D74   D(21,14,15,20)         -0.0003         calculate D2E/DX2 analytically  !
 ! D75   D(14,15,16,17)         -0.0002         calculate D2E/DX2 analytically  !
 ! D76   D(14,15,16,19)       -179.9987         calculate D2E/DX2 analytically  !
 ! D77   D(20,15,16,17)        179.9999         calculate D2E/DX2 analytically  !
 ! D78   D(20,15,16,19)          0.0014         calculate D2E/DX2 analytically  !
 ! D79   D(15,16,17,2)           0.0002         calculate D2E/DX2 analytically  !
 ! D80   D(15,16,17,18)       -179.9974         calculate D2E/DX2 analytically  !
 ! D81   D(19,16,17,2)         179.9987         calculate D2E/DX2 analytically  !
 ! D82   D(19,16,17,18)          0.0011         calculate D2E/DX2 analytically  !
 --------------------------------------------------------------------------------
 Trust Radius=3.00D-01 FncErr=1.00D-07 GrdErr=1.00D-07 EigMax=2.50D+02 EigMin=1.00D-04
 Number of steps in this run=      2 maximum allowed number of steps=      2.
 GradGradGradGradGradGradGradGradGradGradGradGradGradGradGradGradGradGrad

 Leave Link  103 at Fri Mar 13 23:27:54 2026, MaxMem=   104857600 cpu:               0.0 elap:               0.0
 (Enter /sw/cluster/pub/apps//g16/l202.exe)
                          Input orientation:                          
 ---------------------------------------------------------------------
 Center     Atomic      Atomic             Coordinates (Angstroms)
 Number     Number       Type             X           Y           Z
 ---------------------------------------------------------------------
      1          6           0        0.009407    0.003837    0.039739
      2          6           0        1.537867   -0.044797    0.051919
      3          6           0        2.083446    1.255451    0.032744
      4          6           0        0.978139    2.223879    0.007315
      5          6           0       -0.239388    1.512354    0.011000
      6          6           0       -1.451229    2.197271   -0.010138
      7          6           0       -1.445031    3.599024   -0.035083
      8          6           0       -0.234935    4.304461   -0.038767
      9          6           0        0.985483    3.621687   -0.017563
     10          1           0        1.921928    4.174767   -0.020522
     11          1           0       -0.244632    5.391465   -0.058205
     12          1           0       -2.386461    4.142578   -0.051690
     13          1           0       -2.397274    1.659693   -0.007509
     14          6           0        3.468361    1.446521    0.039528
     15          6           0        4.305723    0.326618    0.065693
     16          6           0        3.765257   -0.965473    0.084773
     17          6           0        2.376274   -1.155881    0.077934
     18          1           0        1.967762   -2.164293    0.092965
     19          1           0        4.427883   -1.827180    0.105062
     20          1           0        5.384745    0.459760    0.071271
     21          1           0        3.893461    2.447468    0.024797
     22          6           0       -0.585808   -0.642151    1.312240
     23          1           0       -0.191573   -0.167656    2.217205
     24          1           0       -1.678010   -0.543501    1.321595
     25          1           0       -0.344154   -1.711110    1.352663
     26          6           0       -0.566884   -0.687064   -1.217820
     27          1           0       -0.324736   -1.756675   -1.216766
     28          1           0       -1.658816   -0.589292   -1.246936
     29          1           0       -0.159159   -0.244752   -2.133054
 ---------------------------------------------------------------------
                    Distance matrix (angstroms):
                    1          2          3          4          5
     1  C    0.000000
     2  C    1.529282   0.000000
     3  C    2.422442   1.410203   0.000000
     4  C    2.422412   2.337130   1.469763   0.000000
     5  C    1.529166   2.363266   2.337099   1.410197   0.000000
     6  C    2.635735   3.737033   3.658250   2.429577   1.392163
     7  C    3.878964   4.709849   4.236400   2.786499   2.410372
     8  C    4.308275   4.697563   3.830988   2.408837   2.792555
     9  C    3.747645   3.708512   2.609046   1.398048   2.439346
    10  H    4.588903   4.237626   2.924266   2.167366   3.429392
    11  H    5.394503   5.722095   4.747086   3.396036   3.879732
    12  H    4.783066   5.739791   5.321908   3.873683   3.395870
    13  H    2.921678   4.288840   4.499098   3.422271   2.162989
    14  C    3.747759   2.439465   1.398049   2.608932   3.708443
    15  C    4.308502   2.792699   2.408802   3.830903   4.697552
    16  C    3.879175   2.410393   2.786341   4.236271   4.709803
    17  C    2.635994   1.392161   2.429468   3.658217   3.737063
    18  H    2.922118   2.163044   3.422231   4.499194   4.289051
    19  H    4.783285   3.395866   3.873529   5.321782   5.739752
    20  H    5.394731   3.879875   3.396054   4.747039   5.722102
    21  H    4.588838   3.429424   2.167284   2.923935   4.237342
    22  C    1.546234   2.540715   3.516095   3.516090   2.540693
    23  H    2.193435   2.773899   3.460176   3.459954   2.773456
    24  H    2.188632   3.493229   4.364164   4.054733   2.830872
    25  H    2.188565   2.830289   4.054123   4.363778   3.493101
    26  C    1.546257   2.540614   3.515897   3.515914   2.540608
    27  H    2.188575   2.830085   4.053829   4.363562   3.493028
    28  H    2.188677   3.493176   4.364080   4.054703   2.830918
    29  H    2.193455   2.773803   3.459851   3.459591   2.773234
                    6          7          8          9         10
     6  C    0.000000
     7  C    1.401989   0.000000
     8  C    2.433196   1.400710   0.000000
     9  C    2.822513   2.430683   1.398589   0.000000
    10  H    3.910088   3.415861   2.160836   1.087583   0.000000
    11  H    3.414829   2.157391   1.087220   2.155678   2.485107
    12  H    2.158844   1.087206   2.157646   3.412111   4.308622
    13  H    1.088117   2.160679   3.416356   3.910571   4.998127
    14  C    4.976792   5.364723   4.678499   3.301407   3.136620
    15  C    6.053725   6.617399   6.037526   4.678504   4.527489
    16  C    6.101122   6.927922   6.617326   5.364666   5.461778
    17  C    5.089319   6.101169   6.053707   4.976803   5.350882
    18  H    5.542867   6.699207   6.834765   5.869809   6.340242
    19  H    7.125548   7.997153   7.704517   6.446340   6.505302
    20  H    7.053801   7.517455   6.809893   5.418411   5.079449
    21  H    5.350657   5.461608   4.527264   3.136386   2.621556
    22  C    3.249608   4.532230   5.139776   4.734727   5.591752
    23  H    3.484346   4.564191   5.009104   4.553984   5.322682
    24  H    3.055614   4.365246   5.237919   5.122142   6.084644
    25  H    4.284657   5.597793   6.175363   5.664289   6.454790
    26  C    3.249608   4.532170   5.139619   4.734532   5.591522
    27  H    4.284697   5.597763   6.175202   5.664057   6.454496
    28  H    3.055765   4.365351   5.237932   5.122111   6.084578
    29  H    3.484207   4.563942   5.008705   4.553554   5.322205
                   11         12         13         14         15
    11  H    0.000000
    12  H    2.479353   0.000000
    13  H    4.308429   2.483302   0.000000
    14  C    5.418343   6.446393   5.869695   0.000000
    15  C    6.809827   7.704587   6.834662   1.398586   0.000000
    16  C    7.517333   7.997152   6.699015   2.430619   1.400702
    17  C    7.053752   7.125596   5.542699   2.822521   2.433254
    18  H    7.874453   7.665299   5.804007   3.910579   3.416350
    19  H    8.600458   9.060787   7.665097   3.412051   2.157619
    20  H    7.485209   8.600576   7.874380   2.155744   1.087220
    21  H    5.079155   6.505126   6.339951   1.087576   2.160934
    22  C    6.196695   5.291152   3.212730   4.734831   5.139987
    23  H    6.007006   5.342615   3.626799   4.554444   5.009888
    24  H    6.259572   4.934284   2.671689   5.664717   6.175715
    25  H    7.242031   6.356799   4.174647   5.121545   5.237364
    26  C    6.196537   5.291141   3.212857   4.734586   5.139772
    27  H    7.241863   6.356831   4.174839   5.121165   5.236981
    28  H    6.259589   4.934438   2.671972   5.664580   6.175566
    29  H    6.006600   5.342436   3.626846   4.554055   5.009603
                   16         17         18         19         20
    16  C    0.000000
    17  C    1.401990   0.000000
    18  H    2.160608   1.088119   0.000000
    19  H    1.087209   2.158814   2.483141   0.000000
    20  H    2.157362   3.414855   4.308352   2.479278   0.000000
    21  H    3.415874   3.910090   4.998130   4.308673   2.485372
    22  C    4.532436   3.249824   3.213140   5.291377   6.196911
    23  H    4.565116   3.485241   3.627903   5.343645   6.007828
    24  H    5.597942   4.284731   4.174704   6.356864   7.242400
    25  H    4.364720   3.055150   2.671548   4.933794   6.258987
    26  C    4.532296   3.249761   3.213221   5.291274   6.196680
    27  H    4.364408   3.054940   2.671535   4.933517   6.258578
    28  H    5.597815   4.284654   4.174689   6.356742   7.242233
    29  H    4.565001   3.485261   3.628167   5.343613   6.007517
                   21         22         23         24         25
    21  H    0.000000
    22  C    5.591699   0.000000
    23  H    5.322878   1.095229   0.000000
    24  H    6.455143   1.096688   1.775633   0.000000
    25  H    6.083945   1.096679   1.775659   1.772977   0.000000
    26  C    5.591428   2.530530   3.494287   2.775580   2.775907
    27  H    6.083543   2.776004   3.786142   3.121926   2.569906
    28  H    6.454998   2.775523   3.785612   2.569012   3.121655
    29  H    5.322415   3.494283   4.351063   3.785600   3.786113
                   26         27         28         29
    26  C    0.000000
    27  H    1.096679   0.000000
    28  H    1.096687   1.772981   0.000000
    29  H    1.095232   1.775644   1.775637   0.000000
 Stoichiometry    C15H14
 Framework group  C1[X(C15H14)]
 Deg. of freedom    81
 Full point group                 C1      NOp   1
 RotChk:  IX=0 Diff= 1.03D-15
 Largest Abelian subgroup         C1      NOp   1
 Largest concise Abelian subgroup C1      NOp   1
                         Standard orientation:                         
 ---------------------------------------------------------------------
 Center     Atomic      Atomic             Coordinates (Angstroms)
 Number     Number       Type             X           Y           Z
 ---------------------------------------------------------------------
      1          6           0       -0.000146    1.417323   -0.000020
      2          6           0        1.181638    0.446710   -0.000046
      3          6           0        0.734974   -0.890886   -0.000024
      4          6           0       -0.734789   -0.891006   -0.000023
      5          6           0       -1.181628    0.446525   -0.000012
      6          6           0       -2.544651    0.729871   -0.000035
      7          6           0       -3.463951   -0.328647   -0.000035
      8          6           0       -3.018690   -1.656702    0.000007
      9          6           0       -1.650626   -1.947311   -0.000011
     10          1           0       -1.310782   -2.980433    0.000002
     11          1           0       -3.742479   -2.467983   -0.000006
     12          1           0       -4.530389   -0.117155   -0.000070
     13          1           0       -2.901934    1.757658   -0.000065
     14          6           0        1.650780   -1.947219    0.000012
     15          6           0        3.018836   -1.656590   -0.000004
     16          6           0        3.463970   -0.328500   -0.000038
     17          6           0        2.544667    0.730017   -0.000061
     18          1           0        2.902073    1.757764   -0.000129
     19          1           0        4.530399   -0.116948   -0.000071
     20          1           0        3.742730   -2.467777    0.000012
     21          1           0        1.310774   -2.980281    0.000037
     22          6           0       -0.000182    2.306283   -1.265164
     23          1           0       -0.000644    1.697349   -2.175507
     24          1           0       -0.886443    2.951961   -1.284339
     25          1           0        0.886534    2.951308   -1.284739
     26          6           0       -0.000128    2.305979    1.265367
     27          1           0        0.886707    2.950832    1.285167
     28          1           0       -0.886274    2.951809    1.284673
     29          1           0       -0.000731    1.696808    2.175556
 ---------------------------------------------------------------------
 Rotational constants (GHZ):           1.0539417           0.5482606           0.3911394
 Leave Link  202 at Fri Mar 13 23:27:54 2026, MaxMem=   104857600 cpu:               0.0 elap:               0.0
 (Enter /sw/cluster/pub/apps//g16/l301.exe)
 Standard basis: 6-31+G(d) (6D, 7F)
 Ernie: Thresh=  0.10000D-02 Tol=  0.10000D-05 Strict=F.
 There are   313 symmetry adapted cartesian basis functions of A   symmetry.
 There are   313 symmetry adapted basis functions of A   symmetry.
   313 basis functions,   536 primitive gaussians,   313 cartesian basis functions
    52 alpha electrons       52 beta electrons
       nuclear repulsion energy       925.1956863983 Hartrees.
 IExCor=  402 DFT=T Ex+Corr=B3LYP ExCW=0 ScaHFX=  0.200000
 ScaDFX=  0.800000  0.720000  1.000000  0.810000 ScalE2=  1.000000  1.000000
 IRadAn=      5 IRanWt=     -1 IRanGd=            0 ICorTp=0 IEmpDi=  4
 NAtoms=   29 NActive=   29 NUniq=   29 SFac= 1.00D+00 NAtFMM=   60 NAOKFM=F Big=F
 Integral buffers will be    131072 words long.
 Raffenetti 2 integral format.
 Two-electron integral symmetry is turned on.
 Leave Link  301 at Fri Mar 13 23:27:54 2026, MaxMem=   104857600 cpu:               0.0 elap:               0.0
 (Enter /sw/cluster/pub/apps//g16/l302.exe)
 NPDir=0 NMtPBC=     1 NCelOv=     1 NCel=       1 NClECP=     1 NCelD=      1
         NCelK=      1 NCelE2=     1 NClLst=     1 CellRange=     0.0.
 One-electron integrals computed using PRISM.
 One-electron integral symmetry used in STVInt
 NBasis=   313 RedAO= T EigKep=  1.23D-06  NBF=   313
 NBsUse=   309 1.00D-06 EigRej=  7.63D-07 NBFU=   309
 Precomputing XC quadrature grid using
 IXCGrd= 4 IRadAn=           5 IRanWt=          -1 IRanGd=           0 AccXCQ= 0.00D+00.
 Generated NRdTot=       0 NPtTot=           0 NUsed=           0 NTot=          32
 NSgBfM=   312   312   312   312   312 MxSgAt=    29 MxSgA2=    29.
 Leave Link  302 at Fri Mar 13 23:27:55 2026, MaxMem=   104857600 cpu:               0.4 elap:               0.4
 (Enter /sw/cluster/pub/apps//g16/l303.exe)
 DipDrv:  MaxL=1.
 Leave Link  303 at Fri Mar 13 23:27:55 2026, MaxMem=   104857600 cpu:               0.0 elap:               0.0
 (Enter /sw/cluster/pub/apps//g16/l401.exe)
 Initial guess from the checkpoint file:  "f1-6-31+Gstar.chk"
 B after Tr=     0.000000   -0.000000    0.000000
         Rot=    1.000000    0.000000   -0.000000    0.000000 Ang=   0.00 deg.
 Guess basis will be translated and rotated to current coordinates.
 JPrj=2 DoOrth=T DoCkMO=T.
 Leave Link  401 at Fri Mar 13 23:27:55 2026, MaxMem=   104857600 cpu:               0.1 elap:               0.1
 (Enter /sw/cluster/pub/apps//g16/l502.exe)
 Integral symmetry usage will be decided dynamically.
 Closed shell SCF:
 Using DIIS extrapolation, IDIIS=  1040.
 NGot=   104857600 LenX=   104656419 LenY=   104558009
 Requested convergence on RMS density matrix=1.00D-08 within 128 cycles.
 Requested convergence on MAX density matrix=1.00D-06.
 Requested convergence on             energy=1.00D-06.
 No special actions if energy rises.
 Fock matrices will be formed incrementally for  20 cycles.

 Cycle   1  Pass 1  IDiag  1:
 FoFJK:  IHMeth= 1 ICntrl=       0 DoSepK=F KAlg= 0 I1Cent=           0 FoldK=F
 IRaf= 930000000 NMat=       1 IRICut=       1 DoRegI=T DoRafI=F ISym2E= 0 IDoP0=0 IntGTp=1.
 FoFCou: FMM=F IPFlag=           0 FMFlag=      100000 FMFlg1=           0
         NFxFlg=           0 DoJE=F BraDBF=F KetDBF=F FulRan=T
         wScrn=  0.000000 ICntrl=         0 IOpCl=  0 I1Cent=           0 NGrid=           0
         NMat0=    1 NMatS0=      1 NMatT0=    0 NMatD0=    1 NMtDS0=    0 NMtDT0=    0
 Symmetry not used in FoFCou.
 E= -580.069750586668    
 DIIS: error= 1.77D-09 at cycle   1 NSaved=   1.
 NSaved= 1 IEnMin= 1 EnMin= -580.069750586668     IErMin= 1 ErrMin= 1.77D-09
 ErrMax= 1.77D-09  0.00D+00 EMaxC= 1.00D-01 BMatC= 1.20D-15 BMatP= 1.20D-15
 IDIUse=1 WtCom= 1.00D+00 WtEn= 0.00D+00
 Coeff-Com:  0.100D+01
 Coeff:      0.100D+01
 Gap=     0.179 Goal=   None    Shift=    0.000
 RMSDP=3.35D-09 MaxDP=2.87D-07              OVMax= 3.53D-08

 SCF Done:  E(RB3LYP) =  -580.069750587     A.U. after    1 cycles
            NFock=  1  Conv=0.34D-08     -V/T= 2.0100
 KE= 5.743516507126D+02 PE=-3.191797465598D+03 EE= 1.112180377900D+03
 Leave Link  502 at Fri Mar 13 23:28:06 2026, MaxMem=   104857600 cpu:              10.9 elap:              10.9
 (Enter /sw/cluster/pub/apps//g16/l801.exe)
 DoSCS=F DFT=T ScalE2(SS,OS)=  1.000000  1.000000
 Range of M.O.s used for correlation:     1   309
 NBasis=   313 NAE=    52 NBE=    52 NFC=     0 NFV=     0
 NROrb=    309 NOA=    52 NOB=    52 NVA=   257 NVB=   257

 **** Warning!!: The largest alpha MO coefficient is  0.17406810D+03

 Leave Link  801 at Fri Mar 13 23:28:06 2026, MaxMem=   104857600 cpu:               0.0 elap:               0.0
 (Enter /sw/cluster/pub/apps//g16/l1101.exe)
 Using compressed storage, NAtomX=    29.
 Will process     30 centers per pass.
 Leave Link 1101 at Fri Mar 13 23:28:06 2026, MaxMem=   104857600 cpu:               0.1 elap:               0.1
 (Enter /sw/cluster/pub/apps//g16/l1102.exe)
 Symmetrizing basis deriv contribution to polar:
 IMax=3 JMax=2 DiffMx= 0.00D+00
 Leave Link 1102 at Fri Mar 13 23:28:06 2026, MaxMem=   104857600 cpu:               0.0 elap:               0.0
 (Enter /sw/cluster/pub/apps//g16/l1110.exe)
 Forming Gx(P) for the SCF density, NAtomX=    29.
 Integral derivatives from FoFJK, PRISM(SPDF).
 Do as many integral derivatives as possible in FoFJK.
 G2DrvN: MDV=     104855376.
 G2DrvN: will do    30 centers at a time, making    1 passes.
 Calling FoFCou, ICntrl=  3107 FMM=F I1Cent=   0 AccDes= 0.00D+00.
 FoFJK:  IHMeth= 1 ICntrl=    3107 DoSepK=F KAlg= 0 I1Cent=           0 FoldK=F
 IRaf=         0 NMat=       1 IRICut=       1 DoRegI=T DoRafI=F ISym2E= 0 IDoP0=0 IntGTp=1.
 FoFCou: FMM=F IPFlag=           0 FMFlag=      100000 FMFlg1=           0
         NFxFlg=           0 DoJE=F BraDBF=F KetDBF=F FulRan=T
         wScrn=  0.000000 ICntrl=      3107 IOpCl=  0 I1Cent=           0 NGrid=           0
         NMat0=    1 NMatS0=      1 NMatT0=    0 NMatD0=    1 NMtDS0=    0 NMtDT0=    0
 Symmetry not used in FoFCou.
 End of G2Drv F.D. properties file   721 does not exist.
 End of G2Drv F.D. properties file   722 does not exist.
 End of G2Drv F.D. properties file   788 does not exist.
 Leave Link 1110 at Fri Mar 13 23:33:13 2026, MaxMem=   104857600 cpu:             306.4 elap:             306.8
 (Enter /sw/cluster/pub/apps//g16/l1002.exe)
 Minotr:  Closed shell wavefunction.
          IDoAtm=11111111111111111111111111111
          Direct CPHF calculation.
          Differentiating once with respect to electric field.
                with respect to dipole field.
          Differentiating once with respect to nuclear coordinates.
          Requested convergence is 1.0D-08 RMS, and 1.0D-07 maximum.
          Secondary convergence is 1.0D-12 RMS, and 1.0D-12 maximum.
          NewPWx=T KeepS1=F KeepF1=F KeepIn=T MapXYZ=F SortEE=F KeepMc=T.
         8916 words used for storage of precomputed grid.
 Two-electron integrals replicated using symmetry.
          MDV=     104857600 using IRadAn=       1.
          Solving linear equations simultaneously, MaxMat=     384.
 FoF2E skips out because all densities are zero.
 CalDSu exits because no D1Ps are significant.
 FoFJK:  IHMeth= 1 ICntrl=       0 DoSepK=F KAlg= 0 I1Cent=           0 FoldK=F
 IRaf= 900000000 NMat=      87 IRICut=     217 DoRegI=T DoRafI=T ISym2E= 2 IDoP0=0 IntGTp=1.
 FoFCou: FMM=F IPFlag=           0 FMFlag=      100000 FMFlg1=           0
         NFxFlg=           0 DoJE=F BraDBF=F KetDBF=F FulRan=T
         wScrn=  0.000000 ICntrl=         0 IOpCl=  0 I1Cent=           0 NGrid=           0
         NMat0=   87 NMatS0=     87 NMatT0=    0 NMatD0=   87 NMtDS0=    0 NMtDT0=    0
 Integrals replicated using symmetry in FoFCou.
 Raff kept on since  88.87% of shell-pairs survive, threshold=   0.20 IRatSp=89.
          There are    90 degrees of freedom in the 1st order CPHF.  IDoFFX=6 NUNeed=     3.
     87 vectors produced by pass  0 Test12= 1.48D-14 1.11D-09 XBig12= 3.28D+02 1.33D+01.
 AX will form    87 AO Fock derivatives at one time.
     87 vectors produced by pass  1 Test12= 1.48D-14 1.11D-09 XBig12= 5.39D+01 1.30D+00.
     87 vectors produced by pass  2 Test12= 1.48D-14 1.11D-09 XBig12= 4.14D-01 8.61D-02.
     87 vectors produced by pass  3 Test12= 1.48D-14 1.11D-09 XBig12= 1.99D-03 5.60D-03.
     87 vectors produced by pass  4 Test12= 1.48D-14 1.11D-09 XBig12= 3.33D-06 2.27D-04.
     79 vectors produced by pass  5 Test12= 1.48D-14 1.11D-09 XBig12= 3.46D-09 7.13D-06.
     18 vectors produced by pass  6 Test12= 1.48D-14 1.11D-09 XBig12= 3.42D-12 2.22D-07.
      3 vectors produced by pass  7 Test12= 1.48D-14 1.11D-09 XBig12= 9.58D-15 1.99D-08.
      3 vectors produced by pass  8 Test12= 1.48D-14 1.11D-09 XBig12= 1.58D-14 1.80D-08.
      3 vectors produced by pass  9 Test12= 1.48D-14 1.11D-09 XBig12= 1.53D-14 1.72D-08.
      3 vectors produced by pass 10 Test12= 1.48D-14 1.11D-09 XBig12= 1.11D-14 1.62D-08.
      3 vectors produced by pass 11 Test12= 1.48D-14 1.11D-09 XBig12= 1.71D-14 1.59D-08.
      1 vectors produced by pass 12 Test12= 1.48D-14 1.11D-09 XBig12= 1.46D-14 1.91D-08.
 InvSVY:  IOpt=1 It=  1 EMax= 3.55D-15
 Solved reduced A of dimension   548 with    90 vectors.
 FullF1:  Do perturbations      1 to       3.
 Isotropic polarizability for W=    0.000000      174.90 Bohr**3.
 End of Minotr F.D. properties file   721 does not exist.
 End of Minotr F.D. properties file   722 does not exist.
 End of Minotr F.D. properties file   788 does not exist.
 Leave Link 1002 at Fri Mar 13 23:43:22 2026, MaxMem=   104857600 cpu:             608.5 elap:             609.4
 (Enter /sw/cluster/pub/apps//g16/l601.exe)
 Copying SCF densities to generalized density rwf, IOpCl= 0 IROHF=0.

 **********************************************************************

            Population analysis using the SCF density.

 **********************************************************************

 Orbital symmetries:
       Occupied  (A) (A) (A) (A) (A) (A) (A) (A) (A) (A) (A) (A)
                 (A) (A) (A) (A) (A) (A) (A) (A) (A) (A) (A) (A)
                 (A) (A) (A) (A) (A) (A) (A) (A) (A) (A) (A) (A)
                 (A) (A) (A) (A) (A) (A) (A) (A) (A) (A) (A) (A)
                 (A) (A) (A) (A)
       Virtual   (A) (A) (A) (A) (A) (A) (A) (A) (A) (A) (A) (A)
                 (A) (A) (A) (A) (A) (A) (A) (A) (A) (A) (A) (A)
                 (A) (A) (A) (A) (A) (A) (A) (A) (A) (A) (A) (A)
                 (A) (A) (A) (A) (A) (A) (A) (A) (A) (A) (A) (A)
                 (A) (A) (A) (A) (A) (A) (A) (A) (A) (A) (A) (A)
                 (A) (A) (A) (A) (A) (A) (A) (A) (A) (A) (A) (A)
                 (A) (A) (A) (A) (A) (A) (A) (A) (A) (A) (A) (A)
                 (A) (A) (A) (A) (A) (A) (A) (A) (A) (A) (A) (A)
                 (A) (A) (A) (A) (A) (A) (A) (A) (A) (A) (A) (A)
                 (A) (A) (A) (A) (A) (A) (A) (A) (A) (A) (A) (A)
                 (A) (A) (A) (A) (A) (A) (A) (A) (A) (A) (A) (A)
                 (A) (A) (A) (A) (A) (A) (A) (A) (A) (A) (A) (A)
                 (A) (A) (A) (A) (A) (A) (A) (A) (A) (A) (A) (A)
                 (A) (A) (A) (A) (A) (A) (A) (A) (A) (A) (A) (A)
                 (A) (A) (A) (A) (A) (A) (A) (A) (A) (A) (A) (A)
                 (A) (A) (A) (A) (A) (A) (A) (A) (A) (A) (A) (A)
                 (A) (A) (A) (A) (A) (A) (A) (A) (A) (A) (A) (A)
                 (A) (A) (A) (A) (A) (A) (A) (A) (A) (A) (A) (A)
                 (A) (A) (A) (A) (A) (A) (A) (A) (A) (A) (A) (A)
                 (A) (A) (A) (A) (A) (A) (A) (A) (A) (A) (A) (A)
                 (A) (A) (A) (A) (A) (A) (A) (A) (A) (A) (A) (A)
                 (A) (A) (A) (A) (A)
 The electronic state is 1-A.
 Alpha  occ. eigenvalues --  -10.21429 -10.19918 -10.19887 -10.19709 -10.19709
 Alpha  occ. eigenvalues --  -10.19695 -10.19695 -10.19657 -10.19656 -10.19618
 Alpha  occ. eigenvalues --  -10.19618 -10.19598 -10.19597 -10.18591 -10.18590
 Alpha  occ. eigenvalues --   -0.89356  -0.84787  -0.81656  -0.77872  -0.74712
 Alpha  occ. eigenvalues --   -0.73673  -0.71830  -0.69255  -0.64855  -0.62617
 Alpha  occ. eigenvalues --   -0.58870  -0.58003  -0.56178  -0.51446  -0.49989
 Alpha  occ. eigenvalues --   -0.47721  -0.45653  -0.45226  -0.44175  -0.43570
 Alpha  occ. eigenvalues --   -0.43355  -0.42266  -0.42174  -0.39709  -0.38769
 Alpha  occ. eigenvalues --   -0.38711  -0.37880  -0.35555  -0.35253  -0.34856
 Alpha  occ. eigenvalues --   -0.34621  -0.32500  -0.32425  -0.28683  -0.25402
 Alpha  occ. eigenvalues --   -0.25037  -0.22074
 Alpha virt. eigenvalues --   -0.04151  -0.02164  -0.00330   0.00023   0.01104
 Alpha virt. eigenvalues --    0.01223   0.02709   0.02855   0.02961   0.03172
 Alpha virt. eigenvalues --    0.03906   0.04958   0.05024   0.05952   0.06387
 Alpha virt. eigenvalues --    0.06436   0.06968   0.07697   0.07800   0.08350
 Alpha virt. eigenvalues --    0.08789   0.08825   0.10760   0.11174   0.11503
 Alpha virt. eigenvalues --    0.11938   0.12449   0.12987   0.13028   0.13187
 Alpha virt. eigenvalues --    0.14773   0.14915   0.14972   0.15566   0.16289
 Alpha virt. eigenvalues --    0.17052   0.17199   0.17403   0.17650   0.18247
 Alpha virt. eigenvalues --    0.18353   0.18893   0.19045   0.20172   0.20661
 Alpha virt. eigenvalues --    0.20744   0.20933   0.21361   0.21683   0.21953
 Alpha virt. eigenvalues --    0.21972   0.22170   0.23264   0.23338   0.23385
 Alpha virt. eigenvalues --    0.23439   0.24174   0.24501   0.24897   0.25267
 Alpha virt. eigenvalues --    0.26057   0.27498   0.27908   0.27992   0.28043
 Alpha virt. eigenvalues --    0.28868   0.29233   0.29570   0.30268   0.30666
 Alpha virt. eigenvalues --    0.30967   0.31237   0.31859   0.32886   0.33992
 Alpha virt. eigenvalues --    0.34305   0.34388   0.35812   0.36152   0.36349
 Alpha virt. eigenvalues --    0.36631   0.39073   0.40536   0.42223   0.44548
 Alpha virt. eigenvalues --    0.44617   0.47814   0.50278   0.50538   0.56706
 Alpha virt. eigenvalues --    0.60763   0.61431   0.63155   0.66739   0.67124
 Alpha virt. eigenvalues --    0.67628   0.68217   0.69177   0.69334   0.69694
 Alpha virt. eigenvalues --    0.70233   0.71560   0.72717   0.73308   0.73740
 Alpha virt. eigenvalues --    0.74041   0.75032   0.75944   0.77059   0.77689
 Alpha virt. eigenvalues --    0.77727   0.77852   0.80184   0.81417   0.81454
 Alpha virt. eigenvalues --    0.81783   0.82454   0.83522   0.83567   0.83571
 Alpha virt. eigenvalues --    0.84979   0.87675   0.89853   0.90557   0.91816
 Alpha virt. eigenvalues --    0.93354   0.94292   0.95093   0.95722   0.95807
 Alpha virt. eigenvalues --    0.98774   1.00003   1.01564   1.01819   1.01854
 Alpha virt. eigenvalues --    1.02502   1.04165   1.05295   1.06507   1.09384
 Alpha virt. eigenvalues --    1.10272   1.11840   1.13145   1.15105   1.15213
 Alpha virt. eigenvalues --    1.17637   1.18962   1.18975   1.21582   1.22724
 Alpha virt. eigenvalues --    1.23806   1.24250   1.25159   1.27062   1.29128
 Alpha virt. eigenvalues --    1.30537   1.32171   1.34096   1.35136   1.37901
 Alpha virt. eigenvalues --    1.41465   1.42600   1.45200   1.46131   1.47598
 Alpha virt. eigenvalues --    1.47911   1.48828   1.48933   1.49416   1.49725
 Alpha virt. eigenvalues --    1.53603   1.59040   1.63696   1.64775   1.65455
 Alpha virt. eigenvalues --    1.68397   1.72439   1.77426   1.80532   1.80637
 Alpha virt. eigenvalues --    1.82232   1.85844   1.88045   1.88243   1.92076
 Alpha virt. eigenvalues --    1.92252   1.94108   1.95912   1.97358   1.97850
 Alpha virt. eigenvalues --    1.98079   2.02277   2.04300   2.06253   2.07792
 Alpha virt. eigenvalues --    2.08294   2.08865   2.12155   2.14609   2.17012
 Alpha virt. eigenvalues --    2.17314   2.19490   2.20990   2.22208   2.23305
 Alpha virt. eigenvalues --    2.25359   2.28450   2.28736   2.28790   2.28887
 Alpha virt. eigenvalues --    2.30086   2.32108   2.32484   2.37796   2.39108
 Alpha virt. eigenvalues --    2.39904   2.43497   2.50650   2.51866   2.52423
 Alpha virt. eigenvalues --    2.60547   2.61050   2.61305   2.66952   2.69199
 Alpha virt. eigenvalues --    2.69490   2.71486   2.72169   2.74683   2.76553
 Alpha virt. eigenvalues --    2.76829   2.77584   2.82579   2.84380   2.86064
 Alpha virt. eigenvalues --    2.95465   2.99449   3.02297   3.09746   3.28742
 Alpha virt. eigenvalues --    3.33932   3.49634   4.24152   4.26091   4.27734
 Alpha virt. eigenvalues --    4.28805   4.32309   4.33344   4.35103   4.35127
 Alpha virt. eigenvalues --    4.40134   4.42453   4.49763   4.52035   4.66800
 Alpha virt. eigenvalues --    4.83443   4.86210
          Condensed to atoms (all electrons):
               1          2          3          4          5          6
     1  C    8.866596   1.572617  -1.032519  -1.032550   1.574178  -0.925786
     2  C    1.572617  12.934518  -1.967196  -2.706317   1.906210  -0.639513
     3  C   -1.032519  -1.967196  13.347539   3.391487  -2.707494  -1.610358
     4  C   -1.032550  -2.706317   3.391487  13.347276  -1.969589  -0.771803
     5  C    1.574178   1.906210  -2.707494  -1.969589  12.939028  -2.342091
     6  C   -0.925786  -0.639513  -1.610358  -0.771803  -2.342091  10.681467
     7  C    0.104049  -0.011819   0.148851   0.145423  -0.468221   0.589312
     8  C    0.021021   0.193596   0.370282  -0.374136  -0.015781  -0.667283
     9  C   -0.962909  -1.374931  -1.203399  -2.043292  -0.835582   1.932840
    10  H    0.001492   0.018922   0.027960  -0.086285   0.056108  -0.029905
    11  H    0.001319   0.000870  -0.020856  -0.032312   0.024254   0.033890
    12  H   -0.003454  -0.002677   0.002330   0.010171  -0.004609  -0.012331
    13  H   -0.059638  -0.027824   0.036857   0.166425  -0.008439   0.198970
    14  C   -0.963734  -0.835286  -2.044490  -1.205147  -1.376118   0.452510
    15  C    0.021101  -0.014340  -0.375464   0.369984   0.194289   0.126162
    16  C    0.103686  -0.470367   0.146728   0.149029  -0.012391  -0.045558
    17  C   -0.923932  -2.339766  -0.775192  -1.611650  -0.639716  -0.774209
    18  H   -0.059690  -0.008362   0.166296   0.036838  -0.027821  -0.000689
    19  H   -0.003455  -0.004592   0.010150   0.002331  -0.002671  -0.000043
    20  H    0.001323   0.024235  -0.032308  -0.020851   0.000867  -0.000330
    21  H    0.001476   0.056154  -0.086457   0.028014   0.018953   0.000693
    22  C   -0.170467  -0.200716   0.216751   0.216783  -0.200709  -0.084476
    23  H   -0.114845  -0.026043   0.040190   0.040236  -0.026055  -0.011088
    24  H   -0.027055   0.006786  -0.013375  -0.027634  -0.015752   0.011685
    25  H   -0.026997  -0.015827  -0.027668  -0.013406   0.006853   0.009141
    26  C   -0.170042  -0.200675   0.216984   0.217151  -0.200860  -0.084618
    27  H   -0.027005  -0.015826  -0.027675  -0.013411   0.006858   0.009134
    28  H   -0.027052   0.006805  -0.013380  -0.027636  -0.015774   0.011691
    29  H   -0.114776  -0.026057   0.040218   0.040266  -0.026087  -0.011109
               7          8          9         10         11         12
     1  C    0.104049   0.021021  -0.962909   0.001492   0.001319  -0.003454
     2  C   -0.011819   0.193596  -1.374931   0.018922   0.000870  -0.002677
     3  C    0.148851   0.370282  -1.203399   0.027960  -0.020856   0.002330
     4  C    0.145423  -0.374136  -2.043292  -0.086285  -0.032312   0.010171
     5  C   -0.468221  -0.015781  -0.835582   0.056108   0.024254  -0.004609
     6  C    0.589312  -0.667283   1.932840  -0.029905   0.033890  -0.012331
     7  C    5.360447   0.847116  -0.745416   0.010035  -0.040054   0.299274
     8  C    0.847116   6.557078  -0.669004   0.014145   0.323858  -0.035738
     9  C   -0.745416  -0.669004  10.737279   0.289892   0.006877   0.041115
    10  H    0.010035   0.014145   0.289892   0.545279  -0.004167  -0.000157
    11  H   -0.040054   0.323858   0.006877  -0.004167   0.534250  -0.004271
    12  H    0.299274  -0.035738   0.041115  -0.000157  -0.004271   0.536857
    13  H    0.008428  -0.003719  -0.037284   0.000020  -0.000158  -0.004492
    14  C   -0.059567  -0.099303   0.691124  -0.023977  -0.001549   0.000923
    15  C   -0.014336  -0.184952  -0.099433   0.000166  -0.000365   0.000132
    16  C    0.001510  -0.014287  -0.059361  -0.001092   0.000054  -0.000029
    17  C   -0.045432   0.126084   0.451866   0.000687  -0.000330  -0.000044
    18  H   -0.000184   0.000117   0.001718   0.000000   0.000000  -0.000000
    19  H   -0.000029   0.000131   0.000924  -0.000000  -0.000000  -0.000000
    20  H    0.000054  -0.000365  -0.001549   0.000001   0.000000  -0.000000
    21  H   -0.001097   0.000178  -0.024016   0.001084   0.000001  -0.000000
    22  C    0.016087  -0.001797   0.002093  -0.000095  -0.000239  -0.000235
    23  H    0.000952  -0.001680   0.004088   0.000001   0.000000  -0.000000
    24  H   -0.000994  -0.001139  -0.000749   0.000000  -0.000000   0.000002
    25  H    0.000192   0.000311   0.000371  -0.000000  -0.000000  -0.000000
    26  C    0.016017  -0.001756   0.002045  -0.000096  -0.000240  -0.000235
    27  H    0.000192   0.000311   0.000371  -0.000000  -0.000000  -0.000000
    28  H   -0.000999  -0.001138  -0.000749   0.000000  -0.000000   0.000002
    29  H    0.000953  -0.001681   0.004085   0.000001   0.000000  -0.000000
              13         14         15         16         17         18
     1  C   -0.059638  -0.963734   0.021101   0.103686  -0.923932  -0.059690
     2  C   -0.027824  -0.835286  -0.014340  -0.470367  -2.339766  -0.008362
     3  C    0.036857  -2.044490  -0.375464   0.146728  -0.775192   0.166296
     4  C    0.166425  -1.205147   0.369984   0.149029  -1.611650   0.036838
     5  C   -0.008439  -1.376118   0.194289  -0.012391  -0.639716  -0.027821
     6  C    0.198970   0.452510   0.126162  -0.045558  -0.774209  -0.000689
     7  C    0.008428  -0.059567  -0.014336   0.001510  -0.045432  -0.000184
     8  C   -0.003719  -0.099303  -0.184952  -0.014287   0.126084   0.000117
     9  C   -0.037284   0.691124  -0.099433  -0.059361   0.451866   0.001718
    10  H    0.000020  -0.023977   0.000166  -0.001092   0.000687   0.000000
    11  H   -0.000158  -0.001549  -0.000365   0.000054  -0.000330   0.000000
    12  H   -0.004492   0.000923   0.000132  -0.000029  -0.000044  -0.000000
    13  H    0.544175   0.001720   0.000117  -0.000182  -0.000690   0.000000
    14  C    0.001720  10.739425  -0.668908  -0.744563   1.933716  -0.037231
    15  C    0.000117  -0.668908   6.557468   0.846741  -0.667555  -0.003732
    16  C   -0.000182  -0.744563   0.846741   5.360571   0.590237   0.008507
    17  C   -0.000690   1.933716  -0.667555   0.590237  10.680783   0.198999
    18  H    0.000000  -0.037231  -0.003732   0.008507   0.198999   0.544179
    19  H   -0.000000   0.041076  -0.035673   0.299220  -0.012305  -0.004494
    20  H    0.000000   0.006903   0.323818  -0.040022   0.033878  -0.000158
    21  H    0.000000   0.290095   0.014024   0.010050  -0.029917   0.000020
    22  C    0.003222   0.001979  -0.001750   0.015932  -0.084365   0.003211
    23  H    0.000047   0.004076  -0.001677   0.000943  -0.011109   0.000047
    24  H    0.000157   0.000370   0.000313   0.000188   0.009138  -0.000038
    25  H   -0.000038  -0.000752  -0.001138  -0.001014   0.011738   0.000159
    26  C    0.003225   0.001880  -0.001778   0.015997  -0.084530   0.003210
    27  H   -0.000038  -0.000753  -0.001137  -0.001012   0.011754   0.000159
    28  H    0.000157   0.000369   0.000313   0.000190   0.009139  -0.000038
    29  H    0.000047   0.004076  -0.001679   0.000943  -0.011126   0.000047
              19         20         21         22         23         24
     1  C   -0.003455   0.001323   0.001476  -0.170467  -0.114845  -0.027055
     2  C   -0.004592   0.024235   0.056154  -0.200716  -0.026043   0.006786
     3  C    0.010150  -0.032308  -0.086457   0.216751   0.040190  -0.013375
     4  C    0.002331  -0.020851   0.028014   0.216783   0.040236  -0.027634
     5  C   -0.002671   0.000867   0.018953  -0.200709  -0.026055  -0.015752
     6  C   -0.000043  -0.000330   0.000693  -0.084476  -0.011088   0.011685
     7  C   -0.000029   0.000054  -0.001097   0.016087   0.000952  -0.000994
     8  C    0.000131  -0.000365   0.000178  -0.001797  -0.001680  -0.001139
     9  C    0.000924  -0.001549  -0.024016   0.002093   0.004088  -0.000749
    10  H   -0.000000   0.000001   0.001084  -0.000095   0.000001   0.000000
    11  H   -0.000000   0.000000   0.000001  -0.000239   0.000000  -0.000000
    12  H   -0.000000  -0.000000  -0.000000  -0.000235  -0.000000   0.000002
    13  H   -0.000000   0.000000   0.000000   0.003222   0.000047   0.000157
    14  C    0.041076   0.006903   0.290095   0.001979   0.004076   0.000370
    15  C   -0.035673   0.323818   0.014024  -0.001750  -0.001677   0.000313
    16  C    0.299220  -0.040022   0.010050   0.015932   0.000943   0.000188
    17  C   -0.012305   0.033878  -0.029917  -0.084365  -0.011109   0.009138
    18  H   -0.004494  -0.000158   0.000020   0.003211   0.000047  -0.000038
    19  H    0.536869  -0.004272  -0.000157  -0.000237  -0.000000  -0.000000
    20  H   -0.004272   0.534240  -0.004164  -0.000239   0.000000  -0.000000
    21  H   -0.000157  -0.004164   0.545272  -0.000096   0.000001  -0.000000
    22  C   -0.000237  -0.000239  -0.000096   6.400503   0.432856   0.410595
    23  H   -0.000000   0.000000   0.000001   0.432856   0.490271  -0.027867
    24  H   -0.000000  -0.000000  -0.000000   0.410595  -0.027867   0.513794
    25  H    0.000002  -0.000000   0.000000   0.410594  -0.027862  -0.029889
    26  C   -0.000237  -0.000239  -0.000097  -0.533847   0.007670  -0.025938
    27  H    0.000002  -0.000000   0.000000  -0.025978   0.000009   0.000181
    28  H   -0.000000  -0.000000  -0.000000  -0.025942   0.000009   0.002293
    29  H   -0.000000   0.000000   0.000001   0.007692  -0.000146   0.000009
              25         26         27         28         29
     1  C   -0.026997  -0.170042  -0.027005  -0.027052  -0.114776
     2  C   -0.015827  -0.200675  -0.015826   0.006805  -0.026057
     3  C   -0.027668   0.216984  -0.027675  -0.013380   0.040218
     4  C   -0.013406   0.217151  -0.013411  -0.027636   0.040266
     5  C    0.006853  -0.200860   0.006858  -0.015774  -0.026087
     6  C    0.009141  -0.084618   0.009134   0.011691  -0.011109
     7  C    0.000192   0.016017   0.000192  -0.000999   0.000953
     8  C    0.000311  -0.001756   0.000311  -0.001138  -0.001681
     9  C    0.000371   0.002045   0.000371  -0.000749   0.004085
    10  H   -0.000000  -0.000096  -0.000000   0.000000   0.000001
    11  H   -0.000000  -0.000240  -0.000000  -0.000000   0.000000
    12  H   -0.000000  -0.000235  -0.000000   0.000002  -0.000000
    13  H   -0.000038   0.003225  -0.000038   0.000157   0.000047
    14  C   -0.000752   0.001880  -0.000753   0.000369   0.004076
    15  C   -0.001138  -0.001778  -0.001137   0.000313  -0.001679
    16  C   -0.001014   0.015997  -0.001012   0.000190   0.000943
    17  C    0.011738  -0.084530   0.011754   0.009139  -0.011126
    18  H    0.000159   0.003210   0.000159  -0.000038   0.000047
    19  H    0.000002  -0.000237   0.000002  -0.000000  -0.000000
    20  H   -0.000000  -0.000239  -0.000000  -0.000000   0.000000
    21  H    0.000000  -0.000097   0.000000  -0.000000   0.000001
    22  C    0.410594  -0.533847  -0.025978  -0.025942   0.007692
    23  H   -0.027862   0.007670   0.000009   0.000009  -0.000146
    24  H   -0.029889  -0.025938   0.000181   0.002293   0.000009
    25  H    0.513774  -0.025955   0.002288   0.000181   0.000009
    26  C   -0.025955   6.400168   0.410616   0.410600   0.432795
    27  H    0.002288   0.410616   0.513775  -0.029889  -0.027862
    28  H    0.000181   0.410600  -0.029889   0.513792  -0.027867
    29  H    0.000009   0.432795  -0.027862  -0.027867   0.490266
 Mulliken charges:
               1
     1  C    0.377048
     2  C    0.167422
     3  C   -0.224790
     4  C   -0.225394
     5  C    0.168163
     6  C   -0.046303
     7  C   -0.160745
     8  C   -0.380468
     9  C   -0.109015
    10  H    0.179981
    11  H    0.179170
    12  H    0.177468
    13  H    0.178934
    14  C   -0.108862
    15  C   -0.380708
    16  C   -0.160650
    17  C   -0.046150
    18  H    0.178930
    19  H    0.177461
    20  H    0.179180
    21  H    0.179985
    22  C   -0.807110
    23  H    0.226976
    24  H    0.214919
    25  H    0.214932
    26  C   -0.807215
    27  H    0.214936
    28  H    0.214923
    29  H    0.226982
 Sum of Mulliken charges =  -0.00000
 Mulliken charges with hydrogens summed into heavy atoms:
               1
     1  C    0.377048
     2  C    0.167422
     3  C   -0.224790
     4  C   -0.225394
     5  C    0.168163
     6  C    0.132632
     7  C    0.016724
     8  C   -0.201298
     9  C    0.070965
    14  C    0.071123
    15  C   -0.201528
    16  C    0.016811
    17  C    0.132779
    22  C   -0.150282
    26  C   -0.150373
 APT charges:
               1
     1  C    0.118397
     2  C   -0.074991
     3  C    0.058128
     4  C    0.058154
     5  C   -0.074982
     6  C    0.008839
     7  C   -0.062091
     8  C   -0.053354
     9  C   -0.024565
    10  H    0.029672
    11  H    0.016684
    12  H    0.018055
    13  H    0.024378
    14  C   -0.024591
    15  C   -0.053315
    16  C   -0.062110
    17  C    0.008839
    18  H    0.024365
    19  H    0.018044
    20  H    0.016692
    21  H    0.029687
    22  C    0.053379
    23  H   -0.006493
    24  H   -0.023435
    25  H   -0.023408
    26  C    0.053363
    27  H   -0.023412
    28  H   -0.023443
    29  H   -0.006489
 Sum of APT charges =   0.00000
 APT charges with hydrogens summed into heavy atoms:
               1
     1  C    0.118397
     2  C   -0.074991
     3  C    0.058128
     4  C    0.058154
     5  C   -0.074982
     6  C    0.033217
     7  C   -0.044036
     8  C   -0.036669
     9  C    0.005107
    14  C    0.005096
    15  C   -0.036622
    16  C   -0.044066
    17  C    0.033204
    22  C    0.000043
    26  C    0.000019
 Electronic spatial extent (au):  <R**2>=           2926.8967
 Charge=             -0.0000 electrons
 Dipole moment (field-independent basis, Debye):
    X=              0.0001    Y=              0.5215    Z=             -0.0000  Tot=              0.5215
 Quadrupole moment (field-independent basis, Debye-Ang):
   XX=            -83.1662   YY=            -81.5068   ZZ=            -95.6409
   XY=             -0.0005   XZ=              0.0000   YZ=             -0.0004
 Traceless Quadrupole moment (field-independent basis, Debye-Ang):
   XX=              3.6051   YY=              5.2645   ZZ=             -8.8696
   XY=             -0.0005   XZ=              0.0000   YZ=             -0.0004
 Octapole moment (field-independent basis, Debye-Ang**2):
  XXX=              0.0058  YYY=            -11.2149  ZZZ=              0.0001  XYY=             -0.0011
  XXY=             -1.0658  XXZ=             -0.0019  XZZ=             -0.0014  YZZ=              5.8691
  YYZ=             -0.0002  XYZ=             -0.0004
 Hexadecapole moment (field-independent basis, Debye-Ang**3):
 XXXX=          -2320.7122 YYYY=          -1298.4892 ZZZZ=           -293.8073 XXXY=             -0.0024
 XXXZ=              0.0013 YYYX=             -0.0070 YYYZ=             -0.0021 ZZZX=             -0.0001
 ZZZY=             -0.0015 XXYY=           -595.6528 XXZZ=           -529.6817 YYZZ=           -295.6305
 XXYZ=             -0.0016 YYXZ=              0.0001 ZZXY=             -0.0020
 N-N= 9.251956863983D+02 E-N=-3.191797465662D+03  KE= 5.743516507126D+02
  Exact polarizability: 237.730  -0.001 183.765  -0.000  -0.000 103.198
 Approx polarizability: 360.741  -0.003 304.996  -0.000  -0.001 154.849
 No NMR shielding tensors so no spin-rotation constants.
 Leave Link  601 at Fri Mar 13 23:43:22 2026, MaxMem=   104857600 cpu:               0.1 elap:               0.1
 (Enter /sw/cluster/pub/apps//g16/l701.exe)
 ... and contract with generalized density number  0.
 Compute integral second derivatives.
 Leave Link  701 at Fri Mar 13 23:43:22 2026, MaxMem=   104857600 cpu:               0.2 elap:               0.2
 (Enter /sw/cluster/pub/apps//g16/l702.exe)
 L702 exits ... SP integral derivatives will be done elsewhere.
 Leave Link  702 at Fri Mar 13 23:43:23 2026, MaxMem=   104857600 cpu:               0.0 elap:               0.0
 (Enter /sw/cluster/pub/apps//g16/l703.exe)
 Integral derivatives from FoFJK, PRISM(SPDF).
 Compute integral second derivatives, UseDBF=F ICtDFT=           0.
 Calling FoFJK, ICntrl=    100127 FMM=F ISym2X=0 I1Cent= 0 IOpClX= 0 NMat=1 NMatS=1 NMatT=0.
 FoFJK:  IHMeth= 1 ICntrl=  100127 DoSepK=F KAlg= 0 I1Cent=           0 FoldK=F
 IRaf=         0 NMat=       1 IRICut=       1 DoRegI=T DoRafI=F ISym2E= 0 IDoP0=0 IntGTp=1.
 FoFCou: FMM=F IPFlag=           0 FMFlag=      100000 FMFlg1=         800
         NFxFlg=           0 DoJE=F BraDBF=F KetDBF=F FulRan=T
         wScrn=  0.000000 ICntrl=    100127 IOpCl=  0 I1Cent=           0 NGrid=           0
         NMat0=    1 NMatS0=      1 NMatT0=    0 NMatD0=    1 NMtDS0=    0 NMtDT0=    0
 Symmetry not used in FoFCou.
 Leave Link  703 at Fri Mar 13 23:52:44 2026, MaxMem=   104857600 cpu:             560.7 elap:             561.4
 (Enter /sw/cluster/pub/apps//g16/l716.exe)
 Dipole        = 4.97580187D-05 2.05191021D-01-1.67659340D-05
 Polarizability= 2.37730336D+02-5.90131865D-04 1.83765310D+02
                -2.68168351D-05-2.98829395D-04 1.03198486D+02
 Full mass-weighted force constant matrix:
 Low frequencies ---   -0.0012    0.0002    0.0007    5.6987    5.9512    6.7336
 Low frequencies ---   78.9559  118.8076  123.6984
 Diagonal vibrational polarizability:
        1.9356092       1.2446580      12.1712150
 Harmonic frequencies (cm**-1), IR intensities (KM/Mole), Raman scattering
 activities (A**4/AMU), depolarization ratios for plane and unpolarized
 incident light, reduced masses (AMU), force constants (mDyne/A),
 and normal coordinates:
                      1                      2                      3
                      A                      A                      A
 Frequencies --     78.9531               118.8071               123.6982
 Red. masses --      3.4639                 4.0647                 3.2974
 Frc consts  --      0.0127                 0.0338                 0.0297
 IR Inten    --      0.0000                 2.0084                 0.0000
  Atom  AN      X      Y      Z        X      Y      Z        X      Y      Z
     1   6    -0.00   0.00   0.00     0.00  -0.00  -0.11     0.00  -0.00  -0.00
     2   6     0.00  -0.00   0.05     0.00   0.00  -0.15    -0.00  -0.00  -0.08
     3   6     0.00  -0.00  -0.08    -0.00   0.00  -0.16    -0.00   0.00   0.01
     4   6     0.00  -0.00  -0.08    -0.00   0.00  -0.16    -0.00  -0.00  -0.01
     5   6     0.00  -0.00   0.05    -0.00   0.00  -0.15    -0.00   0.00   0.08
     6   6     0.00   0.00   0.17    -0.00   0.00  -0.00    -0.00   0.00   0.14
     7   6    -0.00   0.00   0.15    -0.00   0.00   0.17    -0.00   0.00   0.02
     8   6     0.00  -0.00  -0.02     0.00   0.00   0.16    -0.00  -0.00  -0.16
     9   6     0.00  -0.00  -0.14    -0.00   0.00  -0.02    -0.00  -0.00  -0.16
    10   1    -0.00  -0.00  -0.25    -0.00   0.00  -0.01    -0.00  -0.00  -0.29
    11   1     0.00  -0.00  -0.05    -0.00   0.00   0.31    -0.00  -0.00  -0.30
    12   1    -0.00   0.00   0.25    -0.00   0.00   0.32    -0.00   0.00   0.04
    13   1     0.00   0.00   0.29    -0.00   0.00   0.02    -0.00   0.00   0.24
    14   6    -0.00  -0.00  -0.14    -0.00   0.00  -0.02    -0.00   0.00   0.16
    15   6    -0.00  -0.00  -0.02    -0.00   0.00   0.16    -0.00   0.00   0.16
    16   6     0.00  -0.00   0.15     0.00   0.00   0.17    -0.00  -0.00  -0.02
    17   6     0.00  -0.00   0.17     0.00   0.00  -0.00    -0.00  -0.00  -0.14
    18   1     0.00   0.00   0.29     0.00   0.00   0.02    -0.00  -0.00  -0.24
    19   1     0.00   0.00   0.25     0.00   0.00   0.32    -0.00  -0.00  -0.04
    20   1    -0.00  -0.00  -0.05    -0.00   0.00   0.31    -0.00   0.00   0.30
    21   1    -0.00  -0.00  -0.25    -0.00   0.00  -0.01    -0.00   0.00   0.29
    22   6    -0.00  -0.14  -0.11     0.00   0.16   0.01    -0.16   0.00   0.00
    23   1    -0.00  -0.25  -0.03     0.00   0.29  -0.08    -0.30   0.00  -0.00
    24   1    -0.00  -0.15  -0.18     0.00   0.17   0.09    -0.15   0.01   0.13
    25   1     0.00  -0.15  -0.18    -0.00   0.17   0.09    -0.15  -0.01  -0.13
    26   6    -0.00   0.14  -0.11    -0.00  -0.16   0.01     0.16  -0.00   0.00
    27   1    -0.00   0.15  -0.18     0.00  -0.17   0.09     0.15   0.01  -0.13
    28   1     0.00   0.15  -0.18    -0.00  -0.17   0.09     0.15  -0.01   0.13
    29   1     0.00   0.25  -0.03    -0.00  -0.29  -0.08     0.30  -0.00   0.00
                      4                      5                      6
                      A                      A                      A
 Frequencies --    194.2603               204.6205               242.6357
 Red. masses --      2.7673                 4.1289                 2.2228
 Frc consts  --      0.0615                 0.1019                 0.0771
 IR Inten    --      0.0000                 0.0425                 0.0345
  Atom  AN      X      Y      Z        X      Y      Z        X      Y      Z
     1   6    -0.00  -0.00   0.00     0.00  -0.11   0.00    -0.00   0.00   0.00
     2   6    -0.00  -0.00   0.05    -0.02  -0.08  -0.00    -0.05  -0.01  -0.00
     3   6     0.00  -0.00   0.05     0.02  -0.10  -0.00    -0.04  -0.01  -0.00
     4   6    -0.00  -0.00  -0.05    -0.02  -0.10   0.00    -0.04   0.01   0.00
     5   6    -0.00  -0.00  -0.05     0.02  -0.08   0.00    -0.05   0.01   0.00
     6   6     0.00   0.00   0.09     0.06   0.07  -0.00    -0.07  -0.04   0.00
     7   6    -0.00   0.00   0.13    -0.04   0.17  -0.00    -0.04  -0.07  -0.00
     8   6    -0.00   0.00  -0.03    -0.13   0.14   0.00    -0.02  -0.06   0.00
     9   6    -0.00  -0.00  -0.12    -0.15   0.00   0.00    -0.01  -0.02   0.00
    10   1    -0.00  -0.00  -0.20    -0.28  -0.04   0.00     0.03  -0.01   0.00
    11   1    -0.00   0.00  -0.06    -0.20   0.19   0.00     0.00  -0.08   0.00
    12   1    -0.00   0.00   0.25    -0.03   0.26  -0.00    -0.05  -0.10  -0.00
    13   1     0.00   0.00   0.18     0.18   0.11  -0.00    -0.11  -0.05  -0.00
    14   6     0.00   0.00   0.12     0.15   0.00  -0.00    -0.01   0.02  -0.00
    15   6     0.00   0.00   0.03     0.13   0.14  -0.00    -0.02   0.06   0.00
    16   6     0.00   0.00  -0.13     0.04   0.17   0.00    -0.04   0.07   0.00
    17   6    -0.00   0.00  -0.09    -0.06   0.07   0.00    -0.07   0.04  -0.00
    18   1    -0.00   0.00  -0.18    -0.18   0.11   0.00    -0.11   0.05  -0.00
    19   1    -0.00   0.00  -0.25     0.03   0.26   0.00    -0.05   0.10   0.00
    20   1     0.00   0.00   0.06     0.20   0.19  -0.00     0.00   0.08   0.00
    21   1     0.00   0.00   0.20     0.28  -0.04  -0.00     0.03   0.01  -0.00
    22   6     0.19  -0.00  -0.00     0.00  -0.15  -0.03     0.18   0.00  -0.00
    23   1     0.40  -0.00  -0.00    -0.00  -0.20   0.01    -0.01   0.00   0.00
    24   1     0.16  -0.04  -0.18    -0.00  -0.15  -0.06     0.37   0.26   0.02
    25   1     0.16   0.04   0.18     0.00  -0.15  -0.06     0.37  -0.26  -0.02
    26   6    -0.19   0.00   0.00     0.00  -0.15   0.03     0.18   0.00   0.00
    27   1    -0.16  -0.04   0.18     0.00  -0.15   0.06     0.37  -0.26   0.02
    28   1    -0.16   0.04  -0.18    -0.00  -0.15   0.06     0.37   0.26  -0.02
    29   1    -0.40   0.00  -0.00    -0.00  -0.20  -0.01    -0.01   0.00  -0.00
                      7                      8                      9
                      A                      A                      A
 Frequencies --    250.3005               286.8529               321.4180
 Red. masses --      1.0562                 1.1453                 2.6165
 Frc consts  --      0.0390                 0.0555                 0.1593
 IR Inten    --      0.0000                 0.0845                 0.2136
  Atom  AN      X      Y      Z        X      Y      Z        X      Y      Z
     1   6     0.00  -0.00   0.00     0.00  -0.00  -0.00    -0.00  -0.03  -0.00
     2   6    -0.00  -0.00  -0.00    -0.01  -0.00  -0.00    -0.01  -0.06  -0.00
     3   6    -0.00  -0.00  -0.00    -0.02  -0.00  -0.00     0.01  -0.08  -0.00
     4   6    -0.00  -0.00   0.00    -0.02   0.00   0.00    -0.01  -0.08   0.00
     5   6    -0.00  -0.00   0.00    -0.01   0.00   0.00     0.01  -0.06   0.00
     6   6    -0.00  -0.00  -0.00    -0.02  -0.01   0.00     0.02  -0.03   0.00
     7   6    -0.00  -0.00  -0.01    -0.02  -0.02  -0.00    -0.03   0.01  -0.00
     8   6    -0.00  -0.00  -0.00    -0.01  -0.02  -0.00    -0.07  -0.00  -0.00
     9   6    -0.00  -0.00   0.01    -0.01  -0.01   0.00    -0.08  -0.05   0.00
    10   1    -0.00  -0.00   0.01    -0.00  -0.00   0.00    -0.12  -0.06   0.00
    11   1    -0.00  -0.00  -0.00    -0.01  -0.02  -0.00    -0.10   0.01  -0.00
    12   1    -0.00  -0.00  -0.01    -0.02  -0.02  -0.00    -0.02   0.05  -0.00
    13   1    -0.00  -0.00  -0.01    -0.03  -0.02   0.00     0.05  -0.02   0.00
    14   6     0.00   0.00  -0.01    -0.01   0.01  -0.00     0.08  -0.05  -0.00
    15   6    -0.00   0.00   0.00    -0.01   0.02   0.00     0.07  -0.00   0.00
    16   6    -0.00   0.00   0.01    -0.02   0.02   0.00     0.03   0.01   0.00
    17   6    -0.00   0.00   0.00    -0.02   0.01  -0.00    -0.02  -0.03  -0.00
    18   1    -0.00   0.00   0.01    -0.03   0.02  -0.00    -0.05  -0.02  -0.00
    19   1    -0.00   0.00   0.01    -0.02   0.02   0.00     0.02   0.05   0.00
    20   1     0.00   0.00   0.00    -0.01   0.02   0.00     0.10   0.01   0.00
    21   1     0.00  -0.00  -0.01    -0.00   0.00  -0.00     0.12  -0.06  -0.00
    22   6    -0.05  -0.00   0.00     0.07   0.00   0.00    -0.00   0.17   0.13
    23   1     0.34  -0.00  -0.00     0.48   0.00  -0.00    -0.00   0.39  -0.02
    24   1    -0.26  -0.30  -0.17    -0.11  -0.25  -0.24     0.01   0.18   0.29
    25   1    -0.26   0.30   0.17    -0.11   0.25   0.24    -0.01   0.18   0.29
    26   6     0.05   0.00   0.00     0.07   0.00  -0.00    -0.00   0.17  -0.13
    27   1     0.26  -0.30   0.17    -0.11   0.25  -0.24    -0.01   0.18  -0.29
    28   1     0.26   0.30  -0.17    -0.11  -0.25   0.24     0.01   0.18  -0.29
    29   1    -0.34   0.00  -0.00     0.48   0.00   0.00    -0.00   0.39   0.02
                     10                     11                     12
                      A                      A                      A
 Frequencies --    326.0978               354.8541               419.2929
 Red. masses --      3.5775                 3.6469                 6.1895
 Frc consts  --      0.2241                 0.2706                 0.6411
 IR Inten    --      0.0000                 0.7670                 0.2949
  Atom  AN      X      Y      Z        X      Y      Z        X      Y      Z
     1   6     0.00  -0.00  -0.00     0.00  -0.00   0.18    -0.00   0.06   0.00
     2   6    -0.00  -0.00   0.11    -0.00   0.00   0.04     0.13   0.05   0.00
     3   6    -0.00  -0.00   0.10    -0.00  -0.00  -0.12     0.06   0.07   0.00
     4   6    -0.00  -0.00  -0.10     0.00  -0.00  -0.12    -0.06   0.07   0.00
     5   6    -0.00  -0.00  -0.11     0.00  -0.00   0.04    -0.13   0.05   0.00
     6   6    -0.00  -0.00  -0.18     0.00  -0.00  -0.16    -0.23  -0.08  -0.00
     7   6    -0.00  -0.00   0.11     0.00  -0.00  -0.03    -0.27  -0.08   0.00
     8   6    -0.00  -0.00   0.10     0.00   0.00   0.15    -0.18  -0.05   0.00
     9   6    -0.00  -0.00  -0.17     0.00  -0.00  -0.09    -0.13   0.09  -0.00
    10   1    -0.00  -0.00  -0.27     0.00  -0.00  -0.13    -0.12   0.10  -0.00
    11   1    -0.00  -0.00   0.27     0.00   0.00   0.36    -0.08  -0.14   0.00
    12   1    -0.00  -0.00   0.29     0.00  -0.00  -0.03    -0.27  -0.09   0.00
    13   1    -0.00  -0.00  -0.27     0.00  -0.00  -0.28    -0.30  -0.10  -0.00
    14   6     0.00   0.00   0.17    -0.00  -0.00  -0.09     0.13   0.09  -0.00
    15   6     0.00   0.00  -0.10    -0.00   0.00   0.15     0.18  -0.05   0.00
    16   6    -0.00   0.00  -0.11    -0.00   0.00  -0.03     0.27  -0.08   0.00
    17   6    -0.00   0.00   0.18    -0.00  -0.00  -0.16     0.23  -0.08  -0.00
    18   1    -0.00   0.00   0.27    -0.00  -0.00  -0.28     0.30  -0.10  -0.00
    19   1    -0.00   0.00  -0.29    -0.00  -0.00  -0.03     0.27  -0.09   0.00
    20   1     0.00   0.00  -0.27    -0.00   0.00   0.36     0.08  -0.14   0.00
    21   1     0.00  -0.00   0.27    -0.00  -0.00  -0.13     0.12   0.10  -0.00
    22   6    -0.10   0.00  -0.00     0.00  -0.14   0.11     0.00  -0.01  -0.05
    23   1    -0.19   0.00  -0.00    -0.00  -0.27   0.20     0.00  -0.09   0.00
    24   1    -0.12  -0.02   0.10    -0.00  -0.15   0.01    -0.00  -0.01  -0.11
    25   1    -0.12   0.02  -0.10     0.00  -0.15   0.01     0.00  -0.01  -0.11
    26   6     0.10  -0.00  -0.00     0.00   0.14   0.11     0.00  -0.01   0.05
    27   1     0.12  -0.02  -0.10    -0.00   0.15   0.01     0.00  -0.01   0.11
    28   1     0.12   0.02   0.10     0.00   0.15   0.01    -0.00  -0.01   0.11
    29   1     0.19  -0.00   0.00     0.00   0.27   0.20     0.00  -0.09  -0.00
                     13                     14                     15
                      A                      A                      A
 Frequencies --    438.2355               494.4640               518.6168
 Red. masses --      3.2678                 2.9580                 5.2810
 Frc consts  --      0.3698                 0.4261                 0.8369
 IR Inten    --      5.4842                 0.0000                 0.2915
  Atom  AN      X      Y      Z        X      Y      Z        X      Y      Z
     1   6    -0.00   0.00  -0.04    -0.00   0.00   0.00     0.05  -0.00  -0.00
     2   6    -0.00  -0.00   0.03    -0.00  -0.00   0.21     0.11   0.16   0.00
     3   6    -0.00  -0.00   0.21    -0.00  -0.00   0.16    -0.02   0.17   0.00
     4   6     0.00   0.00   0.21    -0.00   0.00  -0.16    -0.02  -0.17  -0.00
     5   6     0.00   0.00   0.03    -0.00   0.00  -0.21     0.11  -0.16  -0.00
     6   6     0.00   0.00  -0.14    -0.00   0.00   0.07     0.16  -0.12   0.00
     7   6     0.00   0.00   0.14    -0.00  -0.00  -0.02     0.03   0.00   0.00
     8   6     0.00   0.00  -0.02     0.00   0.00  -0.06    -0.17  -0.06  -0.00
     9   6     0.00   0.00  -0.13     0.00   0.00   0.08    -0.16  -0.16   0.00
    10   1     0.00  -0.00  -0.40     0.00   0.00   0.45    -0.27  -0.20   0.00
    11   1     0.00   0.00  -0.10     0.00  -0.00   0.02    -0.26   0.02  -0.00
    12   1     0.00   0.00   0.26    -0.00  -0.00   0.12     0.07   0.19   0.00
    13   1     0.00  -0.00  -0.39    -0.00   0.00   0.39     0.25  -0.09   0.00
    14   6     0.00  -0.00  -0.13     0.00  -0.00  -0.08    -0.16   0.16  -0.00
    15   6    -0.00  -0.00  -0.02     0.00   0.00   0.06    -0.17   0.06   0.00
    16   6    -0.00   0.00   0.14    -0.00   0.00   0.02     0.03  -0.00   0.00
    17   6    -0.00  -0.00  -0.14    -0.00  -0.00  -0.07     0.16   0.12  -0.00
    18   1    -0.00  -0.00  -0.39    -0.00  -0.00  -0.39     0.25   0.09  -0.00
    19   1    -0.00   0.00   0.26    -0.00   0.00  -0.12     0.07  -0.19   0.00
    20   1     0.00   0.00  -0.10     0.00   0.00  -0.02    -0.26  -0.02  -0.00
    21   1     0.00  -0.00  -0.40     0.00  -0.00  -0.45    -0.27   0.20  -0.00
    22   6    -0.00   0.03  -0.02    -0.04  -0.00  -0.00     0.02   0.00   0.00
    23   1     0.00   0.07  -0.04    -0.12  -0.00   0.00     0.00   0.00  -0.00
    24   1     0.00   0.04   0.00    -0.07  -0.04   0.08     0.04   0.03   0.01
    25   1    -0.00   0.04   0.00    -0.07   0.04  -0.08     0.04  -0.03  -0.01
    26   6     0.00  -0.03  -0.02     0.04   0.00   0.00     0.02   0.00  -0.00
    27   1     0.00  -0.04   0.00     0.07  -0.04  -0.08     0.04  -0.03   0.01
    28   1    -0.00  -0.04   0.00     0.07   0.04   0.08     0.04   0.03  -0.01
    29   1    -0.00  -0.07  -0.04     0.12   0.00   0.00     0.00   0.00   0.00
                     16                     17                     18
                      A                      A                      A
 Frequencies --    556.0418               579.2442               580.9958
 Red. masses --      3.9249                 3.5383                 3.4056
 Frc consts  --      0.7150                 0.6995                 0.6773
 IR Inten    --      1.1593                 0.0000                12.4015
  Atom  AN      X      Y      Z        X      Y      Z        X      Y      Z
     1   6     0.00  -0.21   0.00    -0.00   0.00   0.00    -0.00  -0.00  -0.08
     2   6     0.09  -0.01  -0.00    -0.00   0.00  -0.06     0.00   0.00   0.17
     3   6    -0.00   0.06   0.00    -0.00   0.00   0.13    -0.00   0.00   0.02
     4   6     0.00   0.06  -0.00    -0.00  -0.00  -0.13     0.00   0.00   0.02
     5   6    -0.09  -0.01  -0.00    -0.00  -0.00   0.06    -0.00  -0.00   0.17
     6   6    -0.10   0.06  -0.00    -0.00   0.00   0.12    -0.00   0.00   0.08
     7   6    -0.05   0.02   0.00     0.00  -0.00  -0.18     0.00   0.00  -0.13
     8   6     0.08   0.05  -0.00     0.00   0.00   0.18     0.00   0.00   0.16
     9   6     0.07   0.05   0.00    -0.00  -0.00  -0.12     0.00   0.00  -0.11
    10   1     0.08   0.06   0.00    -0.00  -0.00  -0.07    -0.00  -0.00  -0.30
    11   1     0.12   0.02  -0.00    -0.00   0.00   0.44     0.00   0.00   0.23
    12   1    -0.07  -0.09   0.00     0.00  -0.00  -0.36     0.00  -0.00  -0.40
    13   1    -0.10   0.07   0.00     0.00   0.00   0.23     0.00   0.00  -0.06
    14   6    -0.07   0.05   0.00     0.00   0.00   0.12    -0.00   0.00  -0.10
    15   6    -0.08   0.05  -0.00     0.00  -0.00  -0.18    -0.00   0.00   0.16
    16   6     0.05   0.02   0.00     0.00   0.00   0.18     0.00  -0.00  -0.13
    17   6     0.10   0.06  -0.00    -0.00  -0.00  -0.12     0.00   0.00   0.08
    18   1     0.10   0.07  -0.00     0.00  -0.00  -0.23     0.00   0.00  -0.07
    19   1     0.07  -0.09   0.00     0.00   0.00   0.36     0.00  -0.00  -0.40
    20   1    -0.12   0.02  -0.00    -0.00  -0.00  -0.44    -0.00   0.00   0.23
    21   1    -0.08   0.06   0.00     0.00   0.00   0.07    -0.00   0.00  -0.30
    22   6    -0.00  -0.13   0.22     0.01  -0.00   0.00     0.00   0.09  -0.10
    23   1    -0.00   0.07   0.08     0.04  -0.00   0.00     0.00   0.20  -0.17
    24   1     0.01  -0.12   0.37     0.02   0.01  -0.03     0.00   0.10  -0.01
    25   1    -0.01  -0.12   0.37     0.02  -0.01   0.03    -0.00   0.10  -0.01
    26   6    -0.00  -0.13  -0.22    -0.01   0.00   0.00    -0.00  -0.09  -0.10
    27   1    -0.01  -0.12  -0.37    -0.02   0.01   0.03     0.00  -0.10  -0.01
    28   1     0.01  -0.12  -0.37    -0.02  -0.01  -0.03    -0.00  -0.10  -0.01
    29   1    -0.00   0.07  -0.08    -0.04   0.00   0.00    -0.00  -0.20  -0.17
                     19                     20                     21
                      A                      A                      A
 Frequencies --    605.9257               634.6776               716.4511
 Red. masses --      3.9936                 6.8168                 5.4930
 Frc consts  --      0.8639                 1.6178                 1.6612
 IR Inten    --      0.3288                 6.0370                 0.1140
  Atom  AN      X      Y      Z        X      Y      Z        X      Y      Z
     1   6     0.26  -0.00  -0.00     0.06  -0.00  -0.00     0.00   0.00   0.00
     2   6     0.08  -0.16   0.00     0.09   0.06  -0.00    -0.14   0.05   0.00
     3   6    -0.11  -0.11  -0.00     0.21  -0.05   0.00    -0.02   0.12   0.00
     4   6    -0.11   0.11   0.00     0.21   0.05  -0.00     0.02   0.12  -0.00
     5   6     0.08   0.16   0.00     0.09  -0.06   0.00     0.14   0.05  -0.00
     6   6     0.03  -0.01   0.00     0.01  -0.24   0.00     0.18  -0.18   0.00
     7   6     0.06  -0.09  -0.00    -0.24  -0.03  -0.00     0.05  -0.06   0.00
     8   6    -0.08  -0.13   0.00    -0.09   0.06   0.00    -0.12  -0.07   0.00
     9   6    -0.07   0.06  -0.00    -0.01   0.27  -0.00    -0.06   0.23  -0.00
    10   1     0.12   0.12  -0.00    -0.10   0.24  -0.00     0.08   0.28  -0.00
    11   1    -0.08  -0.13  -0.00     0.15  -0.15   0.00    -0.01  -0.16  -0.00
    12   1     0.08   0.00  -0.00    -0.21   0.11  -0.00     0.11   0.22  -0.00
    13   1    -0.16  -0.08  -0.00     0.11  -0.20   0.00     0.14  -0.19   0.00
    14   6    -0.07  -0.06   0.00    -0.01  -0.27   0.00     0.06   0.23  -0.00
    15   6    -0.08   0.13  -0.00    -0.09  -0.06  -0.00     0.12  -0.07   0.00
    16   6     0.06   0.09  -0.00    -0.24   0.03   0.00    -0.05  -0.06   0.00
    17   6     0.03   0.01  -0.00     0.01   0.24  -0.00    -0.18  -0.18   0.00
    18   1    -0.16   0.08   0.00     0.11   0.20  -0.00    -0.14  -0.19   0.00
    19   1     0.08  -0.00   0.00    -0.21  -0.11   0.00    -0.11   0.22  -0.00
    20   1    -0.08   0.13  -0.00     0.15   0.15  -0.00     0.01  -0.16   0.00
    21   1     0.12  -0.12   0.00    -0.10  -0.24   0.00    -0.08   0.28  -0.00
    22   6    -0.00   0.00   0.00     0.01  -0.00   0.00     0.00  -0.08   0.12
    23   1    -0.17  -0.00   0.00    -0.04   0.00   0.00    -0.00  -0.07   0.11
    24   1    -0.15  -0.19   0.25    -0.02  -0.04   0.06    -0.00  -0.09   0.14
    25   1    -0.15   0.19  -0.25    -0.02   0.04  -0.06     0.00  -0.09   0.14
    26   6    -0.00   0.00  -0.00     0.01  -0.00  -0.00     0.00  -0.08  -0.12
    27   1    -0.15   0.19   0.25    -0.02   0.04   0.06     0.00  -0.09  -0.14
    28   1    -0.15  -0.19  -0.25    -0.02  -0.04  -0.06    -0.00  -0.09  -0.14
    29   1    -0.17  -0.00  -0.00    -0.04  -0.00  -0.00    -0.00  -0.07  -0.11
                     22                     23                     24
                      A                      A                      A
 Frequencies --    750.3365               763.4549               775.6683
 Red. masses --      1.8626                 1.4083                 5.5721
 Frc consts  --      0.6179                 0.4836                 1.9753
 IR Inten    --     82.9326                 0.0000                 0.0011
  Atom  AN      X      Y      Z        X      Y      Z        X      Y      Z
     1   6     0.00  -0.00   0.00    -0.00   0.00   0.00    -0.00  -0.03   0.00
     2   6    -0.00   0.00  -0.09     0.00   0.00   0.10    -0.03  -0.15   0.00
     3   6    -0.00   0.00   0.11     0.00   0.00  -0.01    -0.11  -0.05  -0.00
     4   6    -0.00  -0.00   0.11    -0.00   0.00   0.01     0.11  -0.05  -0.00
     5   6     0.00   0.00  -0.09    -0.00   0.00  -0.10     0.03  -0.15   0.00
     6   6    -0.00   0.00   0.02    -0.00   0.00   0.05     0.03  -0.19  -0.00
     7   6    -0.00  -0.00  -0.10     0.00  -0.00   0.02    -0.20   0.04   0.00
     8   6     0.00   0.00   0.02    -0.00  -0.00   0.07     0.14   0.18  -0.00
     9   6    -0.00  -0.00  -0.09    -0.00  -0.00   0.03     0.11   0.12   0.00
    10   1     0.00  -0.00   0.11    -0.00  -0.00  -0.33    -0.04   0.07   0.00
    11   1    -0.00   0.00   0.42    -0.00   0.00  -0.40     0.34   0.01   0.00
    12   1    -0.00   0.00   0.32     0.00  -0.00  -0.42    -0.21  -0.00   0.00
    13   1    -0.00   0.00   0.41    -0.00   0.00  -0.15     0.28  -0.11   0.00
    14   6     0.00  -0.00  -0.09     0.00  -0.00  -0.03    -0.11   0.12   0.00
    15   6     0.00  -0.00   0.02     0.00  -0.00  -0.07    -0.14   0.18  -0.00
    16   6    -0.00  -0.00  -0.10    -0.00  -0.00  -0.03     0.20   0.04   0.00
    17   6    -0.00   0.00   0.02     0.00   0.00  -0.05    -0.03  -0.19  -0.00
    18   1     0.00   0.00   0.41     0.00   0.00   0.15    -0.28  -0.11   0.00
    19   1     0.00   0.00   0.32     0.00   0.00   0.43     0.21  -0.00   0.00
    20   1     0.00   0.00   0.42     0.00   0.00   0.40    -0.34   0.01   0.00
    21   1    -0.00   0.00   0.11    -0.00   0.00   0.33     0.04   0.07   0.00
    22   6     0.00  -0.01   0.02    -0.00   0.00  -0.00    -0.00   0.05  -0.08
    23   1    -0.00  -0.03   0.03    -0.04   0.00   0.00     0.00   0.09  -0.11
    24   1    -0.00  -0.02   0.00    -0.02  -0.03   0.04     0.00   0.06  -0.06
    25   1     0.00  -0.02   0.00    -0.02   0.03  -0.04    -0.00   0.06  -0.06
    26   6    -0.00   0.01   0.02     0.00  -0.00  -0.00    -0.00   0.05   0.08
    27   1    -0.00   0.02   0.00     0.02  -0.03  -0.04    -0.00   0.06   0.06
    28   1     0.00   0.02   0.00     0.02   0.03   0.04     0.00   0.06   0.06
    29   1     0.00   0.03   0.03     0.04  -0.00  -0.00     0.00   0.09   0.11
                     25                     26                     27
                      A                      A                      A
 Frequencies --    776.3302               803.9206               804.9704
 Red. masses --      2.0545                 2.8820                 2.6740
 Frc consts  --      0.7296                 1.0974                 1.0209
 IR Inten    --     47.5654                 0.0071                 0.0000
  Atom  AN      X      Y      Z        X      Y      Z        X      Y      Z
     1   6     0.00   0.00   0.01     0.24  -0.00  -0.00     0.00   0.00   0.00
     2   6     0.00   0.00   0.16    -0.02   0.03  -0.00    -0.00   0.00   0.13
     3   6     0.00   0.00  -0.06     0.03   0.07   0.00     0.00   0.00  -0.21
     4   6    -0.00   0.00  -0.06     0.03  -0.07  -0.00     0.00  -0.00   0.21
     5   6    -0.00   0.00   0.16    -0.02  -0.03   0.00    -0.00  -0.00  -0.13
     6   6    -0.00   0.00  -0.07    -0.09   0.03   0.00    -0.00   0.00   0.01
     7   6     0.00  -0.00   0.01    -0.13   0.02   0.00    -0.00   0.00  -0.10
     8   6    -0.00  -0.00  -0.09     0.05   0.06  -0.00     0.00   0.00   0.04
     9   6    -0.00  -0.00   0.01     0.04  -0.12   0.00     0.00  -0.00  -0.03
    10   1     0.00  -0.00   0.38    -0.10  -0.17   0.00    -0.00  -0.00  -0.28
    11   1    -0.00  -0.00   0.36     0.05   0.05  -0.00     0.00   0.00   0.17
    12   1     0.00   0.00   0.41    -0.16  -0.11  -0.00    -0.00  -0.00   0.32
    13   1    -0.00   0.00   0.02    -0.06   0.04  -0.00    -0.00   0.00   0.45
    14   6     0.00  -0.00   0.01     0.04   0.12  -0.00     0.00   0.00   0.03
    15   6     0.00  -0.00  -0.09     0.05  -0.06   0.00     0.00  -0.00  -0.04
    16   6    -0.00  -0.00   0.01    -0.13  -0.02  -0.00    -0.00  -0.00   0.10
    17   6     0.00   0.00  -0.07    -0.09  -0.03   0.00    -0.00  -0.00  -0.01
    18   1     0.00   0.00   0.02    -0.06  -0.04   0.00    -0.00  -0.00  -0.45
    19   1    -0.00   0.00   0.41    -0.16   0.11   0.00    -0.00   0.00  -0.32
    20   1     0.00  -0.00   0.36     0.05  -0.05   0.00     0.00  -0.00  -0.18
    21   1    -0.00  -0.00   0.38    -0.10   0.17  -0.00    -0.00   0.00   0.28
    22   6    -0.00   0.04  -0.05     0.06   0.00  -0.00     0.00  -0.00   0.00
    23   1     0.00   0.09  -0.08    -0.15   0.00   0.00    -0.05  -0.00   0.00
    24   1     0.00   0.04  -0.00    -0.12  -0.23   0.29    -0.03  -0.04   0.06
    25   1    -0.00   0.04  -0.00    -0.11   0.23  -0.29    -0.03   0.04  -0.06
    26   6     0.00  -0.04  -0.05     0.06   0.00   0.00    -0.00   0.00   0.00
    27   1     0.00  -0.04  -0.00    -0.11   0.23   0.29     0.03  -0.04  -0.06
    28   1    -0.00  -0.04  -0.00    -0.12  -0.23  -0.29     0.03   0.04   0.06
    29   1    -0.00  -0.09  -0.08    -0.15   0.00  -0.00     0.05   0.00   0.00
                     28                     29                     30
                      A                      A                      A
 Frequencies --    882.4330               890.4726               945.2843
 Red. masses --      1.3486                 1.6066                 2.5644
 Frc consts  --      0.6187                 0.7506                 1.3501
 IR Inten    --      0.0405                 0.0000                 1.7691
  Atom  AN      X      Y      Z        X      Y      Z        X      Y      Z
     1   6    -0.00  -0.00  -0.01     0.00  -0.00   0.00     0.00   0.23   0.00
     2   6    -0.00  -0.00  -0.03    -0.00  -0.00  -0.06    -0.03   0.04   0.00
     3   6    -0.00   0.00   0.02    -0.00   0.00   0.09    -0.01  -0.03   0.00
     4   6    -0.00   0.00   0.02    -0.00  -0.00  -0.09     0.01  -0.03   0.00
     5   6     0.00  -0.00  -0.03    -0.00  -0.00   0.06     0.03   0.04   0.00
     6   6    -0.00  -0.00   0.07     0.00  -0.00  -0.08     0.01  -0.04  -0.00
     7   6     0.00   0.00   0.04     0.00  -0.00  -0.03    -0.06   0.01   0.00
     8   6     0.00  -0.00  -0.03    -0.00   0.00   0.04     0.02   0.04   0.00
     9   6    -0.00   0.00  -0.08     0.00   0.00   0.09     0.02  -0.08  -0.00
    10   1     0.00   0.00   0.44    -0.00  -0.00  -0.41    -0.07  -0.11   0.00
    11   1    -0.00  -0.00   0.23     0.00  -0.00  -0.28     0.00   0.06  -0.00
    12   1     0.00  -0.00  -0.29    -0.00   0.00   0.24    -0.07  -0.01  -0.00
    13   1     0.00  -0.00  -0.39    -0.00   0.00   0.40     0.03  -0.03   0.00
    14   6     0.00   0.00  -0.08     0.00  -0.00  -0.09    -0.02  -0.08  -0.00
    15   6     0.00  -0.00  -0.03    -0.00  -0.00  -0.04    -0.02   0.04   0.00
    16   6    -0.00   0.00   0.04    -0.00   0.00   0.03     0.06   0.01   0.00
    17   6     0.00   0.00   0.07     0.00   0.00   0.08    -0.01  -0.04  -0.00
    18   1    -0.00  -0.00  -0.39    -0.00  -0.00  -0.40    -0.03  -0.03   0.00
    19   1    -0.00  -0.00  -0.29    -0.00  -0.00  -0.24     0.07  -0.01  -0.00
    20   1     0.00   0.00   0.23    -0.00   0.00   0.28    -0.00   0.06  -0.00
    21   1    -0.00   0.00   0.44    -0.00   0.00   0.41     0.07  -0.11   0.00
    22   6    -0.00  -0.01   0.01    -0.01   0.00  -0.00     0.00  -0.01   0.16
    23   1     0.00  -0.02   0.02     0.03   0.00  -0.00    -0.00  -0.41   0.43
    24   1     0.00  -0.01   0.01     0.02   0.03  -0.04    -0.02  -0.05  -0.14
    25   1    -0.00  -0.01   0.01     0.02  -0.03   0.04     0.02  -0.05  -0.14
    26   6    -0.00   0.01   0.01     0.01  -0.00  -0.00     0.00  -0.01  -0.16
    27   1     0.00   0.01   0.01    -0.02   0.03   0.04     0.02  -0.05   0.14
    28   1    -0.00   0.01   0.01    -0.02  -0.03  -0.04    -0.02  -0.05   0.14
    29   1     0.00   0.02   0.02    -0.03   0.00  -0.00    -0.00  -0.41  -0.43
                     31                     32                     33
                      A                      A                      A
 Frequencies --    947.8998               951.1960               956.7513
 Red. masses --      1.4343                 1.4080                 1.4504
 Frc consts  --      0.7593                 0.7506                 0.7822
 IR Inten    --      1.2266                 0.0000                 0.5452
  Atom  AN      X      Y      Z        X      Y      Z        X      Y      Z
     1   6     0.00  -0.00   0.05     0.00   0.00   0.00     0.00  -0.00   0.10
     2   6     0.00  -0.00   0.02    -0.00   0.00  -0.02     0.00  -0.00  -0.02
     3   6     0.00   0.00   0.01    -0.00  -0.00  -0.04     0.00   0.00   0.00
     4   6    -0.00   0.00   0.01     0.00  -0.00   0.04    -0.00   0.00   0.00
     5   6    -0.00  -0.00   0.02     0.00   0.00   0.02    -0.00  -0.00  -0.02
     6   6    -0.00   0.00  -0.08     0.00  -0.00  -0.08    -0.00   0.00   0.03
     7   6     0.00  -0.00   0.05    -0.00   0.00   0.05     0.00  -0.00  -0.01
     8   6    -0.00  -0.00   0.05     0.00   0.00   0.05    -0.00  -0.00  -0.02
     9   6    -0.00   0.00  -0.07     0.00  -0.00  -0.08    -0.00   0.00   0.02
    10   1     0.00   0.00   0.35    -0.00  -0.00   0.39     0.00   0.00  -0.13
    11   1    -0.00  -0.00  -0.26     0.00   0.00  -0.28    -0.00  -0.00   0.11
    12   1     0.00   0.00  -0.27    -0.00  -0.00  -0.27     0.00   0.00   0.07
    13   1    -0.00   0.00   0.41    -0.00   0.00   0.43    -0.00   0.00  -0.16
    14   6     0.00   0.00  -0.07    -0.00  -0.00   0.08     0.00   0.00   0.02
    15   6     0.00  -0.00   0.05    -0.00   0.00  -0.05     0.00  -0.00  -0.02
    16   6    -0.00  -0.00   0.05     0.00  -0.00  -0.05    -0.00  -0.00  -0.01
    17   6     0.00   0.00  -0.08     0.00  -0.00   0.08     0.00   0.00   0.03
    18   1     0.00   0.00   0.41    -0.00  -0.00  -0.43     0.00   0.00  -0.16
    19   1    -0.00   0.00  -0.27     0.00   0.00   0.27    -0.00   0.00   0.07
    20   1     0.00  -0.00  -0.26    -0.00   0.00   0.28    -0.00  -0.00   0.11
    21   1    -0.00   0.00   0.36     0.00  -0.00  -0.39    -0.00   0.00  -0.13
    22   6     0.00   0.05  -0.02    -0.00   0.00   0.00     0.00   0.11  -0.01
    23   1     0.00  -0.09   0.07     0.01  -0.00   0.00     0.00  -0.31   0.27
    24   1    -0.01   0.02  -0.12     0.01   0.01  -0.02    -0.03   0.05  -0.35
    25   1     0.01   0.02  -0.12     0.01  -0.01   0.02     0.03   0.05  -0.35
    26   6    -0.00  -0.05  -0.02     0.00  -0.00  -0.00    -0.00  -0.11  -0.01
    27   1    -0.01  -0.02  -0.12    -0.01   0.01   0.02    -0.03  -0.05  -0.35
    28   1     0.01  -0.02  -0.12    -0.01  -0.01  -0.02     0.03  -0.05  -0.35
    29   1    -0.00   0.09   0.07    -0.01   0.00   0.00    -0.00   0.31   0.27
                     34                     35                     36
                      A                      A                      A
 Frequencies --    987.7483               989.5405              1023.2997
 Red. masses --      1.2919                 1.2780                 7.1298
 Frc consts  --      0.7426                 0.7373                 4.3988
 IR Inten    --      0.0000                 0.0000                 2.9256
  Atom  AN      X      Y      Z        X      Y      Z        X      Y      Z
     1   6    -0.00  -0.00  -0.00    -0.00  -0.00  -0.00    -0.01   0.00  -0.00
     2   6     0.00  -0.00   0.00     0.00   0.00  -0.00    -0.01   0.03  -0.00
     3   6    -0.00  -0.00  -0.00     0.00   0.00   0.01     0.29   0.06  -0.00
     4   6    -0.00   0.00   0.00     0.00   0.00   0.01     0.29  -0.06  -0.00
     5   6     0.00   0.00  -0.00     0.00   0.00  -0.00    -0.01  -0.03   0.00
     6   6     0.00  -0.00  -0.04     0.00   0.00  -0.04    -0.08   0.29  -0.00
     7   6    -0.00   0.00   0.07    -0.00   0.00   0.07    -0.00   0.01   0.00
     8   6     0.00   0.00  -0.07    -0.00  -0.00  -0.07    -0.20  -0.24  -0.00
     9   6     0.00  -0.00   0.04    -0.00   0.00   0.04     0.02   0.03   0.00
    10   1    -0.00  -0.00  -0.25    -0.00  -0.00  -0.27     0.08   0.04  -0.00
    11   1    -0.00  -0.00   0.44    -0.00  -0.00   0.43    -0.17  -0.29   0.00
    12   1     0.00  -0.00  -0.41     0.00  -0.00  -0.41    -0.01   0.05  -0.00
    13   1    -0.00   0.00   0.26    -0.00   0.00   0.25    -0.04   0.31   0.00
    14   6     0.00   0.00  -0.04     0.00   0.00   0.04     0.02  -0.03  -0.00
    15   6     0.00  -0.00   0.07    -0.00  -0.00  -0.07    -0.20   0.24  -0.00
    16   6    -0.00  -0.00  -0.07     0.00   0.00   0.07     0.00  -0.01  -0.00
    17   6     0.00   0.00   0.04    -0.00  -0.00  -0.04    -0.08  -0.29   0.00
    18   1    -0.00  -0.00  -0.26     0.00   0.00   0.25    -0.04  -0.31  -0.00
    19   1     0.00   0.00   0.41    -0.00  -0.00  -0.41    -0.01  -0.05   0.00
    20   1     0.00  -0.00  -0.43     0.00   0.00   0.44    -0.17   0.29  -0.00
    21   1     0.00   0.00   0.25    -0.00  -0.00  -0.27     0.07  -0.04   0.00
    22   6     0.00  -0.00   0.00     0.00  -0.00  -0.00     0.01  -0.00   0.00
    23   1    -0.00   0.00  -0.00    -0.00   0.01  -0.01    -0.01  -0.00   0.00
    24   1    -0.00  -0.01   0.01    -0.00  -0.00   0.01    -0.01  -0.02   0.01
    25   1    -0.00   0.01  -0.01     0.00  -0.00   0.01    -0.01   0.02  -0.01
    26   6    -0.00   0.00   0.00    -0.00   0.00  -0.00     0.01   0.00  -0.00
    27   1     0.00  -0.01  -0.01    -0.00   0.00   0.01    -0.01   0.02   0.01
    28   1     0.00   0.01   0.01     0.00   0.00   0.01    -0.01  -0.02  -0.01
    29   1     0.00  -0.00  -0.00     0.00  -0.01  -0.01    -0.01  -0.00  -0.00
                     37                     38                     39
                      A                      A                      A
 Frequencies --   1040.2217              1051.1714              1051.2158
 Red. masses --      1.3072                 2.3241                 2.3496
 Frc consts  --      0.8334                 1.5131                 1.5298
 IR Inten    --      0.0000                 1.3267                10.6354
  Atom  AN      X      Y      Z        X      Y      Z        X      Y      Z
     1   6    -0.00   0.00   0.00    -0.00  -0.01  -0.00    -0.01   0.00   0.00
     2   6     0.00   0.00   0.04    -0.03   0.01  -0.00    -0.05   0.04   0.00
     3   6    -0.00  -0.00  -0.01    -0.00   0.03  -0.00     0.07   0.04  -0.00
     4   6    -0.00   0.00   0.01     0.01   0.02  -0.00     0.07  -0.04   0.00
     5   6     0.00   0.00  -0.04     0.02   0.00   0.00    -0.05  -0.04  -0.00
     6   6     0.00   0.00   0.01     0.05   0.07  -0.00    -0.07  -0.02   0.00
     7   6    -0.00   0.00   0.00    -0.12   0.06  -0.00     0.16  -0.07   0.00
     8   6    -0.00  -0.00  -0.00    -0.06  -0.11   0.00     0.02   0.07  -0.00
     9   6     0.00  -0.00   0.00     0.08  -0.05  -0.00    -0.09   0.08  -0.00
    10   1     0.00  -0.00  -0.02     0.35   0.03  -0.00    -0.45  -0.03   0.00
    11   1     0.00  -0.00   0.02     0.04  -0.21   0.00    -0.08   0.17   0.00
    12   1    -0.00   0.00  -0.02    -0.10   0.20  -0.00     0.14  -0.21   0.00
    13   1     0.00   0.00  -0.02     0.34   0.18   0.00    -0.37  -0.13  -0.00
    14   6     0.00   0.00  -0.00    -0.09  -0.06   0.00    -0.08  -0.07   0.00
    15   6     0.00   0.00   0.00     0.06  -0.12   0.00     0.01  -0.05   0.00
    16   6    -0.00  -0.00  -0.00     0.15   0.07  -0.00     0.14   0.06  -0.00
    17   6     0.00  -0.00  -0.01    -0.06   0.08  -0.00    -0.06   0.01   0.00
    18   1     0.00  -0.00   0.02    -0.39   0.20  -0.00    -0.31   0.10  -0.00
    19   1    -0.00  -0.00   0.02     0.13   0.23  -0.00     0.13   0.18   0.00
    20   1     0.00   0.00  -0.02    -0.05  -0.24   0.00    -0.07  -0.13  -0.00
    21   1     0.00  -0.00   0.02    -0.42   0.04  -0.00    -0.39   0.02   0.00
    22   6    -0.11   0.00   0.00     0.00  -0.01  -0.01     0.04   0.00   0.00
    23   1     0.20   0.00  -0.00    -0.00   0.03  -0.03    -0.06  -0.00   0.00
    24   1     0.12   0.30  -0.34     0.00  -0.00   0.03    -0.04  -0.09   0.10
    25   1     0.12  -0.30   0.34    -0.01   0.01   0.01    -0.03   0.09  -0.11
    26   6     0.11  -0.00   0.00     0.00  -0.01   0.01     0.04   0.00  -0.00
    27   1    -0.12   0.30   0.34    -0.01   0.01  -0.01    -0.03   0.09   0.11
    28   1    -0.12  -0.30  -0.34     0.00  -0.00  -0.03    -0.04  -0.09  -0.10
    29   1    -0.20  -0.00  -0.00    -0.00   0.03   0.03    -0.06  -0.00  -0.00
                     40                     41                     42
                      A                      A                      A
 Frequencies --   1100.9610              1113.7921              1139.8428
 Red. masses --      2.4126                 2.0219                 1.5348
 Frc consts  --      1.7230                 1.4778                 1.1749
 IR Inten    --      5.6848                 1.5845                 0.6022
  Atom  AN      X      Y      Z        X      Y      Z        X      Y      Z
     1   6     0.00  -0.01   0.00     0.06   0.00  -0.00    -0.07   0.00   0.00
     2   6     0.04  -0.11  -0.00     0.09  -0.13  -0.00    -0.04  -0.03  -0.00
     3   6    -0.03  -0.07   0.00     0.07  -0.00   0.00     0.04  -0.02   0.00
     4   6     0.03  -0.07   0.00     0.07   0.00  -0.00     0.04   0.02  -0.00
     5   6    -0.04  -0.11  -0.00     0.09   0.13   0.00    -0.04   0.03  -0.00
     6   6    -0.01   0.11   0.00    -0.03  -0.01  -0.00    -0.02  -0.07   0.00
     7   6     0.04  -0.04   0.00    -0.03  -0.01  -0.00     0.02   0.04   0.00
     8   6    -0.00  -0.06  -0.00    -0.01   0.03   0.00    -0.05   0.01   0.00
     9   6    -0.04   0.13  -0.00    -0.00  -0.08  -0.00     0.07  -0.04   0.00
    10   1    -0.05   0.13  -0.00    -0.25  -0.16   0.00     0.28   0.02  -0.00
    11   1     0.20  -0.23   0.00    -0.09   0.10  -0.00    -0.30   0.23  -0.00
    12   1    -0.01  -0.25   0.00    -0.04  -0.02   0.00     0.09   0.37  -0.00
    13   1     0.21   0.19  -0.00    -0.36  -0.12   0.00    -0.23  -0.14  -0.00
    14   6     0.04   0.13  -0.00    -0.00   0.08  -0.00     0.07   0.04  -0.00
    15   6     0.00  -0.06   0.00    -0.01  -0.03   0.00    -0.05  -0.01   0.00
    16   6    -0.04  -0.04   0.00    -0.03   0.01   0.00     0.02  -0.04   0.00
    17   6     0.01   0.11  -0.00    -0.03   0.01  -0.00    -0.02   0.07  -0.00
    18   1    -0.21   0.19  -0.00    -0.36   0.12   0.00    -0.23   0.14  -0.00
    19   1     0.01  -0.25  -0.00    -0.04   0.02  -0.00     0.09  -0.37   0.00
    20   1    -0.20  -0.23   0.00    -0.09  -0.10   0.00    -0.30  -0.23   0.00
    21   1     0.05   0.13  -0.00    -0.25   0.16  -0.00     0.28  -0.02  -0.00
    22   6    -0.00   0.06   0.05    -0.08  -0.00  -0.00     0.04  -0.00  -0.00
    23   1     0.00  -0.21   0.22     0.14   0.00  -0.00    -0.07   0.00  -0.00
    24   1    -0.02   0.02  -0.21     0.08   0.20  -0.21    -0.04  -0.09   0.09
    25   1     0.02   0.02  -0.21     0.08  -0.20   0.21    -0.04   0.09  -0.09
    26   6    -0.00   0.06  -0.05    -0.08  -0.00   0.00     0.04  -0.00   0.00
    27   1     0.02   0.02   0.21     0.08  -0.20  -0.21    -0.04   0.09   0.09
    28   1    -0.02   0.02   0.21     0.08   0.20   0.21    -0.04  -0.09  -0.09
    29   1     0.00  -0.21  -0.22     0.14   0.00   0.00    -0.07   0.00  -0.00
                     43                     44                     45
                      A                      A                      A
 Frequencies --   1155.4528              1163.6492              1190.1730
 Red. masses --      1.7392                 3.7693                 1.1246
 Frc consts  --      1.3680                 3.0071                 0.9386
 IR Inten    --      0.2723                 1.7055                 1.9479
  Atom  AN      X      Y      Z        X      Y      Z        X      Y      Z
     1   6     0.00   0.06  -0.00     0.00   0.00   0.43    -0.02  -0.00  -0.00
     2   6    -0.08   0.08   0.00     0.00  -0.00  -0.08    -0.01  -0.00  -0.00
     3   6    -0.02  -0.04  -0.00     0.00   0.00   0.01    -0.01   0.00  -0.00
     4   6     0.02  -0.04  -0.00    -0.00   0.00   0.01    -0.01  -0.00   0.00
     5   6     0.08   0.08   0.00     0.00   0.00  -0.08    -0.01   0.00   0.00
     6   6     0.03   0.06  -0.00     0.00   0.00   0.01    -0.01  -0.01  -0.00
     7   6    -0.05  -0.04  -0.00    -0.00  -0.00   0.00     0.01   0.05  -0.00
     8   6     0.03  -0.00  -0.00     0.00   0.00  -0.00     0.04  -0.03   0.00
     9   6    -0.05  -0.00  -0.00    -0.00  -0.00   0.01    -0.02  -0.01  -0.00
    10   1    -0.37  -0.11   0.00    -0.00  -0.00  -0.02    -0.21  -0.07   0.00
    11   1     0.27  -0.21  -0.00     0.00  -0.00   0.00     0.35  -0.31   0.00
    12   1    -0.10  -0.29   0.00    -0.00  -0.00   0.00     0.09   0.45  -0.00
    13   1     0.05   0.08   0.00     0.00   0.00  -0.08    -0.18  -0.06   0.00
    14   6     0.05  -0.00  -0.00    -0.00   0.00   0.01    -0.02   0.01   0.00
    15   6    -0.03  -0.00   0.00     0.00   0.00  -0.00     0.03   0.03  -0.00
    16   6     0.05  -0.04   0.00    -0.00  -0.00   0.00     0.01  -0.05   0.00
    17   6    -0.03   0.06  -0.00    -0.00   0.00   0.01    -0.01   0.01   0.00
    18   1    -0.05   0.08   0.00    -0.00   0.00  -0.08    -0.17   0.06  -0.00
    19   1     0.10  -0.29   0.00     0.00  -0.00   0.00     0.08  -0.43   0.00
    20   1    -0.27  -0.21   0.00     0.00   0.00   0.00     0.34   0.30  -0.00
    21   1     0.37  -0.11   0.00    -0.00   0.00  -0.02    -0.20   0.07  -0.00
    22   6    -0.00  -0.05  -0.02    -0.00  -0.00  -0.16     0.01   0.00   0.00
    23   1     0.00   0.14  -0.15    -0.00   0.37  -0.40    -0.02  -0.00   0.00
    24   1     0.02  -0.01   0.17     0.06   0.10   0.15    -0.01  -0.02   0.02
    25   1    -0.02  -0.01   0.17    -0.06   0.10   0.15    -0.01   0.02  -0.02
    26   6    -0.00  -0.05   0.02    -0.00   0.00  -0.16     0.01   0.00  -0.00
    27   1    -0.02  -0.01  -0.17     0.06  -0.10   0.15    -0.01   0.02   0.02
    28   1     0.02  -0.01  -0.17    -0.06  -0.10   0.15    -0.01  -0.02  -0.02
    29   1     0.00   0.14   0.15     0.00  -0.36  -0.40    -0.02  -0.00  -0.00
                     46                     47                     48
                      A                      A                      A
 Frequencies --   1190.4662              1234.8150              1249.6361
 Red. masses --      1.1170                 2.4271                 2.3244
 Frc consts  --      0.9327                 2.1805                 2.1386
 IR Inten    --      0.0281                 0.2553                 5.9614
  Atom  AN      X      Y      Z        X      Y      Z        X      Y      Z
     1   6     0.00  -0.02   0.00     0.22  -0.00   0.00    -0.00  -0.10   0.00
     2   6     0.00  -0.00  -0.00    -0.01   0.15  -0.00     0.04   0.00  -0.00
     3   6    -0.01  -0.01   0.00    -0.03   0.02  -0.00     0.11   0.15  -0.00
     4   6     0.01  -0.01   0.00    -0.03  -0.02   0.00    -0.11   0.15   0.00
     5   6    -0.00  -0.00  -0.00    -0.01  -0.15  -0.00    -0.04   0.00  -0.00
     6   6    -0.02  -0.00  -0.00    -0.08  -0.00  -0.00     0.02  -0.06   0.00
     7   6     0.01   0.04  -0.00     0.04   0.05  -0.00     0.01   0.02  -0.00
     8   6     0.02  -0.03   0.00     0.01  -0.01  -0.00     0.07  -0.02   0.00
     9   6    -0.01  -0.00  -0.00    -0.01   0.04   0.00    -0.07  -0.06   0.00
    10   1    -0.18  -0.06   0.00     0.39   0.18  -0.00    -0.31  -0.14   0.00
    11   1     0.29  -0.27   0.00    -0.03   0.04   0.00     0.13  -0.07  -0.00
    12   1     0.09   0.45  -0.00     0.05   0.13  -0.00    -0.00  -0.05   0.00
    13   1    -0.25  -0.08  -0.00    -0.27  -0.07  -0.00     0.51   0.11   0.00
    14   6     0.01  -0.00   0.00    -0.01  -0.04   0.00     0.07  -0.06   0.00
    15   6    -0.02  -0.03   0.00     0.01   0.01  -0.00    -0.07  -0.02   0.00
    16   6    -0.01   0.05  -0.00     0.04  -0.05   0.00    -0.01   0.02  -0.00
    17   6     0.02  -0.00  -0.00    -0.08   0.00   0.00    -0.02  -0.06   0.00
    18   1     0.25  -0.08  -0.00    -0.27   0.07  -0.00    -0.51   0.11  -0.00
    19   1    -0.09   0.46  -0.00     0.05  -0.13   0.00     0.00  -0.05   0.00
    20   1    -0.31  -0.28   0.00    -0.03  -0.04   0.00    -0.13  -0.07   0.00
    21   1     0.18  -0.06   0.00     0.39  -0.18   0.00     0.31  -0.14   0.00
    22   6    -0.00   0.01   0.00    -0.07   0.00   0.00     0.00   0.03   0.01
    23   1     0.00  -0.03   0.03     0.18  -0.00   0.00    -0.00  -0.05   0.06
    24   1    -0.01  -0.00  -0.03     0.08   0.18  -0.14    -0.01   0.01  -0.11
    25   1     0.01  -0.00  -0.03     0.08  -0.18   0.14     0.01   0.01  -0.11
    26   6    -0.00   0.01  -0.00    -0.07   0.00  -0.00     0.00   0.03  -0.01
    27   1     0.01  -0.00   0.03     0.08  -0.18  -0.14     0.01   0.01   0.11
    28   1    -0.01  -0.00   0.03     0.08   0.18   0.14    -0.01   0.01   0.11
    29   1     0.00  -0.03  -0.03     0.18  -0.00  -0.00    -0.00  -0.05  -0.06
                     49                     50                     51
                      A                      A                      A
 Frequencies --   1278.0950              1328.2636              1329.7535
 Red. masses --      3.1108                 1.6270                 1.9274
 Frc consts  --      2.9940                 1.6912                 2.0080
 IR Inten    --      1.3251                 3.5626                 0.0035
  Atom  AN      X      Y      Z        X      Y      Z        X      Y      Z
     1   6     0.00   0.31  -0.00     0.12   0.00   0.00    -0.00   0.05  -0.00
     2   6     0.12  -0.10   0.00    -0.10  -0.01   0.00    -0.06  -0.04   0.00
     3   6    -0.00   0.01  -0.00     0.03  -0.06   0.00     0.14  -0.02   0.00
     4   6     0.00   0.01  -0.00     0.02   0.06  -0.00    -0.14  -0.02   0.00
     5   6    -0.12  -0.10   0.00    -0.10   0.01  -0.00     0.06  -0.04   0.00
     6   6    -0.05  -0.03  -0.00    -0.04  -0.04  -0.00    -0.00  -0.01   0.00
     7   6     0.06   0.02   0.00     0.03  -0.02   0.00    -0.00   0.06  -0.00
     8   6     0.01  -0.03   0.00     0.01  -0.03   0.00     0.05   0.02  -0.00
     9   6    -0.01   0.02  -0.00     0.03  -0.00  -0.00    -0.09  -0.01   0.00
    10   1    -0.04   0.02   0.00    -0.32  -0.12   0.00     0.50   0.19  -0.00
    11   1     0.02  -0.02   0.00    -0.16   0.12  -0.00     0.26  -0.15  -0.00
    12   1     0.11   0.21  -0.00     0.08   0.25  -0.00    -0.05  -0.18   0.00
    13   1     0.34   0.10   0.00     0.45   0.13   0.00    -0.19  -0.08  -0.00
    14   6     0.01   0.02  -0.00     0.03   0.00  -0.00     0.09  -0.01  -0.00
    15   6    -0.01  -0.03   0.00     0.01   0.03  -0.00    -0.05   0.02  -0.00
    16   6    -0.06   0.02  -0.00     0.03   0.02  -0.00     0.00   0.06  -0.00
    17   6     0.05  -0.03  -0.00    -0.04   0.04  -0.00     0.00  -0.01   0.00
    18   1    -0.34   0.10   0.00     0.45  -0.13   0.00     0.19  -0.08   0.00
    19   1    -0.11   0.21  -0.00     0.08  -0.25   0.00     0.05  -0.18   0.00
    20   1    -0.02  -0.02   0.00    -0.16  -0.12   0.00    -0.26  -0.15   0.00
    21   1     0.04   0.02   0.00    -0.32   0.12  -0.00    -0.50   0.19  -0.00
    22   6    -0.00  -0.11  -0.01    -0.03  -0.00  -0.00     0.00  -0.01  -0.00
    23   1     0.00   0.21  -0.21     0.09   0.00  -0.00    -0.00   0.00  -0.01
    24   1     0.11   0.06   0.23     0.03   0.07  -0.04     0.01   0.00   0.04
    25   1    -0.11   0.06   0.23     0.03  -0.07   0.04    -0.01   0.00   0.04
    26   6    -0.00  -0.11   0.01    -0.03  -0.00   0.00     0.00  -0.01   0.00
    27   1    -0.11   0.06  -0.23     0.03  -0.07  -0.04    -0.01   0.00  -0.04
    28   1     0.11   0.06  -0.23     0.03   0.07   0.04     0.01   0.00  -0.04
    29   1     0.00   0.21   0.21     0.09   0.00   0.00    -0.00   0.00   0.01
                     52                     53                     54
                      A                      A                      A
 Frequencies --   1351.3042              1390.9299              1416.5765
 Red. masses --      6.6074                 4.9005                 1.2003
 Frc consts  --      7.1086                 5.5860                 1.4191
 IR Inten    --     11.8314                 1.0425                 5.5359
  Atom  AN      X      Y      Z        X      Y      Z        X      Y      Z
     1   6    -0.12  -0.00  -0.00    -0.00  -0.03   0.00     0.00   0.00  -0.00
     2   6     0.18   0.09  -0.00     0.18   0.14  -0.00    -0.00  -0.00   0.00
     3   6     0.06  -0.24   0.00     0.16  -0.15   0.00    -0.00  -0.00  -0.00
     4   6     0.06   0.24  -0.00    -0.16  -0.15   0.00     0.00  -0.00  -0.00
     5   6     0.18  -0.09   0.00    -0.18   0.14  -0.00     0.00  -0.00   0.00
     6   6    -0.17  -0.06  -0.00     0.12   0.00   0.00    -0.00  -0.00  -0.00
     7   6     0.01   0.19  -0.00     0.00  -0.17   0.00     0.00   0.00  -0.00
     8   6     0.14  -0.15   0.00    -0.07   0.15  -0.00     0.00  -0.00   0.00
     9   6    -0.16  -0.08   0.00     0.07   0.02  -0.00    -0.00   0.00  -0.00
    10   1    -0.03  -0.03  -0.00     0.17   0.05   0.00     0.00   0.00   0.00
    11   1    -0.25   0.20  -0.00     0.33  -0.19   0.00    -0.00   0.00   0.00
    12   1    -0.08  -0.27   0.00     0.10   0.30  -0.00     0.00   0.00  -0.00
    13   1     0.16   0.06   0.00     0.20   0.03  -0.00     0.00   0.00   0.01
    14   6    -0.16   0.08  -0.00    -0.07   0.02  -0.00     0.00   0.00  -0.00
    15   6     0.14   0.15  -0.00     0.07   0.15  -0.00    -0.00  -0.00   0.00
    16   6     0.01  -0.19   0.00    -0.00  -0.17   0.00    -0.00   0.00  -0.00
    17   6    -0.17   0.06   0.00    -0.12   0.00   0.00     0.00  -0.00  -0.00
    18   1     0.16  -0.06  -0.00    -0.20   0.03  -0.00    -0.00   0.00   0.01
    19   1    -0.08   0.27  -0.00    -0.10   0.30  -0.00    -0.00   0.00  -0.00
    20   1    -0.25  -0.20   0.00    -0.33  -0.19   0.00     0.00   0.00   0.00
    21   1    -0.03   0.03  -0.00    -0.17   0.05   0.00    -0.00   0.00   0.00
    22   6     0.04   0.00   0.00     0.00  -0.00   0.01    -0.00  -0.05   0.08
    23   1    -0.12  -0.00   0.00     0.00   0.04  -0.02     0.00   0.35  -0.21
    24   1    -0.03  -0.09   0.04     0.01   0.01  -0.04     0.13   0.14  -0.35
    25   1    -0.03   0.08  -0.04    -0.01   0.01  -0.04    -0.13   0.14  -0.35
    26   6     0.04   0.00   0.00     0.00  -0.00  -0.01     0.00   0.05   0.08
    27   1    -0.03   0.08   0.04    -0.01   0.01   0.04     0.13  -0.14  -0.35
    28   1    -0.03  -0.09  -0.04     0.01   0.01   0.04    -0.13  -0.14  -0.35
    29   1    -0.12  -0.00  -0.00     0.00   0.04   0.02    -0.00  -0.35  -0.21
                     55                     56                     57
                      A                      A                      A
 Frequencies --   1439.0074              1485.8979              1488.3678
 Red. masses --      1.2096                 2.3298                 2.1802
 Frc consts  --      1.4757                 3.0307                 2.8455
 IR Inten    --      1.2976                 9.4999                21.1328
  Atom  AN      X      Y      Z        X      Y      Z        X      Y      Z
     1   6    -0.00  -0.00  -0.00    -0.00  -0.03   0.00     0.03   0.00   0.00
     2   6    -0.01  -0.00   0.00    -0.08   0.08  -0.00    -0.07  -0.08   0.00
     3   6    -0.01   0.01  -0.00     0.00  -0.09   0.00     0.08  -0.00   0.00
     4   6     0.01   0.01   0.00    -0.00  -0.09  -0.00     0.08   0.00  -0.00
     5   6     0.01  -0.00   0.00     0.08   0.08   0.00    -0.07   0.08  -0.00
     6   6     0.01   0.00   0.00    -0.10   0.00  -0.00    -0.03  -0.08   0.00
     7   6    -0.00   0.01  -0.00    -0.02  -0.06   0.00     0.08   0.07   0.00
     8   6    -0.01   0.00   0.00     0.13  -0.03  -0.00    -0.07   0.06  -0.00
     9   6     0.00  -0.01  -0.00    -0.09   0.04   0.00    -0.07  -0.07   0.00
    10   1    -0.01  -0.01  -0.00     0.15   0.13  -0.00     0.31   0.04  -0.00
    11   1     0.01  -0.02  -0.00    -0.19   0.26  -0.00     0.34  -0.31   0.00
    12   1    -0.02  -0.05   0.00     0.07   0.41  -0.00     0.02  -0.27   0.00
    13   1    -0.07  -0.03  -0.00     0.30   0.15   0.00     0.22  -0.00   0.00
    14   6    -0.00  -0.01   0.00     0.09   0.04  -0.00    -0.07   0.07  -0.00
    15   6     0.01   0.00  -0.00    -0.13  -0.03   0.00    -0.07  -0.06   0.00
    16   6     0.00   0.01  -0.00     0.02  -0.06   0.00     0.08  -0.07   0.00
    17   6    -0.01   0.00   0.00     0.10   0.00  -0.00    -0.03   0.08  -0.00
    18   1     0.07  -0.03  -0.00    -0.30   0.15  -0.00     0.22   0.00  -0.00
    19   1     0.02  -0.05   0.00    -0.07   0.41  -0.00     0.02   0.27  -0.00
    20   1    -0.01  -0.02   0.00     0.19   0.26  -0.00     0.34   0.31  -0.00
    21   1     0.01  -0.01   0.00    -0.15   0.13  -0.00     0.31  -0.04   0.00
    22   6    -0.00  -0.05   0.08     0.00  -0.01   0.01    -0.02  -0.00   0.00
    23   1     0.00   0.34  -0.20    -0.00   0.06  -0.03     0.10  -0.00  -0.00
    24   1     0.14   0.15  -0.34     0.01   0.00  -0.06     0.01   0.03   0.04
    25   1    -0.14   0.15  -0.34    -0.01   0.00  -0.06     0.01  -0.03  -0.04
    26   6    -0.00  -0.05  -0.08     0.00  -0.01  -0.01    -0.02  -0.00  -0.00
    27   1    -0.14   0.15   0.34    -0.01   0.00   0.06     0.01  -0.03   0.04
    28   1     0.14   0.15   0.34     0.01   0.00   0.06     0.01   0.03  -0.04
    29   1     0.00   0.34   0.20    -0.00   0.06   0.03     0.10  -0.00   0.00
                     58                     59                     60
                      A                      A                      A
 Frequencies --   1505.7948              1510.8841              1514.9790
 Red. masses --      1.0463                 1.0485                 1.9292
 Frc consts  --      1.3978                 1.4102                 2.6088
 IR Inten    --      0.0000                 4.3018                 2.0221
  Atom  AN      X      Y      Z        X      Y      Z        X      Y      Z
     1   6    -0.00   0.00   0.00    -0.00  -0.00   0.02    -0.01   0.00   0.00
     2   6    -0.00   0.00  -0.00    -0.00   0.00  -0.00     0.05  -0.06  -0.00
     3   6     0.00  -0.00   0.00     0.00  -0.00  -0.00     0.02   0.09  -0.00
     4   6    -0.00   0.00  -0.00    -0.00   0.00  -0.00     0.02  -0.09   0.00
     5   6     0.00  -0.00   0.00     0.00  -0.00  -0.00     0.05   0.06   0.00
     6   6     0.00   0.00  -0.00     0.00   0.00   0.00    -0.08   0.01  -0.00
     7   6    -0.00  -0.00  -0.00    -0.00   0.00   0.00     0.00  -0.08   0.00
     8   6     0.00  -0.00   0.00     0.00  -0.00  -0.00     0.06   0.03  -0.00
     9   6     0.00   0.00  -0.00     0.00   0.00   0.00    -0.09   0.01   0.00
    10   1    -0.00  -0.00  -0.00    -0.00  -0.00   0.00     0.25   0.13  -0.00
    11   1    -0.00   0.00   0.00    -0.00   0.00  -0.00     0.01   0.09  -0.00
    12   1    -0.00   0.00   0.00    -0.00  -0.00   0.00     0.08   0.32  -0.00
    13   1    -0.00  -0.00   0.00    -0.00  -0.00  -0.01     0.26   0.13  -0.00
    14   6     0.00   0.00   0.00     0.00   0.00   0.00    -0.09  -0.01   0.00
    15   6    -0.00   0.00  -0.00    -0.00   0.00  -0.00     0.06  -0.03   0.00
    16   6    -0.00  -0.00   0.00     0.00  -0.00   0.00     0.00   0.08  -0.00
    17   6     0.00   0.00   0.00     0.00   0.00   0.00    -0.08  -0.01   0.00
    18   1    -0.00   0.00  -0.00    -0.00   0.00  -0.01     0.26  -0.13  -0.00
    19   1    -0.00   0.00  -0.00    -0.00   0.00   0.00     0.08  -0.32   0.00
    20   1    -0.00   0.00  -0.00     0.00   0.00  -0.00     0.01  -0.09   0.00
    21   1    -0.00   0.00   0.00    -0.00   0.00   0.00     0.25  -0.13   0.00
    22   6    -0.04   0.00   0.00     0.00   0.04   0.02     0.02  -0.00  -0.00
    23   1     0.51   0.00  -0.00    -0.00   0.23  -0.13    -0.30  -0.00   0.00
    24   1     0.04   0.10   0.33    -0.27  -0.36  -0.10    -0.02  -0.06  -0.20
    25   1     0.04  -0.10  -0.33     0.27  -0.36  -0.10    -0.02   0.06   0.20
    26   6     0.04  -0.00   0.00    -0.00  -0.04   0.02     0.02  -0.00   0.00
    27   1    -0.04   0.10  -0.33    -0.27   0.36  -0.10    -0.02   0.06  -0.20
    28   1    -0.04  -0.10   0.33     0.27   0.36  -0.10    -0.02  -0.06   0.20
    29   1    -0.51  -0.00  -0.00     0.00  -0.23  -0.13    -0.30  -0.00  -0.00
                     61                     62                     63
                      A                      A                      A
 Frequencies --   1518.1963              1525.7950              1530.8467
 Red. masses --      2.5645                 1.1295                 1.2196
 Frc consts  --      3.4827                 1.5493                 1.6840
 IR Inten    --      0.1820                 8.1369                11.8034
  Atom  AN      X      Y      Z        X      Y      Z        X      Y      Z
     1   6    -0.00  -0.03   0.00     0.00  -0.05  -0.00    -0.05  -0.00  -0.00
     2   6     0.04   0.10  -0.00     0.00   0.03  -0.00     0.03  -0.02  -0.00
     3   6    -0.15  -0.03   0.00    -0.03  -0.01   0.00     0.01   0.03  -0.00
     4   6     0.15  -0.03  -0.00     0.03  -0.01  -0.00     0.01  -0.03   0.00
     5   6    -0.04   0.10  -0.00    -0.00   0.03   0.00     0.03   0.02   0.00
     6   6    -0.08  -0.08   0.00    -0.02  -0.02  -0.00    -0.02   0.01  -0.00
     7   6     0.08   0.08   0.00     0.01   0.01   0.00    -0.01  -0.03   0.00
     8   6    -0.06   0.04  -0.00    -0.01   0.01  -0.00     0.04  -0.00  -0.00
     9   6    -0.06  -0.05   0.00    -0.01  -0.01   0.00    -0.04   0.01   0.00
    10   1     0.28   0.05  -0.00     0.06   0.01  -0.00     0.08   0.05  -0.00
    11   1     0.24  -0.23   0.00     0.04  -0.04   0.00    -0.03   0.07  -0.00
    12   1     0.03  -0.21   0.00     0.01  -0.04   0.00     0.02   0.13  -0.00
    13   1     0.29   0.04   0.00     0.05   0.00   0.00     0.06   0.04   0.00
    14   6     0.06  -0.05   0.00     0.01  -0.01   0.00    -0.04  -0.01   0.00
    15   6     0.06   0.04  -0.00     0.01   0.01  -0.00     0.04   0.00  -0.00
    16   6    -0.08   0.08  -0.00    -0.01   0.01  -0.00    -0.01   0.03  -0.00
    17   6     0.08  -0.08   0.00     0.02  -0.02   0.00    -0.02  -0.01   0.00
    18   1    -0.28   0.03  -0.00    -0.05   0.00  -0.00     0.06  -0.04  -0.00
    19   1    -0.03  -0.21   0.00    -0.01  -0.03   0.00     0.02  -0.13   0.00
    20   1    -0.24  -0.23   0.00    -0.04  -0.04   0.00    -0.03  -0.07   0.00
    21   1    -0.28   0.05  -0.00    -0.06   0.01  -0.00     0.08  -0.05   0.00
    22   6     0.00   0.01   0.01     0.00  -0.02  -0.02    -0.03  -0.00  -0.00
    23   1    -0.00   0.12  -0.07    -0.00  -0.25   0.14     0.47  -0.00   0.00
    24   1    -0.12  -0.17  -0.06     0.26   0.35   0.09     0.03   0.08   0.33
    25   1     0.12  -0.17  -0.06    -0.26   0.35   0.09     0.03  -0.08  -0.33
    26   6     0.00   0.01  -0.01     0.00  -0.02   0.02    -0.03  -0.00   0.00
    27   1     0.12  -0.17   0.06    -0.26   0.35  -0.09     0.03  -0.08   0.33
    28   1    -0.12  -0.17   0.06     0.26   0.35  -0.09     0.03   0.08  -0.33
    29   1    -0.00   0.12   0.06    -0.00  -0.25  -0.14     0.47  -0.00  -0.00
                     64                     65                     66
                      A                      A                      A
 Frequencies --   1627.2884              1631.1745              1653.8297
 Red. masses --      5.5016                 6.3523                 6.1006
 Frc consts  --      8.5836                 9.9582                 9.8311
 IR Inten    --      0.3621                 0.5939                 0.2079
  Atom  AN      X      Y      Z        X      Y      Z        X      Y      Z
     1   6     0.00  -0.02   0.00     0.04   0.00  -0.00    -0.00   0.00   0.00
     2   6     0.16   0.14  -0.00    -0.13  -0.16   0.00     0.19  -0.01  -0.00
     3   6     0.06  -0.16   0.00     0.01   0.24  -0.00    -0.21   0.09  -0.00
     4   6    -0.06  -0.16   0.00     0.01  -0.24   0.00     0.20   0.08  -0.00
     5   6    -0.16   0.14  -0.00    -0.13   0.16  -0.00    -0.18  -0.01  -0.00
     6   6     0.10  -0.09   0.00     0.08  -0.09   0.00     0.22   0.07   0.00
     7   6    -0.03   0.22  -0.00    -0.03   0.22  -0.00    -0.09  -0.08  -0.00
     8   6     0.11  -0.19   0.00     0.15  -0.20   0.00     0.13  -0.01  -0.00
     9   6     0.03   0.11  -0.00    -0.04   0.12   0.00    -0.23  -0.07   0.00
    10   1    -0.20   0.05   0.00    -0.05   0.13   0.00     0.33   0.11  -0.00
    11   1    -0.28   0.14  -0.00    -0.30   0.19  -0.00    -0.03   0.15  -0.00
    12   1    -0.14  -0.31   0.00    -0.14  -0.24   0.00    -0.06   0.13  -0.00
    13   1    -0.10  -0.17   0.00    -0.06  -0.14   0.00    -0.28  -0.11  -0.00
    14   6    -0.03   0.11  -0.00    -0.04  -0.12   0.00     0.24  -0.08   0.00
    15   6    -0.11  -0.19   0.00     0.15   0.20  -0.00    -0.13  -0.01   0.00
    16   6     0.03   0.22  -0.00    -0.03  -0.22   0.00     0.10  -0.09   0.00
    17   6    -0.10  -0.09   0.00     0.08   0.09  -0.00    -0.23   0.07  -0.00
    18   1     0.10  -0.17   0.00    -0.06   0.14   0.00     0.29  -0.11  -0.00
    19   1     0.14  -0.31   0.00    -0.14   0.24  -0.00     0.06   0.14  -0.00
    20   1     0.28   0.14  -0.00    -0.30  -0.19   0.00     0.03   0.15  -0.00
    21   1     0.20   0.05  -0.00    -0.05  -0.13   0.00    -0.34   0.11  -0.00
    22   6    -0.00  -0.00   0.00    -0.01  -0.00   0.00     0.00   0.00  -0.01
    23   1    -0.00   0.00  -0.00    -0.04   0.00  -0.00     0.00  -0.02   0.01
    24   1     0.01   0.01  -0.00     0.00   0.01  -0.05    -0.01  -0.00   0.02
    25   1    -0.01   0.01  -0.00     0.00  -0.01   0.05     0.01  -0.00   0.02
    26   6    -0.00  -0.00  -0.00    -0.01  -0.00  -0.00     0.00   0.00   0.01
    27   1    -0.01   0.01   0.00     0.00  -0.01  -0.05     0.01  -0.00  -0.02
    28   1     0.01   0.01   0.00     0.00   0.01   0.05    -0.01  -0.00  -0.02
    29   1    -0.00   0.00   0.00    -0.04   0.00   0.00     0.00  -0.02  -0.01
                     67                     68                     69
                      A                      A                      A
 Frequencies --   1654.2151              3039.2928              3044.1606
 Red. masses --      6.4259                 1.0343                 1.0348
 Frc consts  --     10.3602                 5.6290                 5.6497
 IR Inten    --      2.9085                24.9021                48.9302
  Atom  AN      X      Y      Z        X      Y      Z        X      Y      Z
     1   6     0.06   0.00  -0.00     0.00   0.00  -0.00    -0.00   0.00   0.00
     2   6    -0.19   0.03   0.00     0.00  -0.00   0.00     0.00  -0.00  -0.00
     3   6     0.13  -0.15   0.00     0.00   0.00   0.00    -0.00   0.00  -0.00
     4   6     0.14   0.16  -0.00     0.00   0.00   0.00     0.00   0.00  -0.00
     5   6    -0.20  -0.03  -0.00    -0.00  -0.00   0.00    -0.00  -0.00  -0.00
     6   6     0.24   0.08   0.00     0.00  -0.00  -0.00     0.00  -0.00   0.00
     7   6    -0.11  -0.10  -0.00     0.00  -0.00  -0.00     0.00  -0.00   0.00
     8   6     0.13   0.01  -0.00     0.00   0.00   0.00     0.00   0.00  -0.00
     9   6    -0.23  -0.10   0.00     0.00   0.00  -0.00    -0.00   0.00   0.00
    10   1     0.29   0.07  -0.00     0.00  -0.00  -0.00     0.00  -0.00   0.00
    11   1    -0.00   0.14  -0.00    -0.00  -0.00   0.00    -0.00  -0.00  -0.00
    12   1    -0.06   0.15  -0.00    -0.00   0.00  -0.00    -0.00   0.00   0.00
    13   1    -0.32  -0.12  -0.00    -0.00   0.00   0.00    -0.00   0.01  -0.00
    14   6    -0.22   0.10  -0.00     0.00   0.00  -0.00     0.00   0.00   0.00
    15   6     0.13  -0.01  -0.00    -0.00   0.00   0.00    -0.00   0.00   0.00
    16   6    -0.10   0.10  -0.00    -0.00   0.00  -0.00    -0.00  -0.00   0.00
    17   6     0.24  -0.08   0.00    -0.00  -0.00  -0.00    -0.00  -0.00   0.00
    18   1    -0.31   0.11   0.00     0.00   0.00   0.00     0.00   0.01  -0.00
    19   1    -0.06  -0.15   0.00     0.00   0.00  -0.00     0.00   0.00  -0.00
    20   1    -0.00  -0.13   0.00     0.00  -0.00   0.00     0.00  -0.00   0.00
    21   1     0.28  -0.06   0.00    -0.00  -0.00  -0.00    -0.00  -0.00   0.00
    22   6    -0.00   0.00  -0.00     0.00  -0.03   0.02    -0.00   0.02  -0.02
    23   1    -0.05  -0.00   0.00    -0.00  -0.20  -0.28     0.00   0.20   0.29
    24   1     0.00   0.01  -0.06    -0.36   0.25   0.00     0.35  -0.25  -0.00
    25   1     0.00  -0.01   0.06     0.36   0.25   0.00    -0.35  -0.25   0.00
    26   6    -0.00   0.00   0.00    -0.00   0.03   0.02    -0.00   0.02   0.02
    27   1     0.00  -0.01  -0.06    -0.36  -0.25   0.00    -0.35  -0.25  -0.00
    28   1     0.00   0.01   0.06     0.36  -0.25   0.00     0.35  -0.25   0.00
    29   1    -0.05  -0.00  -0.00     0.00   0.20  -0.28     0.00   0.20  -0.29
                     70                     71                     72
                      A                      A                      A
 Frequencies --   3100.8231              3106.2668              3118.6351
 Red. masses --      1.1026                 1.1018                 1.1024
 Frc consts  --      6.2465                 6.2635                 6.3173
 IR Inten    --      0.0001                50.7886                17.0904
  Atom  AN      X      Y      Z        X      Y      Z        X      Y      Z
     1   6    -0.00   0.00   0.00    -0.00   0.00   0.00    -0.00   0.00  -0.00
     2   6     0.00  -0.00   0.00     0.00  -0.00  -0.00     0.00  -0.00   0.00
     3   6    -0.00  -0.00  -0.00    -0.00  -0.00   0.00     0.00  -0.00   0.00
     4   6    -0.00   0.00   0.00    -0.00   0.00  -0.00    -0.00  -0.00   0.00
     5   6     0.00   0.00  -0.00     0.00   0.00  -0.00    -0.00  -0.00   0.00
     6   6     0.00  -0.00   0.00     0.00  -0.00   0.00     0.00  -0.00   0.00
     7   6    -0.00   0.00   0.00    -0.00   0.00  -0.00    -0.00   0.00  -0.00
     8   6    -0.00  -0.00   0.00     0.00  -0.00  -0.00     0.00   0.00  -0.00
     9   6     0.00  -0.00  -0.00     0.00  -0.00   0.00     0.00  -0.00  -0.00
    10   1    -0.00   0.00  -0.00    -0.00   0.00   0.00    -0.00   0.00  -0.00
    11   1     0.00   0.00  -0.00     0.00  -0.00  -0.00    -0.00  -0.00   0.00
    12   1     0.00  -0.00  -0.00     0.00  -0.00   0.00     0.00  -0.00  -0.00
    13   1    -0.00   0.00  -0.00    -0.01   0.02  -0.00    -0.00   0.00  -0.00
    14   6     0.00   0.00   0.00     0.00   0.00  -0.00    -0.00  -0.00  -0.00
    15   6    -0.00   0.00  -0.00     0.00   0.00   0.00    -0.00   0.00  -0.00
    16   6    -0.00  -0.00  -0.00    -0.00  -0.00   0.00     0.00   0.00  -0.00
    17   6     0.00   0.00  -0.00     0.00   0.00  -0.00    -0.00  -0.00   0.00
    18   1    -0.00  -0.00   0.00    -0.01  -0.02   0.00     0.00   0.00  -0.00
    19   1     0.00   0.00   0.00     0.00   0.00  -0.00    -0.00  -0.00  -0.00
    20   1     0.00  -0.00   0.00     0.00   0.00  -0.00     0.00  -0.00   0.00
    21   1    -0.00  -0.00   0.00    -0.00  -0.00  -0.00     0.00   0.00  -0.00
    22   6    -0.07   0.00   0.00    -0.07   0.00   0.00    -0.00  -0.05  -0.04
    23   1    -0.02  -0.00  -0.00    -0.01  -0.00  -0.00     0.00   0.34   0.51
    24   1     0.40  -0.30   0.00     0.40  -0.30   0.00    -0.20   0.13  -0.01
    25   1     0.40   0.30  -0.00     0.40   0.30  -0.00     0.20   0.13  -0.01
    26   6     0.07  -0.00   0.00    -0.07   0.00  -0.00     0.00   0.05  -0.04
    27   1    -0.40  -0.30  -0.00     0.40   0.30   0.00    -0.20  -0.13  -0.01
    28   1    -0.40   0.30   0.00     0.40  -0.30  -0.00     0.20  -0.13  -0.01
    29   1     0.02   0.00  -0.00    -0.01  -0.00   0.00    -0.00  -0.35   0.52
                     73                     74                     75
                      A                      A                      A
 Frequencies --   3120.0448              3171.8527              3172.3415
 Red. masses --      1.1021                 1.0859                 1.0860
 Frc consts  --      6.3213                 6.4367                 6.4395
 IR Inten    --     31.1583                 1.8354                10.7643
  Atom  AN      X      Y      Z        X      Y      Z        X      Y      Z
     1   6    -0.00  -0.00  -0.00    -0.00  -0.00  -0.00     0.00  -0.00  -0.00
     2   6    -0.00   0.00   0.00     0.00  -0.00  -0.00     0.00  -0.00   0.00
     3   6    -0.00   0.00   0.00    -0.00   0.00  -0.00    -0.00   0.00  -0.00
     4   6     0.00   0.00   0.00    -0.00  -0.00   0.00     0.00   0.00   0.00
     5   6     0.00   0.00   0.00     0.00   0.00   0.00    -0.00  -0.00  -0.00
     6   6    -0.00   0.00   0.00    -0.01   0.04  -0.00     0.02  -0.04   0.00
     7   6     0.00  -0.00  -0.00     0.03  -0.01   0.00    -0.03   0.01  -0.00
     8   6    -0.00  -0.00  -0.00    -0.01  -0.02  -0.00     0.01   0.02   0.00
     9   6    -0.00   0.00  -0.00    -0.01   0.02  -0.00     0.00  -0.01   0.00
    10   1     0.00  -0.00  -0.00     0.07  -0.20   0.00    -0.05   0.17  -0.00
    11   1     0.00   0.00   0.00     0.17   0.19   0.00    -0.17  -0.19  -0.00
    12   1    -0.00   0.00  -0.00    -0.34   0.07  -0.00     0.36  -0.07   0.00
    13   1     0.01  -0.02   0.00     0.16  -0.47   0.00    -0.18   0.50  -0.00
    14   6     0.00   0.00  -0.00    -0.01  -0.02   0.00    -0.00  -0.01   0.00
    15   6     0.00  -0.00  -0.00    -0.01   0.02  -0.00    -0.01   0.01  -0.00
    16   6    -0.00  -0.00  -0.00     0.03   0.01  -0.00     0.03   0.01  -0.00
    17   6     0.00   0.00   0.00    -0.02  -0.04   0.00    -0.02  -0.04   0.00
    18   1    -0.01  -0.02   0.00     0.17   0.49  -0.00     0.17   0.48  -0.00
    19   1     0.00   0.00  -0.00    -0.35  -0.07   0.00    -0.35  -0.07   0.00
    20   1    -0.00   0.00   0.00     0.18  -0.20   0.00     0.16  -0.18   0.00
    21   1    -0.00  -0.00  -0.00     0.07   0.21  -0.00     0.05   0.16  -0.00
    22   6    -0.00  -0.05  -0.04    -0.00  -0.00  -0.00     0.00  -0.00  -0.00
    23   1     0.00   0.35   0.51    -0.00   0.00   0.00     0.00   0.01   0.01
    24   1    -0.21   0.13  -0.01     0.01  -0.01   0.00    -0.01   0.01  -0.00
    25   1     0.21   0.14  -0.01     0.01   0.01  -0.00     0.01   0.01  -0.00
    26   6    -0.00  -0.05   0.04    -0.00  -0.00   0.00     0.00  -0.00   0.00
    27   1     0.20   0.13   0.01     0.01   0.01   0.00     0.01   0.01   0.00
    28   1    -0.20   0.13   0.01     0.01  -0.01  -0.00    -0.01   0.01   0.00
    29   1     0.00   0.34  -0.50    -0.00   0.00  -0.00     0.00   0.01  -0.01
                     76                     77                     78
                      A                      A                      A
 Frequencies --   3178.0008              3179.8893              3189.3195
 Red. masses --      1.0881                 1.0881                 1.0924
 Frc consts  --      6.4747                 6.4824                 6.5468
 IR Inten    --      2.8913                 3.4381                 8.9072
  Atom  AN      X      Y      Z        X      Y      Z        X      Y      Z
     1   6     0.00   0.00  -0.00    -0.00   0.00   0.00    -0.00   0.00  -0.00
     2   6     0.00  -0.00  -0.00    -0.00   0.00   0.00     0.00   0.00  -0.00
     3   6     0.00  -0.00   0.00    -0.00   0.00  -0.00    -0.00   0.00  -0.00
     4   6     0.00   0.00  -0.00     0.00   0.00  -0.00    -0.00  -0.00   0.00
     5   6     0.00   0.00   0.00     0.00   0.00   0.00     0.00  -0.00   0.00
     6   6    -0.01   0.03  -0.00    -0.01   0.03  -0.00    -0.01   0.02  -0.00
     7   6     0.00  -0.00   0.00    -0.00  -0.00  -0.00    -0.04   0.01  -0.00
     8   6     0.02   0.02   0.00     0.02   0.03   0.00     0.02   0.02   0.00
     9   6     0.01  -0.04   0.00     0.01  -0.04   0.00    -0.01   0.03  -0.00
    10   1    -0.16   0.48  -0.00    -0.14   0.43  -0.00     0.12  -0.37   0.00
    11   1    -0.22  -0.25  -0.00    -0.26  -0.30  -0.00    -0.21  -0.23  -0.00
    12   1    -0.03   0.01  -0.00     0.03  -0.00   0.00     0.41  -0.08   0.00
    13   1     0.12  -0.35   0.00     0.12  -0.34   0.00     0.09  -0.27   0.00
    14   6     0.01   0.04  -0.00    -0.01  -0.04   0.00    -0.01  -0.03   0.00
    15   6     0.02  -0.02   0.00    -0.02   0.03  -0.00     0.02  -0.02   0.00
    16   6     0.00   0.00  -0.00     0.00  -0.00  -0.00    -0.04  -0.01   0.00
    17   6    -0.01  -0.03   0.00     0.01   0.03  -0.00    -0.01  -0.02   0.00
    18   1     0.12   0.34  -0.00    -0.12  -0.34   0.00     0.09   0.27  -0.00
    19   1    -0.02  -0.01   0.00    -0.03  -0.00   0.00     0.41   0.08  -0.00
    20   1    -0.22   0.25  -0.00     0.27  -0.30   0.00    -0.21   0.23  -0.00
    21   1    -0.16  -0.48   0.00     0.14   0.44  -0.00     0.12   0.36  -0.00
    22   6    -0.00   0.00   0.00     0.00   0.00   0.00    -0.00   0.00   0.00
    23   1    -0.00  -0.00  -0.00    -0.00  -0.00  -0.00    -0.00  -0.00  -0.00
    24   1     0.01  -0.00  -0.00     0.01  -0.00   0.00     0.00  -0.00  -0.00
    25   1     0.01   0.00   0.00    -0.01  -0.00   0.00     0.00   0.00   0.00
    26   6    -0.00   0.00  -0.00     0.00   0.00  -0.00    -0.00   0.00  -0.00
    27   1     0.01   0.00  -0.00    -0.01  -0.00  -0.00     0.00   0.00  -0.00
    28   1     0.01  -0.00   0.00     0.01  -0.00  -0.00     0.00  -0.00   0.00
    29   1    -0.00  -0.00   0.00    -0.00  -0.00   0.00    -0.00  -0.00   0.00
                     79                     80                     81
                      A                      A                      A
 Frequencies --   3190.5944              3202.0841              3202.8202
 Red. masses --      1.0924                 1.0967                 1.0966
 Frc consts  --      6.5518                 6.6254                 6.6279
 IR Inten    --     48.3266                58.7188                 9.7958
  Atom  AN      X      Y      Z        X      Y      Z        X      Y      Z
     1   6    -0.00  -0.00   0.00     0.00   0.00  -0.00    -0.00   0.00   0.00
     2   6     0.00   0.00  -0.00     0.00  -0.00  -0.00    -0.00   0.00  -0.00
     3   6    -0.00   0.00  -0.00     0.00  -0.00   0.00    -0.00   0.00  -0.00
     4   6     0.00   0.00  -0.00     0.00   0.00  -0.00     0.00   0.00  -0.00
     5   6    -0.00   0.00  -0.00     0.00   0.00   0.00     0.00   0.00   0.00
     6   6     0.01  -0.02   0.00    -0.00   0.01  -0.00    -0.00   0.01  -0.00
     7   6     0.04  -0.01   0.00    -0.04   0.01  -0.00    -0.04   0.01  -0.00
     8   6    -0.02  -0.01  -0.00    -0.03  -0.03  -0.00    -0.03  -0.03  -0.00
     9   6     0.01  -0.04   0.00     0.01  -0.02   0.00     0.01  -0.02   0.00
    10   1    -0.14   0.42  -0.00    -0.07   0.21  -0.00    -0.08   0.24  -0.00
    11   1     0.16   0.17   0.00     0.31   0.35   0.00     0.31   0.35   0.00
    12   1    -0.41   0.08  -0.00     0.44  -0.09   0.00     0.42  -0.08   0.00
    13   1    -0.08   0.25  -0.00     0.05  -0.15   0.00     0.05  -0.15   0.00
    14   6    -0.01  -0.04   0.00     0.01   0.02  -0.00    -0.01  -0.02   0.00
    15   6     0.02  -0.01   0.00    -0.03   0.03  -0.00     0.03  -0.03   0.00
    16   6    -0.04  -0.01   0.00    -0.04  -0.01   0.00     0.04   0.01  -0.00
    17   6    -0.01  -0.02   0.00    -0.00  -0.01   0.00     0.00   0.01  -0.00
    18   1     0.08   0.25  -0.00     0.05   0.15  -0.00    -0.05  -0.15   0.00
    19   1     0.42   0.08  -0.00     0.44   0.09  -0.00    -0.42  -0.08   0.00
    20   1    -0.16   0.17  -0.00     0.31  -0.35   0.00    -0.31   0.35  -0.00
    21   1     0.14   0.42  -0.00    -0.07  -0.21   0.00     0.08   0.24  -0.00
    22   6    -0.00  -0.00  -0.00    -0.00   0.00   0.00    -0.00   0.00   0.00
    23   1     0.00   0.00   0.00     0.00  -0.00  -0.00    -0.00  -0.00  -0.00
    24   1    -0.00   0.00  -0.00     0.00  -0.00  -0.00     0.00  -0.00   0.00
    25   1     0.00   0.00  -0.00     0.00   0.00   0.00    -0.00  -0.00   0.00
    26   6    -0.00  -0.00   0.00    -0.00   0.00  -0.00    -0.00   0.00  -0.00
    27   1     0.00   0.00   0.00     0.00   0.00  -0.00    -0.00  -0.00  -0.00
    28   1    -0.00   0.00   0.00     0.00  -0.00   0.00     0.00  -0.00  -0.00
    29   1     0.00   0.00  -0.00     0.00  -0.00   0.00    -0.00  -0.00   0.00

 -------------------
 - Thermochemistry -
 -------------------
 Temperature   298.150 Kelvin.  Pressure   1.00000 Atm.
 Atom     1 has atomic number  6 and mass  12.00000
 Atom     2 has atomic number  6 and mass  12.00000
 Atom     3 has atomic number  6 and mass  12.00000
 Atom     4 has atomic number  6 and mass  12.00000
 Atom     5 has atomic number  6 and mass  12.00000
 Atom     6 has atomic number  6 and mass  12.00000
 Atom     7 has atomic number  6 and mass  12.00000
 Atom     8 has atomic number  6 and mass  12.00000
 Atom     9 has atomic number  6 and mass  12.00000
 Atom    10 has atomic number  1 and mass   1.00783
 Atom    11 has atomic number  1 and mass   1.00783
 Atom    12 has atomic number  1 and mass   1.00783
 Atom    13 has atomic number  1 and mass   1.00783
 Atom    14 has atomic number  6 and mass  12.00000
 Atom    15 has atomic number  6 and mass  12.00000
 Atom    16 has atomic number  6 and mass  12.00000
 Atom    17 has atomic number  6 and mass  12.00000
 Atom    18 has atomic number  1 and mass   1.00783
 Atom    19 has atomic number  1 and mass   1.00783
 Atom    20 has atomic number  1 and mass   1.00783
 Atom    21 has atomic number  1 and mass   1.00783
 Atom    22 has atomic number  6 and mass  12.00000
 Atom    23 has atomic number  1 and mass   1.00783
 Atom    24 has atomic number  1 and mass   1.00783
 Atom    25 has atomic number  1 and mass   1.00783
 Atom    26 has atomic number  6 and mass  12.00000
 Atom    27 has atomic number  1 and mass   1.00783
 Atom    28 has atomic number  1 and mass   1.00783
 Atom    29 has atomic number  1 and mass   1.00783
 Molecular mass:   194.10955 amu.
 Principal axes and moments of inertia in atomic units:
                           1         2         3
     Eigenvalues --  1712.372893291.757744614.06157
           X            1.00000  -0.00000   0.00000
           Y            0.00000   1.00000  -0.00000
           Z           -0.00000   0.00000   1.00000
 This molecule is an asymmetric top.
 Rotational symmetry number  1.
 Warning -- assumption of classical behavior for rotation
           may cause significant error
 Rotational temperatures (Kelvin)      0.05058     0.02631     0.01877
 Rotational constants (GHZ):           1.05394     0.54826     0.39114
 Zero-point vibrational energy     641045.7 (Joules/Mol)
                                  153.21360 (Kcal/Mol)
 Warning -- explicit consideration of  19 degrees of freedom as
           vibrations may cause significant error
 Vibrational temperatures:    113.60   170.94   177.97   279.50   294.40
          (Kelvin)            349.10   360.13   412.72   462.45   469.18
                              510.56   603.27   630.52   711.42   746.17
                              800.02   833.40   835.92   871.79   913.16
                             1030.81  1079.57  1098.44  1116.01  1116.97
                             1156.66  1158.17  1269.62  1281.19  1360.05
                             1363.82  1368.56  1376.55  1421.15  1423.73
                             1472.30  1496.65  1512.40  1512.47  1584.04
                             1602.50  1639.98  1662.44  1674.23  1712.39
                             1712.82  1776.62  1797.95  1838.89  1911.08
                             1913.22  1944.23  2001.24  2038.14  2070.41
                             2137.88  2141.43  2166.50  2173.83  2179.72
                             2184.35  2195.28  2202.55  2341.31  2346.90
                             2379.49  2380.05  4372.86  4379.87  4461.39
                             4469.23  4487.02  4489.05  4563.59  4564.29
                             4572.43  4575.15  4588.72  4590.55  4607.08
                             4608.14
 
 Zero-point correction=                           0.244161 (Hartree/Particle)
 Thermal correction to Energy=                    0.256065
 Thermal correction to Enthalpy=                  0.257009
 Thermal correction to Gibbs Free Energy=         0.206949
 Sum of electronic and zero-point Energies=           -579.825589
 Sum of electronic and thermal Energies=              -579.813686
 Sum of electronic and thermal Enthalpies=            -579.812742
 Sum of electronic and thermal Free Energies=         -579.862802
 
                     E (Thermal)             CV                S
                      KCal/Mol        Cal/Mol-Kelvin    Cal/Mol-Kelvin
 Total                  160.683             49.532            105.361
 Electronic               0.000              0.000              0.000
 Translational            0.889              2.981             41.695
 Rotational               0.889              2.981             31.631
 Vibrational            158.906             43.571             32.034
 Vibration     1          0.600              1.963              3.917
 Vibration     2          0.609              1.934              3.120
 Vibration     3          0.610              1.929              3.042
 Vibration     4          0.635              1.848              2.187
 Vibration     5          0.640              1.833              2.091
 Vibration     6          0.659              1.775              1.783
 Vibration     7          0.663              1.762              1.728
 Vibration     8          0.684              1.698              1.492
 Vibration     9          0.707              1.633              1.303
 Vibration    10          0.710              1.623              1.279
 Vibration    11          0.731              1.565              1.145
 Vibration    12          0.782              1.428              0.894
 Vibration    13          0.798              1.387              0.832
 Vibration    14          0.850              1.262              0.672
 Vibration    15          0.874              1.209              0.613
 Vibration    16          0.912              1.126              0.532
 Vibration    17          0.936              1.076              0.487
 Vibration    18          0.938              1.072              0.484
 Vibration    19          0.965              1.019              0.440
                       Q            Log10(Q)             Ln(Q)
 Total Bot       0.646008D-95        -95.189762       -219.182528
 Total V=0       0.130795D+18         17.116592         39.412410
 Vib (Bot)       0.332899-109       -109.477687       -252.081690
 Vib (Bot)    1  0.260885D+01          0.416448          0.958908
 Vib (Bot)    2  0.172055D+01          0.235667          0.542643
 Vib (Bot)    3  0.165063D+01          0.217649          0.501156
 Vib (Bot)    4  0.102866D+01          0.012270          0.028252
 Vib (Bot)    5  0.972724D+00         -0.012010         -0.027655
 Vib (Bot)    6  0.807152D+00         -0.093044         -0.214243
 Vib (Bot)    7  0.779638D+00         -0.108107         -0.248926
 Vib (Bot)    8  0.667798D+00         -0.175355         -0.403770
 Vib (Bot)    9  0.584356D+00         -0.233322         -0.537244
 Vib (Bot)   10  0.574344D+00         -0.240828         -0.554526
 Vib (Bot)   11  0.518284D+00         -0.285432         -0.657231
 Vib (Bot)   12  0.419001D+00         -0.377785         -0.869883
 Vib (Bot)   13  0.395024D+00         -0.403377         -0.928810
 Vib (Bot)   14  0.334015D+00         -0.476234         -1.096568
 Vib (Bot)   15  0.311633D+00         -0.506356         -1.165929
 Vib (Bot)   16  0.280592D+00         -0.551925         -1.270855
 Vib (Bot)   17  0.263269D+00         -0.579600         -1.334578
 Vib (Bot)   18  0.262015D+00         -0.581673         -1.339352
 Vib (Bot)   19  0.244929D+00         -0.610960         -1.406787
 Vib (V=0)       0.674012D+03          2.828667          6.513247
 Vib (V=0)    1  0.315633D+01          0.499182          1.149409
 Vib (V=0)    2  0.229173D+01          0.360163          0.829306
 Vib (V=0)    3  0.222469D+01          0.347270          0.799620
 Vib (V=0)    4  0.164374D+01          0.215832          0.496972
 Vib (V=0)    5  0.159371D+01          0.202408          0.466062
 Vib (V=0)    6  0.144947D+01          0.161210          0.371199
 Vib (V=0)    7  0.142619D+01          0.154178          0.355009
 Vib (V=0)    8  0.133424D+01          0.125234          0.288361
 Vib (V=0)    9  0.126907D+01          0.103486          0.238286
 Vib (V=0)   10  0.126149D+01          0.100885          0.232296
 Vib (V=0)   11  0.122015D+01          0.086414          0.198975
 Vib (V=0)   12  0.115235D+01          0.061585          0.141804
 Vib (V=0)   13  0.113722D+01          0.055843          0.128583
 Vib (V=0)   14  0.110130D+01          0.041907          0.096495
 Vib (V=0)   15  0.108916D+01          0.037094          0.085411
 Vib (V=0)   16  0.107335D+01          0.030742          0.070786
 Vib (V=0)   17  0.106508D+01          0.027381          0.063046
 Vib (V=0)   18  0.106449D+01          0.027143          0.062498
 Vib (V=0)   19  0.105677D+01          0.023979          0.055215
 Electronic      0.100000D+01          0.000000          0.000000
 Translational   0.106298D+09          8.026524         18.481755
 Rotational      0.182558D+07          6.261400         14.417407
 ***** Axes restored to original set *****
 -------------------------------------------------------------------
 Center     Atomic                   Forces (Hartrees/Bohr)
 Number     Number              X              Y              Z
 -------------------------------------------------------------------
      1        6           0.000088141    0.000030729   -0.000017997
      2        6           0.000074313    0.000138587    0.000003622
      3        6           0.000072634   -0.000130131    0.000001332
      4        6          -0.000175876    0.000054360   -0.000005172
      5        6           0.000086476    0.000098420    0.000009867
      6        6           0.000104788    0.000016373    0.000000797
      7        6           0.000033951   -0.000109888    0.000000348
      8        6           0.000074587   -0.000087175    0.000007588
      9        6          -0.000040547   -0.000076828   -0.000002092
     10        1          -0.000051584   -0.000000644    0.000000138
     11        1           0.000004170   -0.000055546   -0.000000135
     12        1           0.000040948   -0.000036426    0.000000130
     13        1           0.000006951    0.000065554   -0.000001423
     14        6          -0.000085408   -0.000063905    0.000002341
     15        6          -0.000101854    0.000065192   -0.000003343
     16        6          -0.000105865    0.000006444    0.000000989
     17        6          -0.000007670    0.000089735    0.000000738
     18        1           0.000055625    0.000018789   -0.000001878
     19        1          -0.000042807    0.000036139   -0.000001574
     20        1          -0.000056797    0.000003726   -0.000000547
     21        1           0.000020692   -0.000054147    0.000001056
     22        6          -0.000039995   -0.000041597    0.000060956
     23        1           0.000004200   -0.000004513   -0.000019038
     24        1           0.000026299    0.000021741   -0.000026636
     25        1           0.000013392    0.000021918   -0.000021035
     26        6          -0.000037834   -0.000049409   -0.000059780
     27        1           0.000010899    0.000021346    0.000021362
     28        1           0.000025157    0.000024703    0.000027634
     29        1           0.000003015   -0.000003547    0.000021750
 -------------------------------------------------------------------
 Cartesian Forces:  Max     0.000175876 RMS     0.000053121
 FormGI is forming the generalized inverse of G from B-inverse, IUseBI=4.
 Leave Link  716 at Fri Mar 13 23:52:44 2026, MaxMem=   104857600 cpu:               0.0 elap:               0.0
 (Enter /sw/cluster/pub/apps//g16/l103.exe)

 GradGradGradGradGradGradGradGradGradGradGradGradGradGradGradGradGradGrad
 Berny optimization.
 Red2BG is reusing G-inverse.
 Internal  Forces:  Max     0.000190914 RMS     0.000049829
 Search for a local minimum.
 Step number   1 out of a maximum of    2
 All quantities printed in internal units (Hartrees-Bohrs-Radians)
 Second derivative matrix not updated -- analytic derivatives used.
 ITU=  0
     Eigenvalues ---    0.00289   0.00371   0.00582   0.01064   0.01380
     Eigenvalues ---    0.01551   0.01669   0.01716   0.01764   0.01836
     Eigenvalues ---    0.01967   0.02153   0.02193   0.02413   0.02467
     Eigenvalues ---    0.02508   0.02825   0.02825   0.02869   0.02872
     Eigenvalues ---    0.04204   0.04669   0.04677   0.04731   0.04804
     Eigenvalues ---    0.04856   0.06547   0.09312   0.10999   0.11096
     Eigenvalues ---    0.11383   0.11607   0.12196   0.12450   0.12468
     Eigenvalues ---    0.12473   0.12509   0.12638   0.14669   0.14687
     Eigenvalues ---    0.15319   0.15668   0.16615   0.17998   0.19236
     Eigenvalues ---    0.19272   0.19424   0.19461   0.19801   0.20251
     Eigenvalues ---    0.23460   0.23714   0.26633   0.28195   0.29160
     Eigenvalues ---    0.29399   0.31199   0.33393   0.33547   0.33651
     Eigenvalues ---    0.33834   0.34536   0.34617   0.34999   0.35528
     Eigenvalues ---    0.35543   0.35792   0.35827   0.35880   0.36062
     Eigenvalues ---    0.36076   0.36395   0.39353   0.41058   0.41114
     Eigenvalues ---    0.44655   0.45199   0.46347   0.46848   0.50070
     Eigenvalues ---    0.50320
 Angle between quadratic step and forces=  58.59 degrees.
 Linear search not attempted -- first point.
 Iteration  1 RMS(Cart)=  0.00036136 RMS(Int)=  0.00000008
 Iteration  2 RMS(Cart)=  0.00000009 RMS(Int)=  0.00000001
 ITry= 1 IFail=0 DXMaxC= 1.41D-03 DCOld= 1.00D+10 DXMaxT= 3.00D-01 DXLimC= 3.00D+00 Rises=F
 Variable       Old X    -DE/DX   Delta X   Delta X   Delta X     New X
                                 (Linear)    (Quad)   (Total)
    R1        2.88992  -0.00013   0.00000  -0.00046  -0.00046   2.88946
    R2        2.88970  -0.00008   0.00000  -0.00025  -0.00025   2.88946
    R3        2.92196  -0.00001   0.00000   0.00011   0.00011   2.92207
    R4        2.92200  -0.00001   0.00000   0.00007   0.00007   2.92207
    R5        2.66490  -0.00018   0.00000  -0.00044  -0.00044   2.66445
    R6        2.63080  -0.00015   0.00000  -0.00025  -0.00025   2.63055
    R7        2.77745  -0.00007   0.00000  -0.00010  -0.00010   2.77735
    R8        2.64193  -0.00018   0.00000  -0.00035  -0.00035   2.64158
    R9        2.66489  -0.00018   0.00000  -0.00043  -0.00043   2.66445
   R10        2.64193  -0.00018   0.00000  -0.00035  -0.00035   2.64158
   R11        2.63081  -0.00015   0.00000  -0.00026  -0.00026   2.63055
   R12        2.64937  -0.00019   0.00000  -0.00038  -0.00038   2.64900
   R13        2.05624  -0.00004   0.00000  -0.00010  -0.00010   2.05614
   R14        2.64696  -0.00009   0.00000  -0.00013  -0.00013   2.64683
   R15        2.05452  -0.00005   0.00000  -0.00014  -0.00014   2.05438
   R16        2.64295  -0.00018   0.00000  -0.00036  -0.00036   2.64259
   R17        2.05455  -0.00006   0.00000  -0.00014  -0.00014   2.05441
   R18        2.05523  -0.00004   0.00000  -0.00012  -0.00012   2.05511
   R19        2.64294  -0.00018   0.00000  -0.00035  -0.00035   2.64259
   R20        2.05522  -0.00004   0.00000  -0.00011  -0.00011   2.05511
   R21        2.64694  -0.00008   0.00000  -0.00012  -0.00012   2.64683
   R22        2.05455  -0.00006   0.00000  -0.00014  -0.00014   2.05441
   R23        2.64938  -0.00019   0.00000  -0.00038  -0.00038   2.64900
   R24        2.05453  -0.00005   0.00000  -0.00014  -0.00014   2.05438
   R25        2.05625  -0.00004   0.00000  -0.00010  -0.00010   2.05614
   R26        2.06968  -0.00002   0.00000  -0.00005  -0.00005   2.06963
   R27        2.07244  -0.00002   0.00000  -0.00009  -0.00009   2.07235
   R28        2.07242  -0.00002   0.00000  -0.00007  -0.00007   2.07235
   R29        2.07242  -0.00002   0.00000  -0.00007  -0.00007   2.07235
   R30        2.07244  -0.00002   0.00000  -0.00009  -0.00009   2.07235
   R31        2.06969  -0.00002   0.00000  -0.00006  -0.00006   2.06963
    A1        1.76617  -0.00002   0.00000  -0.00006  -0.00006   1.76611
    A2        1.94432   0.00001   0.00000   0.00007   0.00007   1.94439
    A3        1.94418   0.00002   0.00000   0.00021   0.00021   1.94439
    A4        1.94440   0.00001   0.00000  -0.00002  -0.00002   1.94439
    A5        1.94428   0.00001   0.00000   0.00010   0.00010   1.94439
    A6        1.91683  -0.00003   0.00000  -0.00027  -0.00027   1.91656
    A7        1.93611   0.00002   0.00000   0.00013   0.00013   1.93624
    A8        2.24906  -0.00005   0.00000  -0.00022  -0.00022   2.24883
    A9        2.09802   0.00003   0.00000   0.00010   0.00010   2.09812
   A10        1.89317  -0.00000   0.00000  -0.00007  -0.00007   1.89310
   A11        2.10504   0.00002   0.00000   0.00007   0.00007   2.10512
   A12        2.28498  -0.00001   0.00000  -0.00000  -0.00000   2.28497
   A13        1.89313  -0.00001   0.00000  -0.00004  -0.00004   1.89310
   A14        2.28517  -0.00004   0.00000  -0.00020  -0.00020   2.28497
   A15        2.10488   0.00004   0.00000   0.00024   0.00024   2.10512
   A16        1.93620   0.00001   0.00000   0.00004   0.00004   1.93624
   A17        2.24881  -0.00001   0.00000   0.00002   0.00002   2.24883
   A18        2.09818  -0.00000   0.00000  -0.00006  -0.00006   2.09812
   A19        2.08096  -0.00002   0.00000  -0.00008  -0.00008   2.08088
   A20        2.11031   0.00007   0.00000   0.00050   0.00050   2.11081
   A21        2.09191  -0.00004   0.00000  -0.00042  -0.00042   2.09149
   A22        2.10297   0.00001   0.00000   0.00007   0.00007   2.10305
   A23        2.09014  -0.00002   0.00000  -0.00010  -0.00010   2.09004
   A24        2.09007   0.00001   0.00000   0.00003   0.00003   2.09009
   A25        2.10360   0.00000   0.00000  -0.00000  -0.00000   2.10360
   A26        2.08963   0.00000   0.00000  -0.00001  -0.00001   2.08962
   A27        2.08995  -0.00001   0.00000   0.00001   0.00001   2.08996
   A28        2.07578  -0.00003   0.00000  -0.00017  -0.00017   2.07561
   A29        2.10950   0.00004   0.00000   0.00027   0.00027   2.10978
   A30        2.09791  -0.00001   0.00000  -0.00011  -0.00011   2.09780
   A31        2.07573  -0.00003   0.00000  -0.00012  -0.00012   2.07561
   A32        2.10937   0.00006   0.00000   0.00040   0.00040   2.10978
   A33        2.09808  -0.00003   0.00000  -0.00028  -0.00028   2.09780
   A34        2.10353   0.00002   0.00000   0.00007   0.00007   2.10360
   A35        2.09006  -0.00002   0.00000  -0.00010  -0.00010   2.08996
   A36        2.08960   0.00000   0.00000   0.00002   0.00002   2.08962
   A37        2.10306  -0.00000   0.00000  -0.00002  -0.00002   2.10305
   A38        2.09003   0.00001   0.00000   0.00006   0.00006   2.09009
   A39        2.09009  -0.00001   0.00000  -0.00005  -0.00005   2.09004
   A40        2.08099  -0.00003   0.00000  -0.00011  -0.00011   2.08088
   A41        2.11040   0.00006   0.00000   0.00041   0.00041   2.11081
   A42        2.09179  -0.00003   0.00000  -0.00030  -0.00030   2.09149
   A43        1.93953  -0.00000   0.00000  -0.00002  -0.00002   1.93951
   A44        1.93137  -0.00004   0.00000  -0.00031  -0.00031   1.93106
   A45        1.93129  -0.00003   0.00000  -0.00022  -0.00022   1.93106
   A46        1.88858   0.00002   0.00000   0.00017   0.00017   1.88876
   A47        1.88864   0.00002   0.00000   0.00012   0.00012   1.88876
   A48        1.88264   0.00004   0.00000   0.00029   0.00029   1.88292
   A49        1.93127  -0.00003   0.00000  -0.00021  -0.00021   1.93106
   A50        1.93140  -0.00005   0.00000  -0.00034  -0.00034   1.93106
   A51        1.93953  -0.00000   0.00000  -0.00002  -0.00002   1.93951
   A52        1.88265   0.00004   0.00000   0.00028   0.00028   1.88292
   A53        1.88861   0.00002   0.00000   0.00015   0.00015   1.88876
   A54        1.88859   0.00002   0.00000   0.00017   0.00017   1.88876
    D1       -0.00002  -0.00000   0.00000   0.00002   0.00002  -0.00000
    D2       -3.14159  -0.00000   0.00000  -0.00000  -0.00000   3.14159
    D3       -2.06825  -0.00001   0.00000   0.00005   0.00005  -2.06820
    D4        1.07337  -0.00001   0.00000   0.00002   0.00002   1.07339
    D5        2.06801   0.00001   0.00000   0.00020   0.00020   2.06820
    D6       -1.07356   0.00001   0.00000   0.00017   0.00017  -1.07339
    D7        0.00001   0.00000   0.00000  -0.00001  -0.00001   0.00000
    D8       -3.14155   0.00000   0.00000  -0.00004  -0.00004  -3.14159
    D9        2.06817   0.00001   0.00000   0.00003   0.00003   2.06820
   D10       -1.07339   0.00001   0.00000  -0.00000  -0.00000  -1.07339
   D11       -2.06795  -0.00001   0.00000  -0.00026  -0.00026  -2.06820
   D12        1.07368  -0.00001   0.00000  -0.00029  -0.00029   1.07339
   D13        0.97954  -0.00001   0.00000  -0.00056  -0.00056   0.97898
   D14        3.07821  -0.00001   0.00000  -0.00056  -0.00056   3.07765
   D15       -1.11915  -0.00001   0.00000  -0.00054  -0.00054  -1.11970
   D16       -0.97847   0.00001   0.00000  -0.00052  -0.00052  -0.97898
   D17        1.12021   0.00001   0.00000  -0.00052  -0.00052   1.11969
   D18       -3.07715   0.00001   0.00000  -0.00050  -0.00050  -3.07765
   D19       -3.14115  -0.00000   0.00000  -0.00044  -0.00044   3.14159
   D20       -1.04248  -0.00000   0.00000  -0.00044  -0.00044  -1.04292
   D21        1.04335  -0.00000   0.00000  -0.00043  -0.00043   1.04292
   D22        1.11901   0.00001   0.00000   0.00068   0.00068   1.11969
   D23       -3.07833   0.00001   0.00000   0.00068   0.00068  -3.07765
   D24       -0.97963   0.00001   0.00000   0.00065   0.00065  -0.97898
   D25        3.07686  -0.00000   0.00000   0.00079   0.00079   3.07765
   D26       -1.12048  -0.00000   0.00000   0.00079   0.00079  -1.11969
   D27        0.97822  -0.00000   0.00000   0.00076   0.00076   0.97898
   D28       -1.04357   0.00000   0.00000   0.00065   0.00065  -1.04292
   D29        1.04228   0.00000   0.00000   0.00064   0.00064   1.04292
   D30        3.14098   0.00000   0.00000   0.00061   0.00061  -3.14159
   D31        0.00003   0.00000   0.00000  -0.00003  -0.00003   0.00000
   D32       -3.14155   0.00000   0.00000  -0.00005  -0.00005  -3.14159
   D33       -3.14158   0.00000   0.00000  -0.00001  -0.00001  -3.14159
   D34        0.00002   0.00000   0.00000  -0.00002  -0.00002   0.00000
   D35        3.14155  -0.00000   0.00000   0.00004   0.00004   3.14159
   D36       -0.00008   0.00000   0.00000   0.00008   0.00008  -0.00000
   D37       -0.00001  -0.00000   0.00000   0.00001   0.00001  -0.00000
   D38        3.14154   0.00000   0.00000   0.00006   0.00006   3.14159
   D39       -0.00002   0.00000   0.00000   0.00002   0.00002   0.00000
   D40        3.14159  -0.00000   0.00000   0.00001   0.00001  -3.14159
   D41        3.14155   0.00000   0.00000   0.00004   0.00004   3.14159
   D42       -0.00002   0.00000   0.00000   0.00002   0.00002  -0.00000
   D43       -0.00003   0.00000   0.00000   0.00003   0.00003  -0.00000
   D44        3.14158   0.00000   0.00000   0.00001   0.00001   3.14159
   D45        3.14159  -0.00000   0.00000   0.00000   0.00000  -3.14159
   D46        0.00001  -0.00000   0.00000  -0.00001  -0.00001   0.00000
   D47        0.00001  -0.00000   0.00000  -0.00001  -0.00001  -0.00000
   D48        3.14157  -0.00000   0.00000   0.00002   0.00002   3.14159
   D49        3.14159  -0.00000   0.00000   0.00001   0.00001   3.14159
   D50       -0.00004   0.00000   0.00000   0.00004   0.00004  -0.00000
   D51        3.14158   0.00000   0.00000   0.00002   0.00002  -3.14159
   D52        0.00000   0.00000   0.00000  -0.00000  -0.00000   0.00000
   D53        0.00000   0.00000   0.00000  -0.00000  -0.00000   0.00000
   D54       -3.14157  -0.00000   0.00000  -0.00002  -0.00002  -3.14159
   D55        3.14158   0.00000   0.00000   0.00001   0.00001  -3.14159
   D56        0.00000   0.00000   0.00000  -0.00000  -0.00000   0.00000
   D57        0.00003  -0.00000   0.00000  -0.00003  -0.00003   0.00000
   D58       -3.14155  -0.00000   0.00000  -0.00004  -0.00004  -3.14159
   D59        0.00002  -0.00000   0.00000  -0.00002  -0.00002  -0.00000
   D60       -3.14157  -0.00000   0.00000  -0.00002  -0.00002   3.14159
   D61       -3.14159   0.00000   0.00000  -0.00000  -0.00000   3.14159
   D62        0.00001   0.00000   0.00000  -0.00001  -0.00001   0.00000
   D63       -0.00005   0.00000   0.00000   0.00005   0.00005   0.00000
   D64       -3.14158  -0.00000   0.00000  -0.00001  -0.00001   3.14159
   D65        3.14154   0.00000   0.00000   0.00005   0.00005   3.14159
   D66        0.00001  -0.00000   0.00000  -0.00001  -0.00001  -0.00000
   D67        0.00004  -0.00000   0.00000  -0.00004  -0.00004   0.00000
   D68       -3.14157  -0.00000   0.00000  -0.00002  -0.00002   3.14159
   D69        3.14157   0.00000   0.00000   0.00002   0.00002  -3.14159
   D70       -0.00004   0.00000   0.00000   0.00004   0.00004   0.00000
   D71        0.00001  -0.00000   0.00000  -0.00001  -0.00001  -0.00000
   D72       -3.14158  -0.00000   0.00000  -0.00001  -0.00001   3.14159
   D73        3.14159  -0.00000   0.00000   0.00000   0.00000   3.14159
   D74       -0.00000  -0.00000   0.00000   0.00000   0.00000   0.00000
   D75       -0.00000   0.00000   0.00000   0.00000   0.00000   0.00000
   D76       -3.14157  -0.00000   0.00000  -0.00002  -0.00002  -3.14159
   D77        3.14159   0.00000   0.00000   0.00000   0.00000  -3.14159
   D78        0.00002  -0.00000   0.00000  -0.00002  -0.00002   0.00000
   D79        0.00000  -0.00000   0.00000  -0.00000  -0.00000   0.00000
   D80       -3.14155  -0.00000   0.00000  -0.00004  -0.00004  -3.14159
   D81        3.14157   0.00000   0.00000   0.00002   0.00002  -3.14159
   D82        0.00002  -0.00000   0.00000  -0.00002  -0.00002  -0.00000
         Item               Value     Threshold  Converged?
 Maximum Force            0.000191     0.000450     YES
 RMS     Force            0.000050     0.000300     YES
 Maximum Displacement     0.001412     0.001800     YES
 RMS     Displacement     0.000361     0.001200     YES
 Predicted change in Energy=-5.491595D-07
 Optimization completed.
    -- Stationary point found.
                           ----------------------------
                           !   Optimized Parameters   !
                           ! (Angstroms and Degrees)  !
 --------------------------                            --------------------------
 ! Name  Definition              Value          Derivative Info.                !
 --------------------------------------------------------------------------------
 ! R1    R(1,2)                  1.5293         -DE/DX =   -0.0001              !
 ! R2    R(1,5)                  1.5292         -DE/DX =   -0.0001              !
 ! R3    R(1,22)                 1.5462         -DE/DX =    0.0                 !
 ! R4    R(1,26)                 1.5463         -DE/DX =    0.0                 !
 ! R5    R(2,3)                  1.4102         -DE/DX =   -0.0002              !
 ! R6    R(2,17)                 1.3922         -DE/DX =   -0.0002              !
 ! R7    R(3,4)                  1.4698         -DE/DX =   -0.0001              !
 ! R8    R(3,14)                 1.398          -DE/DX =   -0.0002              !
 ! R9    R(4,5)                  1.4102         -DE/DX =   -0.0002              !
 ! R10   R(4,9)                  1.398          -DE/DX =   -0.0002              !
 ! R11   R(5,6)                  1.3922         -DE/DX =   -0.0002              !
 ! R12   R(6,7)                  1.402          -DE/DX =   -0.0002              !
 ! R13   R(6,13)                 1.0881         -DE/DX =    0.0                 !
 ! R14   R(7,8)                  1.4007         -DE/DX =   -0.0001              !
 ! R15   R(7,12)                 1.0872         -DE/DX =   -0.0001              !
 ! R16   R(8,9)                  1.3986         -DE/DX =   -0.0002              !
 ! R17   R(8,11)                 1.0872         -DE/DX =   -0.0001              !
 ! R18   R(9,10)                 1.0876         -DE/DX =    0.0                 !
 ! R19   R(14,15)                1.3986         -DE/DX =   -0.0002              !
 ! R20   R(14,21)                1.0876         -DE/DX =    0.0                 !
 ! R21   R(15,16)                1.4007         -DE/DX =   -0.0001              !
 ! R22   R(15,20)                1.0872         -DE/DX =   -0.0001              !
 ! R23   R(16,17)                1.402          -DE/DX =   -0.0002              !
 ! R24   R(16,19)                1.0872         -DE/DX =   -0.0001              !
 ! R25   R(17,18)                1.0881         -DE/DX =    0.0                 !
 ! R26   R(22,23)                1.0952         -DE/DX =    0.0                 !
 ! R27   R(22,24)                1.0967         -DE/DX =    0.0                 !
 ! R28   R(22,25)                1.0967         -DE/DX =    0.0                 !
 ! R29   R(26,27)                1.0967         -DE/DX =    0.0                 !
 ! R30   R(26,28)                1.0967         -DE/DX =    0.0                 !
 ! R31   R(26,29)                1.0952         -DE/DX =    0.0                 !
 ! A1    A(2,1,5)              101.1942         -DE/DX =    0.0                 !
 ! A2    A(2,1,22)             111.4013         -DE/DX =    0.0                 !
 ! A3    A(2,1,26)             111.3933         -DE/DX =    0.0                 !
 ! A4    A(5,1,22)             111.4061         -DE/DX =    0.0                 !
 ! A5    A(5,1,26)             111.3992         -DE/DX =    0.0                 !
 ! A6    A(22,1,26)            109.8264         -DE/DX =    0.0                 !
 ! A7    A(1,2,3)              110.9309         -DE/DX =    0.0                 !
 ! A8    A(1,2,17)             128.8616         -DE/DX =    0.0                 !
 ! A9    A(3,2,17)             120.2075         -DE/DX =    0.0                 !
 ! A10   A(2,3,4)              108.4704         -DE/DX =    0.0                 !
 ! A11   A(2,3,14)             120.61           -DE/DX =    0.0                 !
 ! A12   A(4,3,14)             130.9195         -DE/DX =    0.0                 !
 ! A13   A(3,4,5)              108.4686         -DE/DX =    0.0                 !
 ! A14   A(3,4,9)              130.9306         -DE/DX =    0.0                 !
 ! A15   A(5,4,9)              120.6008         -DE/DX =    0.0                 !
 ! A16   A(1,5,4)              110.9359         -DE/DX =    0.0                 !
 ! A17   A(1,5,6)              128.8474         -DE/DX =    0.0                 !
 ! A18   A(4,5,6)              120.2167         -DE/DX =    0.0                 !
 ! A19   A(5,6,7)              119.2302         -DE/DX =    0.0                 !
 ! A20   A(5,6,13)             120.912          -DE/DX =    0.0001              !
 ! A21   A(7,6,13)             119.8577         -DE/DX =    0.0                 !
 ! A22   A(6,7,8)              120.4915         -DE/DX =    0.0                 !
 ! A23   A(6,7,12)             119.7565         -DE/DX =    0.0                 !
 ! A24   A(8,7,12)             119.7521         -DE/DX =    0.0                 !
 ! A25   A(7,8,9)              120.5276         -DE/DX =    0.0                 !
 ! A26   A(7,8,11)             119.7271         -DE/DX =    0.0                 !
 ! A27   A(9,8,11)             119.7452         -DE/DX =    0.0                 !
 ! A28   A(4,9,8)              118.9332         -DE/DX =    0.0                 !
 ! A29   A(4,9,10)             120.8655         -DE/DX =    0.0                 !
 ! A30   A(8,9,10)             120.2012         -DE/DX =    0.0                 !
 ! A31   A(3,14,15)            118.9306         -DE/DX =    0.0                 !
 ! A32   A(3,14,21)            120.8581         -DE/DX =    0.0001              !
 ! A33   A(15,14,21)           120.2112         -DE/DX =    0.0                 !
 ! A34   A(14,15,16)           120.5231         -DE/DX =    0.0                 !
 ! A35   A(14,15,20)           119.7518         -DE/DX =    0.0                 !
 ! A36   A(16,15,20)           119.7251         -DE/DX =    0.0                 !
 ! A37   A(15,16,17)           120.4967         -DE/DX =    0.0                 !
 ! A38   A(15,16,19)           119.7499         -DE/DX =    0.0                 !
 ! A39   A(17,16,19)           119.7533         -DE/DX =    0.0                 !
 ! A40   A(2,17,16)            119.2319         -DE/DX =    0.0                 !
 ! A41   A(2,17,18)            120.9172         -DE/DX =    0.0001              !
 ! A42   A(16,17,18)           119.8508         -DE/DX =    0.0                 !
 ! A43   A(1,22,23)            111.1272         -DE/DX =    0.0                 !
 ! A44   A(1,22,24)            110.6593         -DE/DX =    0.0                 !
 ! A45   A(1,22,25)            110.6545         -DE/DX =    0.0                 !
 ! A46   A(23,22,24)           108.2079         -DE/DX =    0.0                 !
 ! A47   A(23,22,25)           108.2109         -DE/DX =    0.0                 !
 ! A48   A(24,22,25)           107.8673         -DE/DX =    0.0                 !
 ! A49   A(1,26,27)            110.6537         -DE/DX =    0.0                 !
 ! A50   A(1,26,28)            110.6612         -DE/DX =    0.0                 !
 ! A51   A(1,26,29)            111.1269         -DE/DX =    0.0                 !
 ! A52   A(27,26,28)           107.8677         -DE/DX =    0.0                 !
 ! A53   A(27,26,29)           108.2094         -DE/DX =    0.0                 !
 ! A54   A(28,26,29)           108.2081         -DE/DX =    0.0                 !
 ! D1    D(5,1,2,3)             -0.0012         -DE/DX =    0.0                 !
 ! D2    D(5,1,2,17)           180.0001         -DE/DX =    0.0                 !
 ! D3    D(22,1,2,3)          -118.5019         -DE/DX =    0.0                 !
 ! D4    D(22,1,2,17)           61.4994         -DE/DX =    0.0                 !
 ! D5    D(26,1,2,3)           118.488          -DE/DX =    0.0                 !
 ! D6    D(26,1,2,17)          -61.5107         -DE/DX =    0.0                 !
 ! D7    D(2,1,5,4)              0.0004         -DE/DX =    0.0                 !
 ! D8    D(2,1,5,6)           -179.9976         -DE/DX =    0.0                 !
 ! D9    D(22,1,5,4)           118.4976         -DE/DX =    0.0                 !
 ! D10   D(22,1,5,6)           -61.5005         -DE/DX =    0.0                 !
 ! D11   D(26,1,5,4)          -118.4846         -DE/DX =    0.0                 !
 ! D12   D(26,1,5,6)            61.5174         -DE/DX =    0.0                 !
 ! D13   D(2,1,22,23)           56.1233         -DE/DX =    0.0                 !
 ! D14   D(2,1,22,24)          176.3686         -DE/DX =    0.0                 !
 ! D15   D(2,1,22,25)          -64.1226         -DE/DX =    0.0                 !
 ! D16   D(5,1,22,23)          -56.0619         -DE/DX =    0.0                 !
 ! D17   D(5,1,22,24)           64.1834         -DE/DX =    0.0                 !
 ! D18   D(5,1,22,25)         -176.3078         -DE/DX =    0.0                 !
 ! D19   D(26,1,22,23)         180.0252         -DE/DX =    0.0                 !
 ! D20   D(26,1,22,24)         -59.7296         -DE/DX =    0.0                 !
 ! D21   D(26,1,22,25)          59.7793         -DE/DX =    0.0                 !
 ! D22   D(2,1,26,27)           64.1146         -DE/DX =    0.0                 !
 ! D23   D(2,1,26,28)         -176.3753         -DE/DX =    0.0                 !
 ! D24   D(2,1,26,29)          -56.1287         -DE/DX =    0.0                 !
 ! D25   D(5,1,26,27)          176.2911         -DE/DX =    0.0                 !
 ! D26   D(5,1,26,28)          -64.1987         -DE/DX =    0.0                 !
 ! D27   D(5,1,26,29)           56.0479         -DE/DX =    0.0                 !
 ! D28   D(22,1,26,27)         -59.792          -DE/DX =    0.0                 !
 ! D29   D(22,1,26,28)          59.7182         -DE/DX =    0.0                 !
 ! D30   D(22,1,26,29)        -180.0352         -DE/DX =    0.0                 !
 ! D31   D(1,2,3,4)              0.0016         -DE/DX =    0.0                 !
 ! D32   D(1,2,3,14)          -179.9974         -DE/DX =    0.0                 !
 ! D33   D(17,2,3,4)          -179.9995         -DE/DX =    0.0                 !
 ! D34   D(17,2,3,14)            0.0014         -DE/DX =    0.0                 !
 ! D35   D(1,2,17,16)          179.9978         -DE/DX =    0.0                 !
 ! D36   D(1,2,17,18)           -0.0046         -DE/DX =    0.0                 !
 ! D37   D(3,2,17,16)           -0.0008         -DE/DX =    0.0                 !
 ! D38   D(3,2,17,18)          179.9968         -DE/DX =    0.0                 !
 ! D39   D(2,3,4,5)             -0.0014         -DE/DX =    0.0                 !
 ! D40   D(2,3,4,9)           -180.0003         -DE/DX =    0.0                 !
 ! D41   D(14,3,4,5)           179.9975         -DE/DX =    0.0                 !
 ! D42   D(14,3,4,9)            -0.0014         -DE/DX =    0.0                 !
 ! D43   D(2,3,14,15)           -0.0014         -DE/DX =    0.0                 !
 ! D44   D(2,3,14,21)          179.9995         -DE/DX =    0.0                 !
 ! D45   D(4,3,14,15)         -180.0002         -DE/DX =    0.0                 !
 ! D46   D(4,3,14,21)            0.0008         -DE/DX =    0.0                 !
 ! D47   D(3,4,5,1)              0.0006         -DE/DX =    0.0                 !
 ! D48   D(3,4,5,6)            179.9988         -DE/DX =    0.0                 !
 ! D49   D(9,4,5,1)            179.9996         -DE/DX =    0.0                 !
 ! D50   D(9,4,5,6)             -0.0022         -DE/DX =    0.0                 !
 ! D51   D(3,4,9,8)           -180.001          -DE/DX =    0.0                 !
 ! D52   D(3,4,9,10)             0.0001         -DE/DX =    0.0                 !
 ! D53   D(5,4,9,8)              0.0002         -DE/DX =    0.0                 !
 ! D54   D(5,4,9,10)          -179.9987         -DE/DX =    0.0                 !
 ! D55   D(1,5,6,7)           -180.0006         -DE/DX =    0.0                 !
 ! D56   D(1,5,6,13)             0.0002         -DE/DX =    0.0                 !
 ! D57   D(4,5,6,7)              0.0016         -DE/DX =    0.0                 !
 ! D58   D(4,5,6,13)          -179.9977         -DE/DX =    0.0                 !
 ! D59   D(5,6,7,8)              0.0009         -DE/DX =    0.0                 !
 ! D60   D(5,6,7,12)           180.0011         -DE/DX =    0.0                 !
 ! D61   D(13,6,7,8)           180.0002         -DE/DX =    0.0                 !
 ! D62   D(13,6,7,12)            0.0003         -DE/DX =    0.0                 !
 ! D63   D(6,7,8,9)             -0.0029         -DE/DX =    0.0                 !
 ! D64   D(6,7,8,11)           180.0008         -DE/DX =    0.0                 !
 ! D65   D(12,7,8,9)           179.9969         -DE/DX =    0.0                 !
 ! D66   D(12,7,8,11)            0.0006         -DE/DX =    0.0                 !
 ! D67   D(7,8,9,4)              0.0023         -DE/DX =    0.0                 !
 ! D68   D(7,8,9,10)           180.0012         -DE/DX =    0.0                 !
 ! D69   D(11,8,9,4)          -180.0014         -DE/DX =    0.0                 !
 ! D70   D(11,8,9,10)           -0.0025         -DE/DX =    0.0                 !
 ! D71   D(3,14,15,16)           0.0009         -DE/DX =    0.0                 !
 ! D72   D(3,14,15,20)         180.0007         -DE/DX =    0.0                 !
 ! D73   D(21,14,15,16)        179.9999         -DE/DX =    0.0                 !
 ! D74   D(21,14,15,20)         -0.0003         -DE/DX =    0.0                 !
 ! D75   D(14,15,16,17)         -0.0002         -DE/DX =    0.0                 !
 ! D76   D(14,15,16,19)       -179.9987         -DE/DX =    0.0                 !
 ! D77   D(20,15,16,17)       -180.0001         -DE/DX =    0.0                 !
 ! D78   D(20,15,16,19)          0.0014         -DE/DX =    0.0                 !
 ! D79   D(15,16,17,2)           0.0002         -DE/DX =    0.0                 !
 ! D80   D(15,16,17,18)       -179.9974         -DE/DX =    0.0                 !
 ! D81   D(19,16,17,2)        -180.0013         -DE/DX =    0.0                 !
 ! D82   D(19,16,17,18)          0.0011         -DE/DX =    0.0                 !
 --------------------------------------------------------------------------------
 GradGradGradGradGradGradGradGradGradGradGradGradGradGradGradGradGradGrad

 Leave Link  103 at Fri Mar 13 23:52:44 2026, MaxMem=   104857600 cpu:               0.0 elap:               0.0
 (Enter /sw/cluster/pub/apps//g16/l9999.exe)

 ----------------------------------------------------------------------

 Electric dipole moment (input orientation):
 (Debye = 10**-18 statcoulomb cm , SI units = C m)
                  (au)            (Debye)         (10**-30 SI)
   Tot        0.205191D+00      0.521544D+00      0.173968D+01
   x         -0.135189D+00     -0.343615D+00     -0.114618D+01
   y         -0.154351D+00     -0.392321D+00     -0.130864D+01
   z          0.177039D-02      0.449988D-02      0.150100D-01

 Dipole polarizability, Alpha (input orientation).
 (esu units = cm**3 , SI units = C**2 m**2 J**-1)
 Alpha(0;0):
               (au)            (10**-24 esu)      (10**-40 SI)
   iso        0.174898D+03      0.259172D+02      0.288368D+02
   aniso      0.117265D+03      0.173768D+02      0.193343D+02
   xx         0.214286D+03      0.317539D+02      0.353310D+02
   yx        -0.267292D+02     -0.396085D+01     -0.440704D+01
   yy         0.207164D+03      0.306985D+02      0.341567D+02
   zx         0.129666D+01      0.192146D+00      0.213791D+00
   zy        -0.205118D+01     -0.303954D+00     -0.338195D+00
   zz         0.103245D+03      0.152993D+02      0.170227D+02

 ----------------------------------------------------------------------

 Dipole orientation:
     6          0.05604033          0.05093792         -0.01651851
     6          1.76169097         -1.39133108         -1.85016852
     6          1.11777929         -0.84653527         -4.37806313
     6         -1.00292555          0.94701843         -4.37896430
     6         -1.64827884          1.49251938         -1.85160119
     6         -3.61506979          3.15590307         -1.31678101
     6         -4.94104072          4.27753881         -3.31751052
     6         -4.29803262          3.73388842         -5.82696655
     6         -2.32391619          2.06441163         -6.37551054
     1         -1.83311095          1.64949681         -8.32767381
     1         -5.34199850          4.61700506         -7.36039732
     1         -6.47984270          5.57900372         -2.91833789
     1         -4.13101452          3.59212205          0.62529198
     6          2.43961609         -1.96433668         -6.37382380
     6          4.41345695         -3.63370340         -5.82398735
     6          5.05518009         -4.17661623         -3.31405867
     6          3.72828082         -3.05456679         -1.31417224
     1          4.24359881         -3.49042842          0.62815236
     1          6.59386224         -5.47789591         -2.91379318
     1          5.45829966         -4.51724071         -7.35657699
     1          1.94945945         -1.54964478         -8.32618471
     6          1.59944661          1.87660121          1.66356896
     1          2.70994824          3.19058031          0.51298959
     1          0.34378021          2.98589019          2.88331896
     1          2.90247673          0.82290082          2.88289818
     6         -1.48848802         -1.77473707          1.66260195
     1         -0.23333585         -2.88539846          2.88160082
     1         -2.79094690         -0.72111315          2.88263500
     1         -2.59978959         -3.08741216          0.51129661

 Electric dipole moment (dipole orientation):
 (Debye = 10**-18 statcoulomb cm , SI units = C m)
                  (au)            (Debye)         (10**-30 SI)
   Tot        0.205191D+00      0.521544D+00      0.173968D+01
   x          0.000000D+00      0.000000D+00      0.000000D+00
   y          0.000000D+00      0.000000D+00      0.000000D+00
   z          0.205191D+00      0.521544D+00      0.173968D+01

 Dipole polarizability, Alpha (dipole orientation).
 (esu units = cm**3 , SI units = C**2 m**2 J**-1)
 Alpha(0;0):
               (au)            (10**-24 esu)      (10**-40 SI)
   iso        0.174898D+03      0.259172D+02      0.288368D+02
   aniso      0.117265D+03      0.173768D+02      0.193343D+02
   xx         0.181630D+03      0.269149D+02      0.299468D+02
   yx        -0.663327D+02     -0.982949D+01     -0.109368D+02
   yy         0.159298D+03      0.236056D+02      0.262648D+02
   zx         0.548332D-02      0.812544D-03      0.904078D-03
   zy        -0.128677D-01     -0.190680D-02     -0.212160D-02
   zz         0.183765D+03      0.272312D+02      0.302988D+02

 ----------------------------------------------------------------------
 1\1\GINC-N07\Freq\RB3LYP\6-31+G(d)\C15H14\UNKNOWN\13-Mar-2026\0\\#P Ge
 om=AllCheck Guess=TCheck SCRF=Check GenChk RB3LYP/6-31+G(d) Freq\\OPT 
 FREQ F1 6-31+G*\\0,1\C,0.0094071104,0.0038369613,0.0397392725\C,1.5378
 665785,-0.0447972539,0.0519189483\C,2.0834464802,1.2554514447,0.032744
 0784\C,0.9781394834,2.2238794298,0.0073154331\C,-0.2393877288,1.512353
 5636,0.0109996425\C,-1.4512288489,2.1972712094,-0.0101376859\C,-1.4450
 309044,3.5990240704,-0.0350831698\C,-0.2349350184,4.304461468,-0.03876
 66203\C,0.9854833464,3.6216865664,-0.0175633977\H,1.9219284539,4.17476
 72301,-0.0205222033\H,-0.2446315223,5.3914647071,-0.0582046813\H,-2.38
 64608949,4.1425784072,-0.0516903425\H,-2.3972735423,1.6596928515,-0.00
 75092954\C,3.4683607792,1.4465208437,0.0395275885\C,4.3057228502,0.326
 6180793,0.0656934671\C,3.7652573559,-0.9654725608,0.0847728282\C,2.376
 2740335,-1.1558811086,0.0779341394\H,1.9677619503,-2.1642933972,0.0929
 64638\H,4.4278831328,-1.8271797865,0.1050619836\H,5.3847450526,0.45975
 97237,0.071271124\H,3.8934611165,2.4474680294,0.0247967417\C,-0.585807
 5504,-0.6421505788,1.3122404429\H,-0.191572675,-0.1676559934,2.2172048
 167\H,-1.6780100011,-0.5435014647,1.3215953483\H,-0.3441540485,-1.7111
 099492,1.3526626414\C,-0.5668837226,-0.6870642903,-1.2178204912\H,-0.3
 247364888,-1.7566752469,-1.2167662864\H,-1.6588160633,-0.5892921262,-1
 .2469364709\H,-0.1591587143,-0.2447518289,-2.1330544897\\Version=ES64L
 -G16RevA.03\State=1-A\HF=-580.0697506\RMSD=3.352e-09\RMSF=5.312e-05\Ze
 roPoint=0.2441614\Thermal=0.2560648\Dipole=-0.1351887,-0.154351,0.0017
 704\DipoleDeriv=0.0912124,-0.0539753,0.000225,-0.0539112,0.0769511,0.0
 015377,0.000184,0.0014948,0.187028,0.1516778,0.0795487,0.0006189,0.166
 9834,-0.2583095,0.0037417,-0.0009413,0.0031028,-0.1183407,0.0928027,-0
 .0752968,0.0019798,-0.2666942,0.0755734,-0.0032162,0.0054052,-0.001803
 3,0.0060074,0.1204934,-0.2631139,0.0055336,-0.0716063,0.0479592,-0.001
 2813,0.0021106,-0.0026788,0.0060108,-0.2834017,0.1093019,-0.0031613,0.
 0219126,0.1766541,-0.0050577,-0.0016015,-0.0044247,-0.1181983,0.186339
 9,0.0198236,0.0019879,-0.0109626,-0.0287458,-0.0019198,0.0025396,-0.00
 16861,-0.1310772,0.0435814,-0.0128568,0.0016435,0.0968142,-0.0805561,-
 0.0005049,-0.0003144,-0.001316,-0.1492985,-0.1256644,0.0680406,-0.0010
 357,-0.0342994,0.1152732,-0.0049836,0.000795,-0.0042006,-0.1496693,0.0
 511028,0.0769255,-0.0000802,0.0581468,-0.0014467,-0.001746,0.0002447,-
 0.0016202,-0.1233517,-0.0659092,-0.099404,0.0003337,-0.061228,0.025986
 6,0.0013839,-0.0003445,0.0011113,0.1289396,0.0577546,0.0057622,-0.0007
 02,0.0214286,-0.1466392,0.0052534,-0.0009795,0.0051181,0.1389375,-0.08
 63445,0.0972636,-0.0034069,0.0881574,-0.0004786,0.0031725,-0.0032448,0
 .0032404,0.140989,-0.0701432,-0.0632891,-0.0002714,-0.1065387,0.023134
 9,0.0009455,0.0005028,0.0012641,0.1201432,-0.0181981,0.0489811,-0.0001
 009,0.067674,0.0677357,-0.0029116,-0.0004255,-0.0030499,-0.123311,0.10
 68416,-0.0035278,0.0019518,0.0988155,-0.1170682,0.0001442,0.0001163,-0
 .0006034,-0.1497171,-0.0893499,0.0791553,-0.0009639,-0.0304427,0.05228
 52,-0.0038253,0.0010009,-0.0030263,-0.1492655,-0.0262135,-0.0391067,0.
 0014539,-0.0084215,0.183739,-0.0056844,0.0009051,-0.0059282,-0.1310088
 ,0.0436306,-0.0914223,0.0010692,-0.0482065,-0.0906391,0.0034101,0.0002
 999,0.0030989,0.1201046,-0.0261755,0.0961337,-0.0029511,0.1052457,-0.0
 60661,0.0043795,-0.0031195,0.0043196,0.1409676,-0.1467223,-0.0056693,-
 0.0020058,-0.0213045,0.0578013,0.0012936,-0.0017242,0.0014082,0.138997
 7,0.0453461,-0.046441,0.0002126,-0.0846508,-0.0851876,0.0031982,0.0008
 946,0.0034767,0.1289037,0.0521915,0.0295184,0.0047839,0.0281175,0.0586
 317,0.0060512,-0.0468955,-0.0528752,0.049313,0.0398617,-0.0290139,-0.0
 706286,-0.0279644,0.0294177,-0.0847473,-0.0318007,-0.0403738,-0.088758
 ,-0.1818092,-0.0228896,0.0384283,0.0262613,0.0694872,0.0115776,-0.0003
 285,0.0175934,0.0420164,0.0640358,0.0591182,0.005602,0.0092492,-0.1758
 332,0.0449006,0.0178531,0.0085723,0.0415747,0.0515962,0.0285523,-0.005
 7597,0.0298498,0.0602784,-0.0059902,0.0459558,0.0529641,0.0482143,0.06
 43843,0.0589786,-0.0073648,0.0092536,-0.1774405,-0.0370003,-0.0178556,
 0.0000579,0.0428189,-0.1812153,-0.0240684,-0.0409262,0.0263288,0.06841
 64,-0.0121471,-0.0039532,-0.018897,0.0424705,0.0382938,-0.0270288,0.07
 35345,-0.0280076,0.0336803,0.0800258,0.0347211,0.035661,-0.0914408\Pol
 ar=214.285831,-26.7291523,207.1636666,1.2966644,-2.051184,103.2446344\
 Quadrupole=3.2159785,3.3748219,-6.5908005,0.6127604,0.0613277,-0.17339
 68\PG=C01 [X(C15H14)]\NImag=0\\0.47806653,0.02830403,0.48573561,-0.000
 16903,-0.00081385,0.42958535,-0.16467293,0.01441412,-0.00095324,0.6116
 5950,-0.00570910,-0.08746041,0.00026811,-0.06720198,0.70095849,-0.0005
 9611,0.00041632,-0.07025667,0.00439726,-0.00981140,0.17921851,-0.02130
 276,-0.02292296,0.00022417,-0.14437015,-0.03737086,0.00014050,0.747226
 40,-0.01636333,-0.00368815,0.00001407,-0.09504500,-0.25596831,0.002562
 24,0.02042609,0.59917394,0.00010486,-0.00003230,0.00399387,0.00117080,
 0.00298634,-0.07313662,0.00399158,-0.00775272,0.15638844,0.00112151,-0
 .01339325,0.00021506,0.00925786,0.01680443,-0.00028222,-0.17035355,0.0
 6997084,-0.00204303,0.59654218,-0.01995761,-0.02610600,0.00039042,0.01
 838325,-0.05243234,0.00119419,0.05499631,-0.15377258,0.00203331,0.0004
 3363,0.74981843,0.00033482,0.00043774,0.00398697,-0.00031103,0.0011834
 5,0.00692241,-0.00177714,0.00214431,-0.06256784,0.00324516,-0.01058294
 ,0.15643232,-0.08993611,0.00420813,-0.00021862,-0.02443116,0.03486417,
 -0.00081585,-0.05597085,0.00816344,-0.00061069,-0.23686810,-0.04961967
 ,-0.00032740,0.71711013,0.02432975,-0.16233183,0.00182559,0.02256456,-
 0.01681510,0.00050177,0.00974135,0.01277437,-0.00003184,-0.10729718,-0
 .16350958,0.00081934,-0.05323486,0.59570868,-0.00057740,0.00167421,-0.
 07027511,-0.00059960,0.00059598,0.00202538,-0.00063867,-0.00004342,0.0
 0694293,0.00070246,0.00124471,-0.07310911,0.00491780,-0.00781705,0.179
 19534,0.00519823,0.00836853,-0.00010817,0.00081239,-0.00363483,0.00006
 839,-0.00094332,-0.00439456,0.00003676,-0.05506023,-0.01906487,-0.0001
 1895,-0.29391679,0.11430117,-0.00374435,0.72293241,0.02350392,-0.01257
 674,0.00039246,-0.00106775,-0.00461627,0.00007969,-0.00644556,-0.00035
 888,0.00004242,0.02395788,0.05817704,-0.00073194,0.06104210,-0.1742952
 8,0.00244710,0.03085985,0.67155557,-0.00037895,0.00028210,-0.00022084,
 0.00002273,0.00006053,0.00028432,0.00007309,0.00005780,0.00469706,-0.0
 0088712,-0.00104918,0.00724896,-0.00279292,0.00283936,-0.06237996,0.00
 379344,-0.00938079,0.13292837,-0.00445276,0.00169126,-0.00010939,-0.00
 089970,-0.00012990,-0.00000600,-0.00170652,0.00185260,-0.00003889,-0.0
 1584696,-0.03109843,0.00048433,0.03138937,0.03149820,-0.00037705,-0.12
 686300,0.02938024,-0.00101818,0.71536509,0.00318960,0.00534014,0.00004
 234,0.00078068,-0.00275426,0.00005819,0.00031519,-0.00019743,-0.000010
 55,-0.02888094,-0.04840213,0.00053736,0.07676699,-0.02927651,0.0012007
 2,-0.03516574,-0.32731640,0.00451179,-0.03389465,0.67274632,-0.0001362
 7,0.00003003,0.00633390,-0.00002206,0.00005163,0.00020256,-0.00001140,
 0.00000086,-0.00091231,0.00044506,0.00052147,-0.00633376,-0.00118510,0
 .00086683,0.00631344,0.00013345,0.00498714,-0.05978037,0.00490612,-0.0
 0992097,0.13048405,-0.00256871,-0.00301170,0.00004029,0.00055837,0.004
 54083,-0.00007721,0.00436378,-0.00714425,0.00011209,0.03029107,0.07704
 349,-0.00119770,-0.06451801,0.00123883,-0.00045722,0.03313687,-0.07345
 074,0.00150330,-0.27640894,-0.05505050,-0.00059717,0.65755653,-0.00063
 557,0.00010789,-0.00002239,0.00049249,-0.00125350,0.00002760,-0.003756
 56,-0.00302356,0.00014187,0.03161813,-0.02897116,0.00086404,-0.0019181
 9,0.00027924,-0.00011685,-0.02702541,-0.02814721,0.00042689,-0.1195533
 6,-0.17906969,0.00121683,-0.00200567,0.73693881,-0.00000118,-0.0000395
 6,-0.00086433,-0.00000528,0.00005752,0.00009484,0.00005135,0.00011666,
 0.00647608,-0.00038702,0.00119840,0.00632412,-0.00040106,-0.00009393,-
 0.00549177,0.00067474,0.00008369,0.00691587,0.00055207,0.00169191,-0.0
 6155200,0.00391726,-0.01081829,0.13133526,-0.00363660,-0.00066422,-0.0
 0006227,-0.00558713,0.00004331,-0.00005922,0.00698925,0.02797892,-0.00
 046287,-0.12700631,-0.03475763,0.00015878,0.03174062,-0.02814966,0.000
 69387,-0.01650271,0.02845140,-0.00059347,-0.05765777,-0.02332384,-0.00
 006361,-0.28610639,0.11948531,-0.00380510,0.71811538,-0.00287029,-0.00
 154440,0.00012190,0.00184467,0.00671115,-0.00006435,0.01032026,-0.0234
 3962,0.00053130,0.01421529,-0.32756836,0.00479565,-0.06631085,-0.02371
 004,0.00003618,0.02582755,-0.04625877,0.00092923,0.02385609,0.06064893
 ,-0.00077528,0.05675043,-0.17651119,0.00250425,0.03467484,0.67882803,-
 0.00002386,0.00013848,0.00649736,-0.00009113,-0.00007791,0.00231650,-0
 .00014755,0.00066126,0.00204961,-0.00071481,0.00443505,-0.06464073,0.0
 0137482,0.00031696,0.00573138,-0.00054724,0.00094928,-0.00484315,-0.00
 090413,-0.00112357,0.00733232,-0.00268695,0.00296773,-0.05972341,0.003
 70512,-0.00949134,0.13269206,-0.00004477,0.00029525,-0.00000596,0.0000
 9566,-0.00026882,0.00000572,-0.00051941,0.00032781,0.00001574,0.004048
 70,-0.00023101,0.00001023,0.00158510,0.00071943,-0.00005238,0.00021829
 ,0.00056068,-0.00000437,-0.00284642,0.00430988,-0.00015079,-0.01912992
 ,-0.01672832,0.00013534,-0.26382009,-0.11965754,0.00045247,0.28006755,
 -0.00152907,-0.00013742,-0.00000790,-0.00028352,-0.00021155,0.00000112
 ,-0.00018766,0.00169316,-0.00009304,-0.02966168,-0.01062876,0.00002809
 ,0.00203430,-0.00507492,0.00022952,0.00070246,-0.00083182,0.00001030,0
 .00305416,-0.00099740,0.00016815,0.01479636,0.01210132,-0.00005355,-0.
 12154374,-0.13228734,0.00082385,0.13121145,0.13590064,0.00002661,0.000
 00547,0.00004839,0.00000592,0.00000130,-0.00003070,0.00002487,-0.00008
 910,-0.00344035,0.00053506,0.00024501,0.00322454,-0.00007555,0.0002196
 7,0.00693849,-0.00000691,0.00000945,-0.00054485,-0.00012843,0.00017752
 ,0.00715898,-0.00042751,-0.00028652,0.00298219,0.00048682,0.00083811,-
 0.03587021,-0.00045335,-0.00102347,0.02429044,0.00006672,0.00001545,0.
 00000609,-0.00037895,0.00022647,-0.00000486,0.00081403,0.00093734,-0.0
 0001447,-0.00498784,0.00216245,-0.00012896,-0.00133732,0.00009610,-0.0
 0000666,-0.00456303,-0.00203453,-0.00004618,0.00475597,-0.02878735,0.0
 0052916,-0.05986973,0.00232717,-0.00022183,0.00416358,0.02897821,-0.00
 050501,0.00110251,-0.00050484,0.00004685,0.05907265,0.00004090,0.00002
 746,-0.00001438,0.00026691,-0.00020663,0.00000088,-0.00065867,-0.00024
 959,0.00000856,0.00311631,0.00067584,0.00014021,-0.00008199,0.00070943
 ,-0.00002513,-0.00310650,0.00050195,0.00008662,0.00269341,-0.01186818,
 0.00027696,0.00232759,-0.33770584,0.00540393,-0.00216551,-0.01136786,0
 .00023320,0.00029663,0.00090955,-0.00008577,-0.00261097,0.35859603,0.0
 0000564,-0.00001455,-0.00079668,-0.00000563,0.00000052,-0.00026767,0.0
 0001401,0.00002043,0.00050156,-0.00014626,0.00013310,0.00725136,-0.000
 00325,-0.00002390,-0.00066551,-0.00002693,0.00009467,0.00664131,-0.000
 03194,0.00004553,0.00256139,-0.00022135,0.00540214,-0.03550142,0.00004
 959,0.00046405,0.00260733,0.00003257,-0.00009178,-0.00402483,0.0002961
 7,-0.00595981,0.02532866,0.00013658,-0.00030784,0.00000253,-0.00001622
 ,0.00007263,-0.00000137,0.00011275,0.,0.00000588,0.00021918,-0.0009550
 7,0.00002388,0.00152041,-0.00048687,-0.00002959,0.00386848,-0.00212447
 ,0.00004605,-0.26844174,0.12023852,-0.00386026,-0.01899386,0.01614582,
 -0.00044732,-0.00296293,-0.00404670,0.00000226,-0.00106381,0.00080482,
 -0.00002414,0.00097245,-0.00031991,0.00004134,0.28383837,0.00135293,0.
 00050328,0.00001082,-0.00009745,-0.00059761,0.00000980,0.00006016,0.00
 011845,-0.00001391,-0.00081080,-0.00085335,-0.00000342,-0.00145567,-0.
 00600799,0.00021643,0.02899669,-0.01106195,0.00045949,0.12031199,-0.12
 921332,0.00256748,-0.01534273,0.01188259,-0.00027727,-0.00298682,-0.00
 110116,0.00011473,-0.00083789,0.00041475,-0.00000910,0.00047238,0.0008
 8855,-0.00008150,-0.12964190,0.13388694,-0.00002721,-0.00000148,0.0005
 4580,0.00000172,0.00001111,-0.00000656,0.00000490,-0.00001443,-0.00068
 650,0.00002129,-0.00000422,-0.00071065,-0.00001270,0.00022360,0.006729
 76,-0.00050867,0.00023047,0.00274324,-0.00386141,0.00256696,-0.0348727
 8,0.00011407,-0.00004583,0.00266711,-0.00001682,0.00010690,0.00656384,
 0.00000524,0.00000305,0.00025475,0.00002732,-0.00008733,-0.00387831,0.
 00421538,-0.00289897,0.02480203,0.00080167,-0.00128870,0.00005487,-0.0
 0024174,0.00010893,-0.00000216,-0.00088441,-0.00125158,0.00001473,-0.0
 0217190,0.00399649,-0.00014291,-0.02037710,-0.01583310,0.00010666,-0.2
 6726803,-0.11774521,0.00040254,0.00340314,0.00173786,-0.00002717,0.001
 75122,0.00041707,-0.00004616,-0.00004003,0.00087142,-0.00001243,-0.000
 03197,-0.00016834,0.00001292,0.00003311,0.00016486,-0.00000454,0.00087
 074,-0.00035971,0.00004139,0.28377660,-0.00041157,-0.00002169,-0.00006
 531,0.00010520,0.00030746,-0.00000851,0.00060733,0.00049185,-0.0000017
 5,0.00297204,-0.00112039,0.00017710,0.01288733,0.01332435,-0.00008075,
 -0.11571893,-0.12661383,0.00075544,-0.02978830,-0.01081876,0.00002512,
 0.00170092,-0.00558836,0.00023731,0.00074000,-0.00062541,0.00000832,-0
 .00009638,0.00011586,-0.00002742,-0.00147818,-0.00069276,0.00000599,0.
 00043944,0.00115445,-0.00008663,0.12783186,0.13093403,0.00003912,-0.00
 007172,-0.00351270,-0.00000204,-0.00000845,-0.00021641,-0.00001841,-0.
 00001547,0.00014064,-0.00012487,0.00018477,0.00757735,-0.00040549,-0.0
 0029193,0.00347930,0.00036673,0.00074046,-0.03651884,0.00053512,0.0002
 5734,0.00287569,-0.00006937,0.00022785,0.00701758,-0.00000990,0.000009
 12,-0.00046540,0.00001169,-0.00002795,-0.00138076,0.00002476,0.0000180
 4,0.00025070,0.00002709,-0.00009251,-0.00388369,-0.00037535,-0.0009508
 6,0.02490633,-0.00112174,-0.00253622,-0.00001133,-0.01044644,-0.071896
 88,0.00116447,-0.32149220,-0.01157670,-0.00168509,-0.02791916,0.005695
 13,-0.00032234,0.00625405,0.00341457,-0.00003125,-0.00195800,0.0017650
 0,-0.00004848,0.00047283,-0.00138885,0.00002868,-0.00090987,-0.0002258
 2,-0.00000263,0.00183687,-0.00443584,0.00009291,0.00034069,-0.00031761
 ,0.00000954,0.00006996,-0.00001122,0.00000069,-0.00005295,-0.00000309,
 -0.00000061,-0.00009787,0.00010395,-0.00000133,0.67059397,-0.00033027,
 -0.00405690,0.00018677,-0.03373435,0.01847160,-0.00047623,-0.06056248,
 -0.13313369,0.00077773,0.02335891,0.01144982,0.00000443,0.00161439,-0.
 00512666,0.00014456,0.00161765,0.00062389,0.00000699,0.00037458,0.0007
 5786,-0.00001180,-0.00088265,-0.00016782,-0.00000363,0.00120196,0.0014
 0736,-0.00001685,-0.00012596,-0.00066325,0.00000767,0.00007612,-0.0000
 9926,0.00000240,0.00000313,-0.00002136,0.00000102,0.00052358,-0.000273
 90,0.00000576,0.02835134,0.72636083,-0.00005055,0.00016944,0.00649702,
 0.00048286,-0.00075765,0.00574306,-0.00081000,0.00113908,-0.06458771,-
 0.00063822,-0.00012537,0.00206277,0.00000025,0.00015817,0.00231286,-0.
 00004593,0.00000798,0.00034333,-0.00000276,-0.00002485,-0.00005800,0.0
 0000913,0.00000114,-0.00001057,-0.00000760,-0.00005843,-0.00003278,0.0
 0000609,0.00000631,-0.00017789,-0.00000088,0.00000176,0.00000446,-0.00
 000070,0.00000096,0.00003423,-0.00000887,0.00000269,-0.00016639,0.0034
 5781,-0.01039115,0.13270569,0.00053654,-0.00022376,0.00001413,-0.00074
 452,0.00653211,-0.00008122,-0.04211651,0.02202355,-0.00075042,-0.00148
 066,-0.00453037,0.00002231,-0.00187856,0.00016969,-0.00001767,-0.00015
 279,-0.00057095,0.00001146,0.00021172,-0.00003703,0.00000167,0.0001766
 0,0.00051508,-0.00000717,-0.00003626,-0.00011015,0.00000175,0.00008882
 ,0.00042228,-0.00000611,-0.00003625,0.00001972,-0.00000032,0.00002221,
 0.00004055,-0.00000013,-0.00008905,0.00006165,-0.00000174,-0.20141634,
 0.13071372,-0.00337834,0.73629682,-0.00259965,-0.00299612,0.00001809,0
 .00969011,-0.06346680,0.00110631,0.06744967,0.04341382,-0.00016478,-0.
 00791799,0.00281757,0.00000727,0.00421822,0.00118264,0.00001211,-0.001
 64159,0.00150249,-0.00004487,0.00002118,-0.00167045,0.00003133,0.00090
 498,0.00036467,-0.00000169,-0.00076703,-0.00104110,0.00001275,-0.00000
 558,0.00009732,-0.00000355,-0.00002220,-0.00000939,-0.00000073,-0.0000
 0445,-0.00000566,-0.00000095,-0.00002685,0.00007042,-0.00000149,0.0679
 8917,-0.26119463,0.00409883,0.00841057,0.65824437,0.00005682,0.0000364
 0,-0.00086526,-0.00013826,0.00108336,-0.00551074,-0.00156079,-0.000499
 78,0.00634706,0.00008263,0.00003202,0.00647725,-0.00008980,-0.00001815
 ,0.00009590,0.00003067,-0.00003693,-0.00033211,0.00000060,0.00003095,0
 .00007658,-0.00001416,-0.00000452,-0.00010052,0.00001348,0.00001752,-0
 .00001077,0.00000150,-0.00000046,-0.00010402,0.00000044,-0.00000041,-0
 .00004077,0.00000066,-0.00000060,-0.00005640,-0.00000015,-0.00000086,-
 0.00000294,-0.00225912,0.00456146,-0.05974701,0.00431116,-0.00934811,0
 .13131206,0.00453513,0.00437877,-0.00009050,-0.04234368,0.06699342,-0.
 00155472,-0.04004337,-0.03208561,0.00032466,-0.00050578,0.00047427,-0.
 00000567,-0.00280848,0.00052781,-0.00003204,0.00110594,-0.00077989,0.0
 0002205,0.00016033,0.00147019,-0.00002529,-0.00163658,-0.00028194,-0.0
 0000755,0.00088559,-0.00133420,0.00003073,0.00007750,0.00004595,0.0000
 0002,-0.00001953,0.00005220,-0.00000099,-0.00001649,0.00003023,-0.0000
 0059,-0.00012210,-0.00003099,-0.00000034,0.05855455,-0.00791661,0.0005
 1918,-0.15804771,-0.03937763,-0.00000949,0.68247191,0.00288028,-0.0036
 4404,0.00019962,0.02172411,0.04443356,-0.00051942,-0.03430270,-0.02422
 315,0.00006675,0.00201043,-0.00139754,0.00002350,-0.00038300,-0.000846
 60,0.00001577,0.00028077,-0.00119687,0.00002347,0.00043180,0.00041220,
 -0.00000362,-0.00022370,0.00017715,-0.00000344,0.00042933,0.00034545,-
 0.00000404,0.00000711,0.00008929,-0.00000236,-0.00000085,-0.00002708,0
 .00000031,0.00002675,-0.00004574,0.00000084,0.00004796,0.00001226,0.00
 000009,0.03926068,-0.05553040,0.00141125,-0.10388315,-0.29741198,0.003
 44492,-0.03821987,0.70564197,-0.00006503,0.00021040,0.00633146,-0.0007
 4658,-0.00018647,0.00633526,0.00036365,0.00008278,-0.00632701,-0.00003
 290,0.00001218,-0.00091297,-0.00001547,0.00002262,0.00020291,0.0000030
 9,0.00001573,0.00000483,-0.00000675,0.00000400,0.00003028,-0.00000861,
 -0.00000386,0.00007719,-0.00000068,-0.00001700,-0.00005817,0.00000077,
 -0.00000205,-0.00004418,-0.00000006,0.00000070,-0.00000905,-0.00000053
 ,0.00000086,-0.00001011,-0.00000174,-0.00000049,-0.00000215,-0.0003226
 9,0.00106391,0.00729912,0.00114241,0.00392143,-0.06158732,0.00475647,-
 0.01055943,0.13049327,-0.01641111,0.02062614,-0.00048886,-0.19925887,0
 .07361063,-0.00232397,0.05560141,0.03862835,-0.00033378,0.00104302,-0.
 00618364,0.00008338,-0.00390950,-0.00169397,-0.00000059,0.00008823,0.0
 0217902,-0.00004990,-0.00109253,-0.00107133,0.00001109,0.00176297,-0.0
 0031711,0.00002106,0.00013840,0.00204330,-0.00003794,-0.00010889,0.000
 02132,-0.00000209,0.00014693,-0.00007764,0.00000294,0.00000271,0.00014
 957,-0.00000013,0.00013416,-0.00007190,0.00000207,-0.05283218,0.023633
 91,-0.00077572,-0.01400435,-0.07969843,0.00126900,-0.32316655,0.003353
 72,-0.00200245,0.66451805,0.00550353,0.00904051,-0.00012374,0.12685273
 ,-0.26892991,0.00462414,-0.00439446,-0.05245713,0.00103368,-0.00413089
 ,-0.00234434,0.00009508,-0.00426131,0.00010494,-0.00002871,0.00095150,
 0.00050394,0.00002627,-0.00001047,0.00100082,-0.00001783,-0.00138781,-
 0.00041241,-0.00000880,0.00189586,-0.00147205,0.00004633,0.00003312,0.
 00017847,-0.00000068,0.00007785,-0.00002416,-0.00000012,-0.00000405,0.
 00012684,-0.00000838,-0.00002915,-0.00007083,0.00000149,0.02100982,-0.
 00993984,0.00024607,-0.03326954,0.01898134,-0.00046094,-0.06120088,-0.
 13105619,0.00082381,0.02309158,0.72992558,-0.00021812,-0.00001279,-0.0
 0021734,-0.00327363,0.00423335,-0.06240154,0.00043400,0.00134985,0.007
 21687,0.00004687,0.00007997,0.00469555,0.00004506,-0.00000953,0.000286
 15,-0.00002804,0.00003543,0.00157866,-0.00000797,-0.00002581,0.0000054
 5,0.00004035,-0.00000091,-0.00033254,-0.00003543,0.00004758,0.00034275
 ,-0.00000234,-0.00000072,0.00012842,0.00000018,-0.00000129,-0.00006456
 ,0.00000260,-0.00000723,-0.00034057,0.00000133,0.00000120,0.00002574,-
 0.00072860,0.00026522,-0.00483219,0.00044005,-0.00080282,0.00692890,-0
 .00084939,0.00129968,-0.05972173,0.00350545,-0.01050270,0.13294461,0.0
 0021439,-0.00049010,0.00003607,0.01313015,0.01732759,-0.00023860,-0.00
 204929,0.00298889,-0.00012427,0.00055204,0.00079791,-0.00001115,0.0002
 7025,0.00017340,0.00000057,-0.00005408,-0.00009689,0.00000115,0.000007
 72,-0.00001371,0.00000031,0.00006311,0.00008182,-0.00000097,-0.0003526
 6,0.00007010,-0.00000261,0.00000820,-0.00000757,0.00000018,-0.00003123
 ,0.00001567,-0.00000073,0.00000146,-0.00001326,0.00000029,-0.00002459,
 0.00001683,-0.00000054,-0.00082554,0.00063604,-0.00001403,-0.00574079,
 0.00070741,-0.00010662,-0.00692446,-0.03116099,0.00048472,-0.09861856,
 -0.09333105,0.00121206,0.10026323,-0.00136664,0.00056470,-0.00008307,-
 0.01138832,-0.02016931,0.00033868,0.00401310,-0.00124353,0.00018745,-0
 .00106130,-0.00094422,0.00001152,0.00017719,-0.00020439,0.00000106,-0.
 00005420,0.00011734,-0.00000203,0.00006518,-0.00011761,0.00000254,-0.0
 0000660,-0.00008173,0.00000136,0.00048976,-0.00001907,0.00000097,-0.00
 002060,0.00002433,-0.00000054,0.00005226,-0.00003594,0.00000155,0.0000
 1464,-0.00000283,0.00000006,0.00007418,-0.00001250,0.00000092,0.000766
 97,0.00015970,-0.00000552,-0.00057667,0.00190198,0.00008743,0.00036840
 ,-0.00050167,0.00006315,-0.09536533,-0.29520265,0.00392433,0.10347878,
 0.31438635,0.00005192,-0.00007646,-0.00351259,0.00027487,0.00054904,0.
 00346748,-0.00014235,0.00017967,0.00757782,0.00002201,0.00002518,0.000
 14051,0.00000048,0.00000108,-0.00021647,0.00000036,-0.00000236,0.00002
 579,-0.00000110,0.00000196,-0.00000220,0.00000062,0.00000200,-0.000002
 98,-0.00001013,-0.00000210,-0.00016630,0.00000041,-0.00000045,0.000002
 74,-0.00000138,0.00000127,0.00002883,-0.00000021,-0.00000015,-0.000005
 59,-0.00000157,0.00000050,0.00000828,-0.00001652,-0.00000639,-0.000465
 30,-0.00008397,0.00009652,0.00702009,-0.00007890,-0.00016943,0.0028802
 4,0.00124838,0.00394109,-0.03657100,-0.00129570,-0.00441515,0.02496202
 ,0.00036119,0.00138221,-0.00002594,-0.00562878,-0.00240269,-0.00004841
 ,-0.00060480,-0.00092021,0.00001724,0.00011078,0.00005988,0.00000482,-
 0.00058447,-0.00017281,-0.00000122,0.00010585,0.00016326,0.00000038,-0
 .00005267,0.00002543,-0.00000076,-0.00000987,0.00003630,-0.00000031,-0
 .00002191,0.00000102,-0.00000042,0.00000921,0.00003061,-0.00000088,-0.
 00000288,0.00001311,-0.00000030,-0.00000730,0.00002982,-0.00000132,-0.
 00000292,-0.00001384,0.00000027,-0.00021914,-0.00262328,-0.00000330,0.
 01124701,-0.01133571,0.00026586,-0.16297948,0.13428359,-0.00334548,-0.
 01431245,0.02658674,-0.00060087,0.00114045,-0.00032340,0.00004288,0.17
 028627,-0.00027813,0.00027924,0.00000276,-0.00143429,0.00113874,0.0000
 8934,-0.00106452,-0.00002943,-0.00001999,-0.00000033,0.00012048,-0.000
 01442,-0.00000265,-0.00002953,0.00000038,0.00000962,0.00002371,-0.0000
 0644,0.00002195,-0.00000958,0.00000015,-0.00000869,0.00002641,-0.00000
 154,0.00000726,-0.00005238,0.00000160,-0.00000509,0.00004986,0.0000000
 5,0.00000475,-0.00001235,0.00000037,0.00001180,-0.00000175,0.00000191,
 0.00001406,0.00000157,-0.00000002,-0.00368315,-0.00384518,0.00015878,0
 .02015365,-0.01835155,0.00052424,0.13421052,-0.23463483,0.00456127,-0.
 00453526,0.00710948,-0.00011129,0.00047476,0.00088533,-0.00008177,-0.1
 4468433,0.24740173,0.00000367,0.00001488,0.00054612,-0.00006546,0.0000
 8205,0.00673101,0.00001996,-0.00001886,-0.00071054,0.00000585,-0.00001
 391,-0.00068597,-0.00000421,-0.00000079,-0.00000645,0.00000314,-0.0000
 0534,-0.00034066,-0.00000069,0.00000022,-0.00001008,0.00000045,-0.0000
 0121,-0.00005645,-0.00000053,0.00000151,0.00003423,-0.00000024,0.00000
 031,0.00005483,-0.00000016,0.00000044,0.00000668,-0.00000100,0.0000020
 4,0.00010029,-0.00000023,-0.00000023,-0.00000559,0.00001554,0.00016657
 ,0.00656250,-0.00029658,0.00029118,0.00265887,-0.00334425,0.00456267,-
 0.03490550,-0.00004500,0.00011834,0.00274846,0.00002852,-0.00008775,-0
 .00388414,0.00365964,-0.00504669,0.02483764,0.00002095,0.00003486,0.00
 000542,0.00067243,0.00018417,0.00000658,-0.00011102,0.00376236,-0.0001
 2152,-0.00026790,-0.00080200,0.00000864,-0.00027390,0.00028081,-0.0000
 0505,-0.00002123,-0.00009992,0.00000210,-0.00003363,0.00005033,-0.0000
 0108,-0.00000953,0.00002327,-0.00000019,-0.00010483,-0.00003439,-0.000
 00019,0.00002852,0.00000721,-0.00000030,-0.00002063,0.00003031,-0.0000
 0071,-0.00001452,0.00001156,-0.00000036,-0.00004472,0.00001387,-0.0000
 0079,-0.01459347,-0.00465168,-0.00004376,-0.33361147,-0.03393331,-0.00
 159266,-0.00818824,0.00097847,-0.00009672,0.00108265,-0.00235811,0.000
 00113,-0.00050955,0.00009283,-0.00000728,0.00087181,-0.00033313,0.0000
 4099,0.35420916,0.00000939,0.00007311,-0.00001547,0.00036248,-0.001299
 91,0.00001398,0.00280847,-0.00419890,0.00022519,0.00079418,0.00083174,
 -0.00000007,0.00024049,-0.00031172,0.00000255,0.00005554,0.00014394,-0
 .00000330,-0.00000272,-0.00001299,0.00000005,-0.00001864,-0.00003613,-
 0.00000022,0.00005299,0.00007550,-0.00000087,-0.00002210,-0.00002377,0
 .00000119,0.00001719,-0.00001433,0.00000044,0.00000320,-0.00000072,0.0
 0000016,0.00005048,-0.00002244,0.00000129,0.02648928,0.00739034,0.0001
 0993,-0.03392836,-0.06404939,0.00026126,-0.03050360,0.00106990,-0.0001
 9824,-0.00128618,-0.00514109,0.00020101,-0.00154998,-0.00015070,-0.000
 00429,0.00045870,0.00098936,-0.00008358,0.03648521,0.06354674,0.000005
 86,-0.00001524,-0.00079714,0.00000336,0.00001283,-0.00066592,-0.000104
 54,0.00023216,0.00725051,-0.00001980,-0.00001183,0.00050186,-0.0000043
 6,0.00000282,-0.00026777,-0.00000066,-0.00000446,-0.00006449,-0.000000
 14,0.00000045,-0.00000904,0.00000056,0.00000009,-0.00004079,-0.0000017
 5,-0.00000152,0.00000449,0.00000022,0.00000141,0.00005227,-0.00000048,
 0.00000054,0.00000317,-0.00000021,0.00000022,0.00000669,-0.00000144,0.
 00000102,0.00002884,-0.00059963,-0.00011972,0.00261233,-0.00159257,0.0
 0026155,-0.03542096,0.00046500,0.00003367,0.00256604,-0.00001789,0.000
 19294,0.00664011,0.00002204,0.00000787,0.00025052,0.00002690,-0.000089
 46,-0.00387840,0.00177396,-0.00041517,0.02524078,0.00002480,-0.0015195
 8,0.00002706,-0.00532133,0.00111883,-0.00011029,-0.00648601,-0.0310626
 3,0.00048270,0.00163793,0.00009796,0.00003568,-0.00013404,-0.00031400,
 0.00000483,0.00016645,0.00005779,-0.00000075,0.00008225,0.00004660,0.0
 0000011,0.00004284,0.00041611,-0.00000635,-0.00058808,-0.00044060,0.00
 000485,-0.00013917,0.00082678,-0.00001878,-0.00002092,0.00000063,-0.00
 000055,0.00004583,0.00003545,-0.00000070,0.00002776,-0.00000498,0.0000
 0027,-0.10312229,-0.10021305,0.00129292,0.01181841,0.01889745,-0.00027
 205,-0.00199215,0.00316778,-0.00012404,-0.00097846,0.00054394,-0.00001
 291,0.00014823,-0.00014447,0.00001385,0.00039372,0.00099819,-0.0000168
 1,0.00094099,-0.00052760,0.00004602,0.10419294,0.00030433,-0.00020718,
 0.00000682,-0.00019624,0.00183006,0.00008982,-0.00162769,-0.00010348,0
 .00004741,0.00061426,-0.00046327,-0.00004864,-0.00029935,0.00001813,-0
 .00000309,0.00006965,-0.00009673,0.00000453,0.00000773,0.00008461,-0.0
 0000224,-0.00001168,0.00014310,-0.00000450,-0.00024893,0.00026563,-0.0
 0000975,0.00035202,0.00001716,0.00000959,-0.00002865,0.00002569,0.0000
 0026,-0.00000025,0.00001324,0.00000074,-0.00001799,0.00000480,-0.00000
 017,-0.09833617,-0.29295272,0.00386374,-0.01262300,-0.01882760,0.00029
 606,0.00442322,-0.00185165,0.00019355,0.00040148,0.00036465,-0.0000132
 7,-0.00007251,-0.00006431,-0.00002403,-0.00064470,-0.00104197,0.000018
 41,0.00027537,0.00107026,-0.00008894,0.10787569,0.31173388,-0.00000568
 ,-0.00000658,0.00004788,-0.00008673,0.00009956,0.00694030,-0.00004268,
 -0.00016922,0.00322933,0.00002659,-0.00005254,-0.00344154,0.00000457,-
 0.00000322,-0.00003067,-0.00000098,0.00000444,0.00012853,0.00000079,-0
 .00000197,-0.00004416,0.00000131,-0.00000134,-0.00010404,0.00000142,-0
 .00001111,-0.00017760,-0.00001030,0.00001307,0.00040870,-0.00000003,0.
 00000048,0.00005227,-0.00000006,0.00000100,0.00005477,0.00000050,-0.00
 000007,0.00000273,0.00125936,0.00384951,-0.03591597,0.00029042,0.00052
 855,0.00297094,-0.00014636,0.00018431,0.00715866,-0.00001037,-0.000012
 24,-0.00054429,0.00001255,-0.00002462,-0.00138083,0.00001250,0.0000304
 8,0.00025455,0.00003172,-0.00009484,-0.00402433,-0.00133644,-0.0043353
 1,0.02434138,-0.08639716,-0.01149055,0.03227654,-0.01856994,-0.0149608
 5,0.02732432,-0.00308551,0.00130071,-0.00001528,-0.00082240,0.00207036
 ,0.00089797,0.00339514,-0.00252148,-0.00606224,0.00047370,0.00157893,0
 .00014449,-0.00014986,-0.00030365,0.00029267,-0.00000991,0.00043873,-0
 .00007127,0.00030164,-0.00036039,0.00026324,0.00002510,0.00016671,0.00
 002203,-0.00001229,-0.00002686,0.00000983,-0.00002115,0.00009042,-0.00
 002778,-0.00047904,0.00014693,-0.00044314,-0.00042545,-0.00050879,-0.0
 0139542,-0.00049727,-0.00040823,0.00014260,0.00065730,-0.00046100,-0.0
 0083038,0.00001755,-0.00057887,-0.00012992,-0.00006431,0.00013762,0.00
 029880,-0.00001511,0.00006005,0.00012600,-0.00000573,-0.00001211,0.000
 07836,-0.00030769,-0.00010400,-0.00010195,0.55494368,-0.01166748,-0.08
 798523,0.03535312,-0.00501502,0.00094518,-0.00266210,0.00171499,-0.000
 39725,0.00096079,0.00156009,-0.00267419,0.00020224,-0.01278698,-0.0199
 9538,0.02685082,-0.00049338,0.00010118,-0.00011530,-0.00053439,0.00054
 458,-0.00082681,-0.00035436,-0.00049904,0.00013899,-0.00037788,-0.0005
 7760,-0.00138039,-0.00005846,-0.00030540,-0.00009273,-0.00001493,-0.00
 001004,0.00008044,0.00005684,0.00000510,0.00012472,0.00007667,-0.00001
 958,0.00025043,-0.00046886,0.00018931,0.00005576,0.00036775,-0.0000169
 4,-0.00004150,-0.00019585,-0.00023080,0.00018136,0.00146449,0.00062344
 ,0.00016080,0.00021302,-0.00044873,-0.00038863,0.00008913,-0.00000122,
 -0.00000908,-0.00002715,-0.00001721,0.00002021,0.00011826,0.00003226,0
 .00001315,-0.01891356,0.55224155,0.02559806,0.02773989,-0.13198553,0.0
 0988769,0.00038268,-0.00081776,-0.00121690,-0.00173624,-0.00048597,-0.
 00160712,-0.00133148,-0.00047528,-0.00051793,0.01022867,-0.00184233,0.
 00080447,-0.00175386,0.00036127,0.00047325,0.00031566,-0.00002546,-0.0
 0028178,-0.00032122,0.00003658,-0.00007019,-0.00019217,-0.00029436,-0.
 00004579,-0.00013646,0.00005704,0.00000534,-0.00003372,0.00001617,0.00
 003396,-0.00010154,-0.00001733,0.00009104,0.00000147,0.00012845,-0.000
 17395,-0.00011927,-0.00033495,-0.00030389,-0.00033118,0.00004125,0.000
 27335,0.00050377,-0.00005670,-0.00188747,0.00054379,0.00029335,-0.0000
 2075,0.00010772,0.00014311,-0.00010720,0.00002148,-0.00001708,-0.00003
 408,0.00000131,0.00001692,-0.00014153,-0.00006559,0.00005221,0.0443254
 8,0.04854123,0.49345934,0.00353653,0.00633863,0.01100638,0.00078478,0.
 00068075,0.00070680,0.00015470,-0.00006209,-0.00013890,0.00027523,0.00
 002150,-0.00000938,0.00023546,0.00032133,-0.00017722,-0.00027783,-0.00
 009183,0.00001425,0.00008935,0.00016848,0.00010414,-0.00008260,0.00003
 580,-0.00000711,-0.00001103,-0.00006168,0.00001954,0.00000062,-0.00000
 785,0.00000229,-0.00000309,0.00001057,-0.00001342,-0.00000954,-0.00000
 240,-0.00001317,0.00005980,-0.00006894,-0.00009846,-0.00001591,0.,0.00
 000190,0.00004194,0.00005362,0.00000993,-0.00013312,0.00000075,-0.0000
 4978,0.00006004,0.00009794,-0.00010656,0.00004218,-0.00001856,0.000061
 76,0.00000503,-0.00000716,0.00000147,0.00000530,0.00000172,0.00000733,
 0.00001887,0.00001404,0.00000666,-0.08517084,-0.04317539,-0.08104178,0
 .08835604,0.00580003,0.00519053,0.01205969,0.00035521,0.00035475,-0.00
 006950,0.00001732,0.00027403,-0.00002882,-0.00003962,0.00015906,-0.000
 14090,0.00058652,0.00088915,0.00070157,0.00004919,0.00006817,-0.000097
 72,0.00002968,-0.00011162,-0.00003445,0.00003711,0.00005474,0.00000877
 ,0.00000320,-0.00002279,0.00000261,0.00001147,0.00002054,0.00000623,0.
 00000054,0.00000711,0.00000588,-0.00000905,0.00000440,-0.00000087,-0.0
 0001620,0.00003087,0.00004739,-0.00006164,-0.00001621,0.00001657,0.000
 05306,-0.00007039,-0.00000328,0.00013654,0.00011235,0.00009844,-0.0000
 3731,-0.00028176,0.00001239,-0.00006984,0.00004752,-0.00009441,0.00000
 046,-0.00001095,-0.00001318,0.00001201,-0.00000161,-0.00001186,-0.0000
 0482,0.00000160,0.00000239,-0.04314428,-0.10114347,-0.09728606,0.04867
 131,0.10613151,-0.00919500,-0.01101535,-0.02105810,-0.00167019,-0.0003
 1431,0.00054359,0.00044802,0.00016579,0.00021806,0.00010875,0.00046799
 ,0.00021344,-0.00011466,-0.00169832,0.00056004,-0.00023899,0.00035007,
 0.00026451,-0.00007056,0.00001584,-0.00005253,0.00000568,0.00002276,-0
 .00001754,0.00009437,0.00004295,-0.00008629,0.00000019,0.00002431,-0.0
 0002189,0.00000413,-0.00000082,0.00001353,0.00000345,0.00002220,-0.000
 01211,0.00005274,-0.00004016,-0.00001745,0.00003366,0.00009762,-0.0000
 8794,0.00002233,0.00001166,-0.00001681,0.00001906,-0.00007171,-0.00005
 402,0.00037446,-0.00017538,0.00027520,-0.00004361,0.00004510,-0.000015
 65,0.00002201,0.00000612,-0.00001135,-0.00000184,0.00000440,0.00001389
 ,0.00002530,0.00000327,-0.00002121,-0.07982387,-0.09589186,-0.22563614
 ,0.08626070,0.10385004,0.24696107,-0.01300307,0.00056453,-0.00021159,0
 .00076471,-0.00158435,0.00265874,-0.00035077,0.00048705,0.00030210,-0.
 00055147,-0.00001759,-0.00004253,0.00041637,0.00120896,-0.00009735,-0.
 00022534,-0.00011319,-0.00025868,0.00026828,-0.00035315,-0.00013357,0.
 00017928,0.00007536,0.00000284,0.00006290,0.00012859,-0.00002607,-0.00
 000046,0.00001383,0.00001188,0.00003622,0.00000128,0.00002781,0.000006
 52,-0.00003389,-0.00000386,0.00046573,0.00009454,0.00021543,-0.0002094
 7,-0.00011490,-0.00020851,-0.00010585,-0.00023431,0.00003898,0.0002104
 9,0.00001684,-0.00009368,-0.00004267,-0.00030464,0.00010083,0.00005995
 ,0.00002324,-0.00004382,-0.00005317,0.00002008,-0.00000280,-0.00002295
 ,-0.00001289,0.00000744,-0.00009763,-0.00003449,-0.00003539,-0.3065713
 6,0.02554957,-0.00120487,-0.01062601,0.00150430,0.00001382,0.33421216,
 -0.01489963,0.00000720,0.00114962,0.00003956,-0.00058618,0.00261202,-0
 .00053579,-0.00008595,-0.00004386,-0.00041066,0.00015262,0.00003694,-0
 .00057380,0.00087177,-0.00069335,-0.00033837,0.00000792,-0.00002372,0.
 00013170,-0.00026409,-0.00010669,0.00013147,0.00006335,0.00003386,0.00
 005354,0.00013033,0.00003681,0.00001174,0.00002058,-0.00000754,0.00003
 335,0.00001630,0.00001446,-0.00001007,0.00000731,0.00001360,0.00032461
 ,-0.00031907,0.00041355,0.00017898,-0.00006762,-0.00023854,-0.00013351
 ,0.00010359,0.00002031,-0.00014324,-0.00001087,-0.00031161,-0.00009697
 ,-0.00019488,-0.00005943,-0.00014297,0.00024765,0.00036027,-0.00003194
 ,0.00000242,-0.00000254,0.00000765,0.00001510,0.00004703,-0.00005761,-
 0.00001821,0.00001949,0.02606024,-0.05120147,-0.00109201,-0.01511587,0
 .00114194,0.00076458,-0.02780528,0.05153837,0.02782853,-0.00261612,-0.
 00189722,0.00036609,0.00261515,-0.00400935,0.00104671,-0.00008405,0.00
 011019,0.00042337,-0.00019493,-0.00003994,-0.00044467,-0.00105150,0.00
 065573,0.00027024,0.00004525,-0.00007171,-0.00020009,0.00013531,-0.000
 00924,-0.00007920,-0.00009385,-0.00000040,-0.00006517,-0.00005019,-0.0
 0001283,0.00000105,-0.00002125,-0.00001091,-0.00002722,-0.00000521,-0.
 00000806,0.00000825,0.00000532,0.00002043,-0.00024140,0.00032666,-0.00
 008565,0.00009768,0.00020541,0.00033076,0.00016767,0.00013805,-0.00007
 379,-0.00008753,-0.00006893,0.00020469,0.00037221,0.00016952,0.0002241
 7,-0.00006713,-0.00014353,-0.00013000,0.00004976,-0.00001657,-0.000017
 09,0.00000779,-0.00000138,-0.00001790,0.00011609,0.00003342,0.00001615
 ,-0.00200166,-0.00078277,-0.04814837,-0.02699223,0.00405263,0.00110562
 ,-0.00005324,-0.00208073,0.05131437,0.00178515,-0.01363358,0.00158085,
 0.00082221,-0.00052852,-0.00065711,0.00020156,-0.00031945,0.00005633,-
 0.00007526,-0.00052959,-0.00007585,-0.00048954,-0.00007710,0.00233662,
 -0.00014155,-0.00012188,-0.00007878,0.00001873,-0.00017395,-0.00029748
 ,0.00014437,-0.00010441,0.00002310,-0.00007772,0.00018820,-0.00022423,
 -0.00000867,-0.00004827,0.00002444,0.00001399,0.00001357,0.00004613,0.
 00000365,-0.00002576,-0.00000103,0.00025394,-0.00010566,0.00037529,0.0
 0010533,0.00006193,0.00004178,0.00003970,0.00011588,0.00003164,-0.0002
 2782,0.00006856,-0.00009532,0.00006230,-0.00030721,0.00002128,-0.00037
 888,0.00022870,0.00036853,0.00001261,-0.00000912,0.00001402,0.00001189
 ,0.00003111,0.00001041,0.00001768,0.00001390,-0.00000868,-0.06235498,0
 .05858195,-0.00265455,0.00249652,-0.01261975,0.00108556,-0.00631177,0.
 03275102,-0.00064005,0.06384661,0.00236892,-0.01402514,0.00028556,0.00
 124049,0.00049039,-0.00015339,0.00007659,-0.00058729,-0.00002307,0.000
 50938,-0.00032179,0.00031693,-0.00174883,0.00062072,0.00283064,-0.0003
 1709,-0.00008680,0.00009105,-0.00000773,0.00018515,-0.00013377,-0.0001
 9907,-0.00014525,0.00003777,-0.00008702,-0.00020098,-0.00022836,-0.000
 02131,-0.00010623,-0.00003028,-0.00000824,-0.00002247,0.00001345,0.000
 02706,-0.00005271,-0.00000159,0.00004683,0.00004552,0.00000135,0.00013
 418,0.00008557,-0.00001964,0.00005472,0.00020274,0.00000409,-0.0004116
 0,0.00022217,-0.00016288,-0.00006789,-0.00027858,-0.00025669,-0.000013
 95,0.00050805,0.00025454,-0.00003283,0.00000094,-0.00000245,-0.0000026
 9,0.00004041,0.00002837,0.00001542,0.00000347,0.00001092,0.05805456,-0
 .29526146,0.00590008,0.00345279,-0.01280222,0.00052907,0.00075435,-0.0
 0185164,-0.00033201,-0.06382442,0.32178885,-0.00622217,0.02717140,-0.0
 0265323,-0.00100770,-0.00058893,0.00063092,-0.00024449,0.00039781,-0.0
 0005362,-0.00023772,0.00102277,0.00007181,0.00267671,0.00059888,-0.003
 96256,0.00011691,0.00039521,0.00021440,-0.00006146,-0.00009991,0.00020
 051,0.00012510,0.00018340,-0.00007530,0.00018233,0.00014094,0.00033212
 ,0.00001772,0.00012108,0.00001524,-0.00000136,0.00000801,-0.00001717,-
 0.00002304,0.00004730,-0.00001874,-0.00012449,-0.00009244,-0.00012163,
 -0.00004138,-0.00007188,-0.00001095,-0.00008301,-0.00009270,0.00000024
 ,0.00016440,-0.00018425,0.00000018,0.00001427,0.00027163,-0.00007114,0
 .00034842,-0.00020445,-0.00006816,0.00000473,0.00000910,0.00002078,-0.
 00000103,-0.00002800,-0.00000781,-0.00002084,-0.00000177,-0.00001188,-
 0.00223078,0.00516729,-0.04832113,0.00754107,-0.02623669,0.00192973,-0
 .00040379,0.00020856,-0.00093755,-0.00025460,-0.00826528,0.05144668,-0
 .08554074,-0.01218731,-0.03116967,-0.01802146,-0.01591887,-0.02703269,
 -0.00310128,0.00127279,-0.00006895,-0.00083288,0.00201650,-0.00097581,
 0.00329227,-0.00215289,0.00621297,0.00048825,0.00154668,-0.00019777,-0
 .00013854,-0.00030917,-0.00028323,-0.00001514,0.00043619,0.00005486,0.
 00030413,-0.00037240,-0.00024084,0.00002479,0.00016365,-0.00002835,-0.
 00001207,-0.00002769,-0.00000928,-0.00002103,0.00008984,0.00002454,-0.
 00048397,0.00016214,0.00042838,-0.00044903,-0.00045958,0.00141139,-0.0
 0049988,-0.00041853,-0.00013569,0.00064940,-0.00042325,0.00085650,-0.0
 0001358,-0.00056565,0.00014503,-0.00006019,0.00012830,-0.00030665,-0.0
 0001478,0.00005584,-0.00012806,-0.00000506,-0.00001489,-0.00007822,-0.
 00031112,-0.00010136,0.00010024,0.00541926,0.00504926,0.00981460,-0.00
 080631,-0.00115888,0.00318251,0.00037444,0.00029680,0.00101750,0.00010
 288,0.00013819,-0.00047174,0.55625510,-0.01201415,-0.09027564,-0.03701
 699,-0.00540756,0.00101650,0.00250710,0.00177051,-0.00036894,-0.000939
 10,0.00161757,-0.00262966,-0.00010152,-0.01236095,-0.02129769,-0.02634
 668,-0.00052292,0.00016755,0.00011425,-0.00056300,0.00056204,0.0007978
 6,-0.00034220,-0.00049220,-0.00012506,-0.00039483,-0.00052125,0.001383
 05,-0.00005828,-0.00029665,0.00010442,-0.00001393,-0.00001167,-0.00007
 974,0.00005745,0.00000431,-0.00012466,0.00007684,-0.00002818,-0.000243
 74,-0.00046174,0.00019061,-0.00008075,0.00037752,-0.00000397,0.0000486
 5,-0.00020222,-0.00025489,-0.00017712,0.00153304,0.00059783,-0.0001491
 8,0.00020751,-0.00043785,0.00041277,0.00009275,-0.00000164,0.00000984,
 -0.00002564,-0.00001795,-0.00001936,0.00012325,0.00003413,-0.00001067,
 0.00454552,0.00668778,0.01023755,-0.00118920,-0.00098130,0.00351785,0.
 00015524,0.00012508,-0.00029202,0.00021195,0.00042212,0.00100316,-0.01
 971789,0.54870537,-0.02448744,-0.02939946,-0.13051398,-0.00996332,-0.0
 0069052,-0.00144462,0.00111551,0.00175233,-0.00049754,0.00154660,0.001
 43822,-0.00051008,0.00103049,-0.00957568,-0.00044321,-0.00078455,0.001
 78429,0.00027955,-0.00045537,-0.00034160,-0.00005362,0.00029365,0.0003
 4679,0.00003452,0.00009295,0.00019478,-0.00035284,0.00004745,0.0001514
 6,0.00004870,-0.00000525,0.00003430,0.00001758,-0.00003606,0.00010209,
 -0.00001666,-0.00010294,0.00000646,0.00014218,0.00018884,0.00009346,-0
 .00031277,0.00028282,0.00032689,0.00003020,-0.00025622,-0.00050336,-0.
 00002366,0.00183023,-0.00056283,0.00034806,0.00001040,-0.00008526,0.00
 012811,0.00010400,-0.00002118,-0.00001702,0.00003467,-0.00000028,0.000
 01699,0.00013181,0.00006477,0.00005383,-0.00937097,-0.01167087,-0.0357
 1533,0.00205612,0.00223300,-0.00417142,-0.00118684,-0.00095550,0.00183
 541,-0.00084036,-0.00126413,0.00180850,-0.04272681,-0.05082205,0.49565
 678,0.00171259,-0.01327448,-0.00104702,0.00079744,-0.00051460,0.000677
 89,0.00019864,-0.00031524,-0.00004155,-0.00008004,-0.00051158,0.000091
 85,-0.00041549,-0.00014953,-0.00228075,-0.00014093,-0.00011320,0.00007
 755,0.00001326,-0.00016488,0.00030081,0.00014663,-0.00010249,-0.000016
 13,-0.00007819,0.00019817,0.00021130,-0.00000806,-0.00004732,-0.000023
 14,0.00001464,0.00001204,-0.00004614,0.00000329,-0.00002500,0.00000225
 ,0.00025743,-0.00012012,-0.00036565,0.00010540,0.00005933,-0.00004225,
 0.00003894,0.00011339,-0.00003516,-0.00022691,0.00006904,0.00008961,0.
 00006283,-0.00030364,-0.00000841,-0.00036784,0.00021228,-0.00038090,0.
 00001289,-0.00000949,-0.00001384,0.00001203,0.00003031,-0.00001120,0.0
 0001724,0.00001419,0.00000864,0.00008328,0.00025600,0.00080625,-0.0001
 4256,-0.00011559,0.00009570,0.00000456,0.00017854,-0.00005577,0.000266
 03,0.00009251,0.00014971,-0.06241599,0.05868613,0.00036645,0.06382783,
 0.00259110,-0.01498734,0.00018979,0.00127375,0.00051735,0.00017690,0.0
 0008481,-0.00060035,0.00004385,0.00052194,-0.00036856,-0.00029355,-0.0
 0179790,0.00049183,-0.00301764,-0.00031990,-0.00010387,-0.00008448,-0.
 00000763,0.00019347,0.00013406,-0.00020279,-0.00015318,-0.00003794,-0.
 00009693,-0.00019713,0.00024592,-0.00002241,-0.00010930,0.00003438,-0.
 00000798,-0.00002322,-0.00001340,0.00002784,-0.00005429,0.00000327,0.0
 0005143,0.00004847,-0.00000684,0.00013546,0.00008874,0.00001806,0.0000
 5775,0.00020585,-0.00001060,-0.00041979,0.00023400,0.00014848,-0.00007
 205,-0.00027847,0.00026336,-0.00002241,0.00050549,-0.00027563,-0.00003
 301,0.00000072,0.00000267,-0.00000222,0.00004034,-0.00003014,0.0000163
 3,0.00000314,-0.00001123,0.00013482,0.00043284,0.00131491,-0.00017570,
 0.00034676,-0.00000959,-0.00004939,0.00002129,-0.00009016,0.00009498,0
 .00076769,-0.00052395,0.05815326,-0.29529004,0.00371839,-0.06386413,0.
 32197756,0.00619434,-0.02693194,-0.00161994,0.00096642,0.00058546,0.00
 062872,0.00024530,-0.00038311,-0.00003806,0.00021665,-0.00101450,0.000
 12376,-0.00256122,-0.00076016,-0.00390826,-0.00011083,-0.00038591,0.00
 023104,0.00005903,0.00009785,0.00019763,-0.00011482,-0.00018230,-0.000
 06948,-0.00018496,-0.00011926,0.00032892,-0.00001731,-0.00011735,0.000
 01773,0.00000211,-0.00000761,-0.00001710,0.00002238,-0.00004641,-0.000
 01681,0.00012838,0.00008461,-0.00012834,0.00003844,0.00006921,-0.00001
 421,0.00008167,0.00008721,-0.00000201,-0.00015304,0.00017701,-0.000012
 76,-0.00000969,-0.00026913,-0.00007094,-0.00035227,0.00018728,-0.00007
 675,-0.00000368,-0.00000854,0.00002074,0.00000142,0.00002676,-0.000007
 89,0.00002071,0.00000145,-0.00001111,0.00044117,-0.00095043,0.00181651
 ,-0.00016620,0.00028813,0.00033281,0.00008074,0.00006276,-0.00015615,-
 0.00014096,0.00047962,-0.00052685,-0.00003821,0.00445803,-0.04823045,0
 .00270360,-0.00227175,0.05127781,-0.01258914,0.00052919,0.00003419,0.0
 0080742,-0.00163646,-0.00253127,-0.00033014,0.00047450,-0.00032578,-0.
 00054588,-0.00001895,0.00003572,0.00040863,0.00119559,0.00005118,-0.00
 022519,-0.00010342,0.00026020,0.00026315,-0.00034601,0.00014996,0.0001
 7806,0.00007382,-0.00000284,0.00006163,0.00012864,0.00002261,-0.000000
 27,0.00001310,-0.00001219,0.00003622,0.00000022,-0.00002717,0.00000659
 ,-0.00003365,0.00000484,0.00046511,0.00009169,-0.00021078,-0.00021108,
 -0.00010441,0.00020439,-0.00010287,-0.00023352,-0.00003108,0.00020785,
 0.00001908,0.00009313,-0.00003568,-0.00030579,-0.00009392,0.00005820,0
 .00002278,0.00004576,-0.00005247,0.00001992,0.00000157,-0.00002273,-0.
 00001316,-0.00000705,-0.00009640,-0.00003274,0.00003492,0.00037256,0.0
 0019232,0.00115938,0.00036974,-0.00010384,-0.00001792,0.00073636,0.000
 14794,-0.00051056,0.00000475,-0.00005339,-0.00007673,-0.30655937,0.025
 44780,-0.00355002,-0.00632315,0.00076046,0.00029679,0.33414469,-0.0158
 5978,0.00004996,-0.00145501,0.00006797,-0.00077583,-0.00272650,-0.0005
 7319,-0.00008162,0.00004213,-0.00042524,0.00015784,-0.00005023,-0.0005
 6800,0.00093429,0.00067510,-0.00034776,0.00000714,0.00001607,0.0001371
 1,-0.00026487,0.00011797,0.00013478,0.00006543,-0.00003423,0.00005639,
 0.00013071,-0.00004106,0.00001159,0.00002156,0.00000653,0.00003452,0.0
 0001594,-0.00001483,-0.00001015,0.00000662,-0.00001326,0.00033902,-0.0
 0034471,-0.00039937,0.00017179,-0.00006581,0.00025526,-0.00013909,0.00
 009781,-0.00002848,-0.00014488,0.00000275,0.00031680,-0.00011096,-0.00
 019806,0.00007291,-0.00013494,0.00023932,-0.00037561,-0.00003372,0.000
 00307,0.00000134,0.00000807,0.00001342,-0.00004805,-0.00006142,-0.0000
 2007,-0.00001911,0.00024510,0.00017201,0.00101898,-0.00004183,-0.00017
 299,0.00010416,0.00016536,0.00029896,0.00006443,0.00018157,0.00002196,
 -0.00006645,0.02598026,-0.05110959,0.00158451,0.03274972,-0.00183087,0
 .00031144,-0.02768968,0.05165968,-0.02744123,0.00254268,-0.00235253,-0
 .00029782,-0.00275488,-0.00386302,-0.00103327,0.00009743,0.00008543,-0
 .00041620,0.00018752,-0.00005084,0.00046161,0.00106043,0.00060115,-0.0
 0026018,-0.00004965,-0.00007066,0.00019935,-0.00013132,-0.00000336,0.0
 0007712,0.00009261,-0.00000143,0.00006435,0.00004699,-0.00001181,-0.00
 000130,0.00002028,-0.00001210,0.00002666,0.00000436,-0.00000772,-0.000
 00809,-0.00000534,0.00002104,0.00023749,-0.00031589,-0.00005951,-0.000
 11207,-0.00019269,0.00033070,-0.00016340,-0.00014783,-0.00007079,0.000
 09294,0.00007645,0.00019370,-0.00037266,-0.00015901,0.00022072,0.00007
 473,0.00013073,-0.00012015,-0.00004911,0.00001614,-0.00001844,-0.00000
 816,0.00000006,-0.00001647,-0.00011564,-0.00003266,0.00001684,-0.00104
 840,0.00035371,0.00179131,0.00030906,-0.00011739,0.00034149,0.00052382
 ,-0.00009164,-0.00052738,0.00005179,0.00008332,-0.00015727,-0.00277268
 ,0.00126804,-0.04825497,-0.00060029,0.00037537,-0.00094637,0.00525283,
 0.00165510,0.05126008,0.00355911,0.00579311,-0.01085208,0.00077011,0.0
 0065044,-0.00072740,0.00015934,-0.00005457,0.00014003,0.00027682,0.000
 02888,0.00000923,0.00023162,0.00030190,0.00016133,-0.00028107,-0.00008
 736,-0.00001924,0.00008984,0.00016500,-0.00010799,-0.00008266,0.000036
 37,0.00000484,-0.00000934,-0.00006174,-0.00001617,0.00000065,-0.000007
 55,-0.00000169,-0.00000322,0.00001102,0.00001279,-0.00000968,-0.000001
 60,0.00001327,0.00005905,-0.00006592,0.00010199,-0.00001552,0.00000142
 ,-0.00000086,0.00004242,0.00005336,-0.00001095,-0.00013351,0.00000146,
 0.00004854,0.00006412,0.00009891,0.00009990,0.00004242,-0.00002012,-0.
 00006016,0.00000537,-0.00000711,-0.00000096,0.00000538,0.00000151,-0.0
 0000751,0.00001933,0.00001385,-0.00000657,-0.00072923,-0.00120665,-0.0
 0196310,0.00074673,0.00011284,-0.00067580,0.00037403,-0.00005143,-0.00
 030700,-0.00014371,-0.00016996,0.00016499,-0.08760808,-0.04162857,0.08
 463413,0.00262422,0.00319030,-0.00764594,-0.01102656,-0.01414259,0.027
 32875,0.09097202,0.00631356,0.00512463,-0.01289941,0.00041317,0.000368
 67,0.00008132,0.00000095,0.00026925,0.00002693,-0.00004544,0.00014777,
 0.00014241,0.00060072,0.00092369,-0.00070674,0.00005587,0.00005957,0.0
 0010566,0.00003170,-0.00011083,0.00003699,0.00003697,0.00005357,-0.000
 01078,-0.00000003,-0.00002460,-0.00000476,0.00001157,0.00001941,-0.000
 00753,0.00000047,0.00000694,-0.00000563,-0.00000918,0.00000362,0.00000
 019,-0.00001732,0.00003050,-0.00004932,-0.00006254,-0.00002036,-0.0000
 1988,0.00005222,-0.00007062,0.00000597,0.00013728,0.00011126,-0.000102
 32,-0.00005060,-0.00027548,0.00000659,-0.00006959,0.00004930,0.0000909
 7,-0.00000051,-0.00001071,0.00001316,0.00001189,-0.00000132,0.00001258
 ,-0.00000568,0.00000137,-0.00000328,-0.00123607,-0.00119022,-0.0023584
 1,0.00014926,0.00078031,-0.00082825,-0.00010505,-0.00017180,0.00013403
 ,-0.00011465,0.00033682,-0.00028983,-0.04166133,-0.09449419,0.09206101
 ,-0.01304035,-0.01187891,0.02653159,0.00155794,0.00096595,-0.00401290,
 0.04704477,0.09899640,0.00934500,0.01017796,-0.02101492,0.00165999,0.0
 0033053,0.00054272,-0.00044945,-0.00016812,0.00021859,-0.00010614,-0.0
 0046540,0.00022374,0.00008915,0.00169025,0.00052842,0.00022896,-0.0003
 4401,0.00027659,0.00007164,-0.00001138,-0.00005384,-0.00000796,-0.0000
 2465,-0.00001639,-0.00009337,-0.00004618,-0.00008625,-0.00000027,-0.00
 002589,-0.00002077,-0.00000440,0.00000122,0.00001384,-0.00000311,-0.00
 002278,-0.00001117,-0.00005104,0.00003748,-0.00001637,-0.00003058,-0.0
 0010009,-0.00008421,-0.00002332,-0.00000906,-0.00001713,-0.00002499,0.
 00006587,-0.00005252,-0.00037603,0.00019630,0.00026466,0.00004699,-0.0
 0004776,-0.00001743,-0.00002176,-0.00000626,-0.00001194,0.00000129,-0.
 00000385,0.00001352,-0.00002453,-0.00000387,-0.00002144,-0.00309048,-0
 .00364256,-0.00403977,0.00070479,0.00074941,-0.00149256,0.00002216,-0.
 00008667,0.00033600,-0.00009878,0.00000678,0.00034387,0.08341615,0.090
 66607,-0.22984225,-0.00061341,0.00000753,0.00087780,-0.00025013,-0.000
 97052,0.00168236,-0.09031638,-0.09795035,0.25147683\\-0.00008814,-0.00
 003073,0.00001800,-0.00007431,-0.00013859,-0.00000362,-0.00007263,0.00
 013013,-0.00000133,0.00017588,-0.00005436,0.00000517,-0.00008648,-0.00
 009842,-0.00000987,-0.00010479,-0.00001637,-0.00000080,-0.00003395,0.0
 0010989,-0.00000035,-0.00007459,0.00008717,-0.00000759,0.00004055,0.00
 007683,0.00000209,0.00005158,0.00000064,-0.00000014,-0.00000417,0.0000
 5555,0.00000013,-0.00004095,0.00003643,-0.00000013,-0.00000695,-0.0000
 6555,0.00000142,0.00008541,0.00006391,-0.00000234,0.00010185,-0.000065
 19,0.00000334,0.00010586,-0.00000644,-0.00000099,0.00000767,-0.0000897
 3,-0.00000074,-0.00005563,-0.00001879,0.00000188,0.00004281,-0.0000361
 4,0.00000157,0.00005680,-0.00000373,0.00000055,-0.00002069,0.00005415,
 -0.00000106,0.00004000,0.00004160,-0.00006096,-0.00000420,0.00000451,0
 .00001904,-0.00002630,-0.00002174,0.00002664,-0.00001339,-0.00002192,0
 .00002103,0.00003783,0.00004941,0.00005978,-0.00001090,-0.00002135,-0.
 00002136,-0.00002516,-0.00002470,-0.00002763,-0.00000302,0.00000355,-0
 .00002175\\\@


 A SCIENTIST IS SOMEONE WHOSE CURIOSITY SURVIVES
 EDUCATION'S ASSAULTS ON IT.
                          - SIR HERMANN BONDI
 Job cpu time:       0 days  0 hours 24 minutes 47.6 seconds.
 Elapsed time:       0 days  0 hours 24 minutes 49.5 seconds.
 File lengths (MBytes):  RWF=    288 Int=      0 D2E=      0 Chk=     10 Scr=      1
 Normal termination of Gaussian 16 at Fri Mar 13 23:52:44 2026.
