53
Generated from .fchk
C -0.981130 1.393023 -0.974242
C -0.261566 1.024348 1.653690
H -1.990581 1.996161 0.807057
H -0.494022 2.837290 0.551383
C 0.297818 0.795035 -1.554720
C 1.261766 1.128016 1.641704
C 1.850395 -0.144163 1.641704
C 0.049305 -0.475557 -2.098161
C -1.365110 -0.799815 -1.906962
C 0.785459 -1.148247 1.641704
C -0.454694 -0.489836 1.640420
C -1.981812 0.272682 -1.247907
C -3.342221 0.241390 -0.988022
C -1.627705 -1.224127 1.713981
C -4.083608 -0.876213 -1.368857
C -1.560962 -2.615145 1.756911
C -0.329659 -3.266847 1.736957
C -3.466137 -1.948846 -2.008972
C -2.103578 -1.916398 -2.285796
C 0.852579 -2.537453 1.684621
H 1.808578 -3.046711 1.685114
H -1.630573 -2.749778 -2.790660
H -4.053812 -2.811082 -2.298526
H -0.294224 -4.348694 1.770026
H -5.147415 -0.909770 -1.169090
H -2.474782 -3.193790 1.802667
H -3.836707 1.070268 -0.494176
H -2.592898 -0.734857 1.728865
C 1.062639 -1.188130 -2.731903
C 3.234430 -0.283379 1.667642
C 2.326698 -0.617902 -2.829087
C 4.026141 0.859509 1.703048
C 2.570405 0.651520 -2.309098
C 3.441946 2.124415 1.719995
C 2.054929 2.262732 1.692087
C 1.555454 1.364687 -1.674668
H 1.614183 3.253124 1.709629
H 1.763181 2.348894 -1.275426
H 3.557692 1.087246 -2.395116
H 4.069881 3.005848 1.758639
H 3.126123 -1.160085 -3.318678
H 5.104831 0.766594 1.724189
H 0.872483 -2.168637 -3.151096
H 3.694023 -1.264141 1.662583
C -1.384849 2.637862 -1.803402
H -1.503835 2.377784 -2.855470
H -2.330014 3.051396 -1.444989
H -0.622634 3.415381 -1.726263
C -0.947189 1.842606 0.517863
C -0.791229 1.594963 2.993068
H -0.611672 2.670582 3.053193
H -1.865236 1.423904 3.086369
H -0.293671 1.118674 3.838192