 Entering Gaussian System, Link 0=g16
 Initial command:
 /sw/cluster/pub/apps//g16/l1.exe "/data/mmaximo/44350/Gau-1956044.inp" -scrdir="/data/mmaximo/44350/"
 Entering Link 1 = /sw/cluster/pub/apps//g16/l1.exe PID=   1956045.
  
 Copyright (c) 1988,1990,1992,1993,1995,1998,2003,2009,2016,
            Gaussian, Inc.  All Rights Reserved.
  
 This is part of the Gaussian(R) 16 program.  It is based on
 the Gaussian(R) 09 system (copyright 2009, Gaussian, Inc.),
 the Gaussian(R) 03 system (copyright 2003, Gaussian, Inc.),
 the Gaussian(R) 98 system (copyright 1998, Gaussian, Inc.),
 the Gaussian(R) 94 system (copyright 1995, Gaussian, Inc.),
 the Gaussian 92(TM) system (copyright 1992, Gaussian, Inc.),
 the Gaussian 90(TM) system (copyright 1990, Gaussian, Inc.),
 the Gaussian 88(TM) system (copyright 1988, Gaussian, Inc.),
 the Gaussian 86(TM) system (copyright 1986, Carnegie Mellon
 University), and the Gaussian 82(TM) system (copyright 1983,
 Carnegie Mellon University). Gaussian is a federally registered
 trademark of Gaussian, Inc.
  
 This software contains proprietary and confidential information,
 including trade secrets, belonging to Gaussian, Inc.
  
 This software is provided under written license and may be
 used, copied, transmitted, or stored only in accord with that
 written license.
  
 The following legend is applicable only to US Government
 contracts under FAR:
  
                    RESTRICTED RIGHTS LEGEND
  
 Use, reproduction and disclosure by the US Government is
 subject to restrictions as set forth in subparagraphs (a)
 and (c) of the Commercial Computer Software - Restricted
 Rights clause in FAR 52.227-19.
  
 Gaussian, Inc.
 340 Quinnipiac St., Bldg. 40, Wallingford CT 06492
  
  
 ---------------------------------------------------------------
 Warning -- This program may not be used in any manner that
 competes with the business of Gaussian, Inc. or will provide
 assistance to any competitor of Gaussian, Inc.  The licensee
 of this program is prohibited from giving any competitor of
 Gaussian, Inc. access to this program.  By using this program,
 the user acknowledges that Gaussian, Inc. is engaged in the
 business of creating and licensing software in the field of
 computational chemistry and represents and warrants to the
 licensee that it is not a competitor of Gaussian, Inc. and that
 it will not use this program in any manner prohibited above.
 ---------------------------------------------------------------
  

 Cite this work as:
 Gaussian 16, Revision A.03,
 M. J. Frisch, G. W. Trucks, H. B. Schlegel, G. E. Scuseria, 
 M. A. Robb, J. R. Cheeseman, G. Scalmani, V. Barone, 
 G. A. Petersson, H. Nakatsuji, X. Li, M. Caricato, A. V. Marenich, 
 J. Bloino, B. G. Janesko, R. Gomperts, B. Mennucci, H. P. Hratchian, 
 J. V. Ortiz, A. F. Izmaylov, J. L. Sonnenberg, D. Williams-Young, 
 F. Ding, F. Lipparini, F. Egidi, J. Goings, B. Peng, A. Petrone, 
 T. Henderson, D. Ranasinghe, V. G. Zakrzewski, J. Gao, N. Rega, 
 G. Zheng, W. Liang, M. Hada, M. Ehara, K. Toyota, R. Fukuda, 
 J. Hasegawa, M. Ishida, T. Nakajima, Y. Honda, O. Kitao, H. Nakai, 
 T. Vreven, K. Throssell, J. A. Montgomery, Jr., J. E. Peralta, 
 F. Ogliaro, M. J. Bearpark, J. J. Heyd, E. N. Brothers, K. N. Kudin, 
 V. N. Staroverov, T. A. Keith, R. Kobayashi, J. Normand, 
 K. Raghavachari, A. P. Rendell, J. C. Burant, S. S. Iyengar, 
 J. Tomasi, M. Cossi, J. M. Millam, M. Klene, C. Adamo, R. Cammi, 
 J. W. Ochterski, R. L. Martin, K. Morokuma, O. Farkas, 
 J. B. Foresman, and D. J. Fox, Gaussian, Inc., Wallingford CT, 2016.
 
 ******************************************
 Gaussian 16:  ES64L-G16RevA.03 25-Dec-2016
                18-Mar-2026 
 ******************************************
 %chk=bz-6-31+Gstar.chk
 -------------------------
 #P B3LYP/6-31+G* OPT FREQ
 -------------------------
 1/18=20,19=15,26=3,38=1/1,3;
 2/9=110,12=2,17=6,18=5,40=1/2;
 3/5=1,6=6,7=11,11=2,25=1,30=1,71=1,74=-5/1,2,3;
 4//1;
 5/5=2,38=5/2;
 6/7=2,8=2,9=2,10=2,28=1/1;
 7//1,2,3,16;
 1/18=20,19=15,26=3/3(2);
 2/9=110/2;
 99//99;
 2/9=110/2;
 3/5=1,6=6,7=11,11=2,25=1,30=1,71=1,74=-5/1,2,3;
 4/5=5,16=3,69=1/1;
 5/5=2,38=5/2;
 7//1,2,3,16;
 1/18=20,19=15,26=3/3(-5);
 2/9=110/2;
 6/7=2,8=2,9=2,10=2,19=2,28=1/1;
 99/9=1/99;
 Leave Link    1 at Wed Mar 18 10:00:07 2026, MaxMem=           0 cpu:               0.0 elap:               0.0
 (Enter /sw/cluster/pub/apps//g16/l101.exe)
 ------------------------
 OPT FREQ benzene 6-31+G*
 ------------------------
 Symbolic Z-matrix:
 Charge =  0 Multiplicity = 1
 C                    -0.43806   0.15221   0.24892 
 C                     0.96334   0.15214   0.24935 
 C                     1.6641    1.36575   0.24879 
 C                     0.96346   2.57943   0.24779 
 C                    -0.43794   2.5795    0.24736 
 C                    -1.1387    1.36589   0.24793 
 H                    -0.97311  -0.77441   0.24935 
 H                     1.49829  -0.77454   0.25011 
 H                     2.7341    1.3657    0.24911 
 H                     1.49851   3.50605   0.24736 
 H                    -0.97289   3.50618   0.24661 
 H                    -2.2087    1.36594   0.2476 
 
 ITRead=  0  0  0  0  0  0  0  0  0  0  0  0
 MicOpt= -1 -1 -1 -1 -1 -1 -1 -1 -1 -1 -1 -1
 NAtoms=     12 NQM=       12 NQMF=       0 NMMI=      0 NMMIF=      0
                NMic=       0 NMicF=      0.
                    Isotopes and Nuclear Properties:
 (Nuclear quadrupole moments (NQMom) in fm**2, nuclear magnetic moments (NMagM)
  in nuclear magnetons)

  Atom         1           2           3           4           5           6           7           8           9          10
 IAtWgt=          12          12          12          12          12          12           1           1           1           1
 AtmWgt=  12.0000000  12.0000000  12.0000000  12.0000000  12.0000000  12.0000000   1.0078250   1.0078250   1.0078250   1.0078250
 NucSpn=           0           0           0           0           0           0           1           1           1           1
 AtZEff=  -0.0000000  -0.0000000  -0.0000000  -0.0000000  -0.0000000  -0.0000000  -0.0000000  -0.0000000  -0.0000000  -0.0000000
 NQMom=    0.0000000   0.0000000   0.0000000   0.0000000   0.0000000   0.0000000   0.0000000   0.0000000   0.0000000   0.0000000
 NMagM=    0.0000000   0.0000000   0.0000000   0.0000000   0.0000000   0.0000000   2.7928460   2.7928460   2.7928460   2.7928460
 AtZNuc=   6.0000000   6.0000000   6.0000000   6.0000000   6.0000000   6.0000000   1.0000000   1.0000000   1.0000000   1.0000000

  Atom        11          12
 IAtWgt=           1           1
 AtmWgt=   1.0078250   1.0078250
 NucSpn=           1           1
 AtZEff=  -0.0000000  -0.0000000
 NQMom=    0.0000000   0.0000000
 NMagM=    2.7928460   2.7928460
 AtZNuc=   1.0000000   1.0000000
 Leave Link  101 at Wed Mar 18 10:00:07 2026, MaxMem=   104857600 cpu:               0.0 elap:               0.0
 (Enter /sw/cluster/pub/apps//g16/l103.exe)

 GradGradGradGradGradGradGradGradGradGradGradGradGradGradGradGradGradGrad
 Berny optimization.
 Initialization pass.
                           ----------------------------
                           !    Initial Parameters    !
                           ! (Angstroms and Degrees)  !
 --------------------------                            --------------------------
 ! Name  Definition              Value          Derivative Info.                !
 --------------------------------------------------------------------------------
 ! R1    R(1,2)                  1.4014         estimate D2E/DX2                !
 ! R2    R(1,6)                  1.4014         estimate D2E/DX2                !
 ! R3    R(1,7)                  1.07           estimate D2E/DX2                !
 ! R4    R(2,3)                  1.4014         estimate D2E/DX2                !
 ! R5    R(2,8)                  1.07           estimate D2E/DX2                !
 ! R6    R(3,4)                  1.4014         estimate D2E/DX2                !
 ! R7    R(3,9)                  1.07           estimate D2E/DX2                !
 ! R8    R(4,5)                  1.4014         estimate D2E/DX2                !
 ! R9    R(4,10)                 1.07           estimate D2E/DX2                !
 ! R10   R(5,6)                  1.4014         estimate D2E/DX2                !
 ! R11   R(5,11)                 1.07           estimate D2E/DX2                !
 ! R12   R(6,12)                 1.07           estimate D2E/DX2                !
 ! A1    A(2,1,6)              120.0            estimate D2E/DX2                !
 ! A2    A(2,1,7)              120.0            estimate D2E/DX2                !
 ! A3    A(6,1,7)              120.0            estimate D2E/DX2                !
 ! A4    A(1,2,3)              120.0            estimate D2E/DX2                !
 ! A5    A(1,2,8)              120.0            estimate D2E/DX2                !
 ! A6    A(3,2,8)              120.0            estimate D2E/DX2                !
 ! A7    A(2,3,4)              120.0            estimate D2E/DX2                !
 ! A8    A(2,3,9)              120.0            estimate D2E/DX2                !
 ! A9    A(4,3,9)              120.0            estimate D2E/DX2                !
 ! A10   A(3,4,5)              120.0            estimate D2E/DX2                !
 ! A11   A(3,4,10)             120.0            estimate D2E/DX2                !
 ! A12   A(5,4,10)             120.0            estimate D2E/DX2                !
 ! A13   A(4,5,6)              120.0            estimate D2E/DX2                !
 ! A14   A(4,5,11)             120.0            estimate D2E/DX2                !
 ! A15   A(6,5,11)             120.0            estimate D2E/DX2                !
 ! A16   A(1,6,5)              120.0            estimate D2E/DX2                !
 ! A17   A(1,6,12)             120.0            estimate D2E/DX2                !
 ! A18   A(5,6,12)             120.0            estimate D2E/DX2                !
 ! D1    D(6,1,2,3)              0.0            estimate D2E/DX2                !
 ! D2    D(6,1,2,8)            180.0            estimate D2E/DX2                !
 ! D3    D(7,1,2,3)            179.9999         estimate D2E/DX2                !
 ! D4    D(7,1,2,8)              0.0            estimate D2E/DX2                !
 ! D5    D(2,1,6,5)              0.0            estimate D2E/DX2                !
 ! D6    D(2,1,6,12)          -179.9999         estimate D2E/DX2                !
 ! D7    D(7,1,6,5)           -179.9999         estimate D2E/DX2                !
 ! D8    D(7,1,6,12)             0.0001         estimate D2E/DX2                !
 ! D9    D(1,2,3,4)              0.0            estimate D2E/DX2                !
 ! D10   D(1,2,3,9)           -180.0            estimate D2E/DX2                !
 ! D11   D(8,2,3,4)            179.9999         estimate D2E/DX2                !
 ! D12   D(8,2,3,9)              0.0            estimate D2E/DX2                !
 ! D13   D(2,3,4,5)              0.0001         estimate D2E/DX2                !
 ! D14   D(2,3,4,10)          -179.9999         estimate D2E/DX2                !
 ! D15   D(9,3,4,5)           -179.9999         estimate D2E/DX2                !
 ! D16   D(9,3,4,10)             0.0            estimate D2E/DX2                !
 ! D17   D(3,4,5,6)             -0.0001         estimate D2E/DX2                !
 ! D18   D(3,4,5,11)           179.9998         estimate D2E/DX2                !
 ! D19   D(10,4,5,6)           179.9999         estimate D2E/DX2                !
 ! D20   D(10,4,5,11)           -0.0001         estimate D2E/DX2                !
 ! D21   D(4,5,6,1)              0.0001         estimate D2E/DX2                !
 ! D22   D(4,5,6,12)          -180.0            estimate D2E/DX2                !
 ! D23   D(11,5,6,1)          -179.9999         estimate D2E/DX2                !
 ! D24   D(11,5,6,12)            0.0            estimate D2E/DX2                !
 --------------------------------------------------------------------------------
 Trust Radius=3.00D-01 FncErr=1.00D-07 GrdErr=1.00D-06 EigMax=2.50D+02 EigMin=1.00D-04
 Number of steps in this run=     64 maximum allowed number of steps=    100.
 GradGradGradGradGradGradGradGradGradGradGradGradGradGradGradGradGradGrad

 Leave Link  103 at Wed Mar 18 10:00:07 2026, MaxMem=   104857600 cpu:               0.0 elap:               0.0
 (Enter /sw/cluster/pub/apps//g16/l202.exe)
                          Input orientation:                          
 ---------------------------------------------------------------------
 Center     Atomic      Atomic             Coordinates (Angstroms)
 Number     Number       Type             X           Y           Z
 ---------------------------------------------------------------------
      1          6           0       -0.438060    0.152208    0.248923
      2          6           0        0.963340    0.152138    0.249352
      3          6           0        1.664101    1.365751    0.248786
      4          6           0        0.963462    2.579434    0.247791
      5          6           0       -0.437938    2.579504    0.247365
      6          6           0       -1.138699    1.365891    0.247929
      7          1           0       -0.973106   -0.774412    0.249353
      8          1           0        1.498294   -0.774536    0.250110
      9          1           0        2.734101    1.365697    0.249114
     10          1           0        1.498509    3.506054    0.247358
     11          1           0       -0.972891    3.506177    0.246607
     12          1           0       -2.208698    1.365945    0.247603
 ---------------------------------------------------------------------
                    Distance matrix (angstroms):
                    1          2          3          4          5
     1  C    0.000000
     2  C    1.401400   0.000000
     3  C    2.427296   1.401400   0.000000
     4  C    2.802800   2.427296   1.401400   0.000000
     5  C    2.427296   2.802800   2.427296   1.401400   0.000000
     6  C    1.401400   2.427296   2.802800   2.427296   1.401400
     7  H    1.070000   2.146700   3.396345   3.872800   3.396345
     8  H    2.146700   1.070000   2.146700   3.396345   3.872800
     9  H    3.396345   2.146700   1.070000   2.146700   3.396345
    10  H    3.872800   3.396345   2.146700   1.070000   2.146700
    11  H    3.396345   3.872800   3.396345   2.146700   1.070000
    12  H    2.146700   3.396345   3.872800   3.396345   2.146700
                    6          7          8          9         10
     6  C    0.000000
     7  H    2.146700   0.000000
     8  H    3.396345   2.471400   0.000000
     9  H    3.872800   4.280590   2.471400   0.000000
    10  H    3.396345   4.942800   4.280590   2.471400   0.000000
    11  H    2.146700   4.280590   4.942800   4.280590   2.471400
    12  H    1.070000   2.471400   4.280590   4.942800   4.280590
                   11         12
    11  H    0.000000
    12  H    2.471400   0.000000
 This structure is nearly, but not quite of a higher symmetry.
 Consider Symm=Loose if the higher symmetry is desired.
 Stoichiometry    C6H6
 Framework group  C1[X(C6H6)]
 Deg. of freedom    30
 Full point group                 C1      NOp   1
 Largest Abelian subgroup         C1      NOp   1
 Largest concise Abelian subgroup C1      NOp   1
                         Standard orientation:                         
 ---------------------------------------------------------------------
 Center     Atomic      Atomic             Coordinates (Angstroms)
 Number     Number       Type             X           Y           Z
 ---------------------------------------------------------------------
      1          6           0       -0.314045   -1.365759    0.000566
      2          6           0       -1.339804   -0.410908    0.000993
      3          6           0       -1.025759    0.954851    0.000428
      4          6           0        0.314045    1.365759   -0.000565
      5          6           0        1.339804    0.410908   -0.000994
      6          6           0        1.025759   -0.954851   -0.000428
      7          1           0       -0.553826   -2.408546    0.000999
      8          1           0       -2.362775   -0.724645    0.001752
      9          1           0       -1.808949    1.683901    0.000754
     10          1           0        0.553826    2.408546   -0.000995
     11          1           0        2.362775    0.724645   -0.001754
     12          1           0        1.808949   -1.683901   -0.000756
 ---------------------------------------------------------------------
 Rotational constants (GHZ):           5.6677156           5.6677155           2.8338578
 Leave Link  202 at Wed Mar 18 10:00:07 2026, MaxMem=   104857600 cpu:               0.0 elap:               0.0
 (Enter /sw/cluster/pub/apps//g16/l301.exe)
 Standard basis: 6-31+G(d) (6D, 7F)
 Ernie: Thresh=  0.10000D-02 Tol=  0.10000D-05 Strict=F.
 There are   126 symmetry adapted cartesian basis functions of A   symmetry.
 There are   126 symmetry adapted basis functions of A   symmetry.
   126 basis functions,   216 primitive gaussians,   126 cartesian basis functions
    21 alpha electrons       21 beta electrons
       nuclear repulsion energy       203.0814684940 Hartrees.
 IExCor=  402 DFT=T Ex+Corr=B3LYP ExCW=0 ScaHFX=  0.200000
 ScaDFX=  0.800000  0.720000  1.000000  0.810000 ScalE2=  1.000000  1.000000
 IRadAn=      5 IRanWt=     -1 IRanGd=            0 ICorTp=0 IEmpDi=  4
 NAtoms=   12 NActive=   12 NUniq=   12 SFac= 1.00D+00 NAtFMM=   60 NAOKFM=F Big=F
 Integral buffers will be    131072 words long.
 Raffenetti 2 integral format.
 Two-electron integral symmetry is turned on.
 Leave Link  301 at Wed Mar 18 10:00:07 2026, MaxMem=   104857600 cpu:               0.0 elap:               0.0
 (Enter /sw/cluster/pub/apps//g16/l302.exe)
 NPDir=0 NMtPBC=     1 NCelOv=     1 NCel=       1 NClECP=     1 NCelD=      1
         NCelK=      1 NCelE2=     1 NClLst=     1 CellRange=     0.0.
 One-electron integrals computed using PRISM.
 One-electron integral symmetry used in STVInt
 NBasis=   126 RedAO= T EigKep=  6.65D-06  NBF=   126
 NBsUse=   126 1.00D-06 EigRej= -1.00D+00 NBFU=   126
 Precomputing XC quadrature grid using
 IXCGrd= 4 IRadAn=           5 IRanWt=          -1 IRanGd=           0 AccXCQ= 0.00D+00.
 Generated NRdTot=       0 NPtTot=           0 NUsed=           0 NTot=          32
 NSgBfM=   126   126   126   126   126 MxSgAt=    12 MxSgA2=    12.
 Leave Link  302 at Wed Mar 18 10:00:07 2026, MaxMem=   104857600 cpu:               0.1 elap:               0.1
 (Enter /sw/cluster/pub/apps//g16/l303.exe)
 DipDrv:  MaxL=1.
 Leave Link  303 at Wed Mar 18 10:00:07 2026, MaxMem=   104857600 cpu:               0.0 elap:               0.0
 (Enter /sw/cluster/pub/apps//g16/l401.exe)
 ExpMin= 4.38D-02 ExpMax= 3.05D+03 ExpMxC= 4.57D+02 IAcc=3 IRadAn=         5 AccDes= 0.00D+00
 Harris functional with IExCor=  402 and IRadAn=       5 diagonalized for initial guess.
 HarFok:  IExCor=  402 AccDes= 0.00D+00 IRadAn=         5 IDoV= 1 UseB2=F ITyADJ=14
 ICtDFT=  3500011 ScaDFX=  1.000000  1.000000  1.000000  1.000000
 FoFCou: FMM=F IPFlag=           0 FMFlag=      100000 FMFlg1=           0
         NFxFlg=           0 DoJE=T BraDBF=F KetDBF=T FulRan=T
         wScrn=  0.000000 ICntrl=       500 IOpCl=  0 I1Cent=   200000004 NGrid=           0
         NMat0=    1 NMatS0=      1 NMatT0=    0 NMatD0=    1 NMtDS0=    0 NMtDT0=    0
 Petite list used in FoFCou.
 Harris En= -232.282804262990    
 JPrj=0 DoOrth=F DoCkMO=F.
 Leave Link  401 at Wed Mar 18 10:00:08 2026, MaxMem=   104857600 cpu:               0.9 elap:               0.9
 (Enter /sw/cluster/pub/apps//g16/l502.exe)
 Keep R1 ints in memory in canonical form, NReq=33036972.
 FoFCou: FMM=F IPFlag=           0 FMFlag=           0 FMFlg1=           0
         NFxFlg=           0 DoJE=F BraDBF=F KetDBF=F FulRan=T
         wScrn=  0.000000 ICntrl=       600 IOpCl=  0 I1Cent=           0 NGrid=           0
         NMat0=    1 NMatS0=   8001 NMatT0=    0 NMatD0=    1 NMtDS0=    0 NMtDT0=    0
 Symmetry not used in FoFCou.
 Two-electron integral symmetry not used.
 Closed shell SCF:
 Using DIIS extrapolation, IDIIS=  1040.
 NGot=   104857600 LenX=    72811647 LenY=    72795330
 Requested convergence on RMS density matrix=1.00D-08 within 128 cycles.
 Requested convergence on MAX density matrix=1.00D-06.
 Requested convergence on             energy=1.00D-06.
 No special actions if energy rises.

 Cycle   1  Pass 1  IDiag  1:
 E= -232.104975464524    
 DIIS: error= 3.24D-02 at cycle   1 NSaved=   1.
 NSaved= 1 IEnMin= 1 EnMin= -232.104975464524     IErMin= 1 ErrMin= 3.24D-02
 ErrMax= 3.24D-02  0.00D+00 EMaxC= 1.00D-01 BMatC= 1.31D-01 BMatP= 1.31D-01
 IDIUse=3 WtCom= 6.76D-01 WtEn= 3.24D-01
 Coeff-Com:  0.100D+01
 Coeff-En:   0.100D+01
 Coeff:      0.100D+01
 Gap=     0.243 Goal=   None    Shift=    0.000
 GapD=    0.243 DampG=1.000 DampE=0.500 DampFc=0.5000 IDamp=-1.
 Damping current iteration by 5.00D-01
 RMSDP=1.05D-02 MaxDP=1.16D-01              OVMax= 1.83D-01

 Cycle   2  Pass 1  IDiag  1:
 E= -232.172280609935     Delta-E=       -0.067305145411 Rises=F Damp=T
 DIIS: error= 8.48D-03 at cycle   2 NSaved=   2.
 NSaved= 2 IEnMin= 2 EnMin= -232.172280609935     IErMin= 2 ErrMin= 8.48D-03
 ErrMax= 8.48D-03  0.00D+00 EMaxC= 1.00D-01 BMatC= 7.41D-03 BMatP= 1.31D-01
 IDIUse=3 WtCom= 9.15D-01 WtEn= 8.48D-02
 Coeff-Com:  0.410D-01 0.959D+00
 Coeff-En:   0.914D-01 0.909D+00
 Coeff:      0.452D-01 0.955D+00
 Gap=     0.270 Goal=   None    Shift=    0.000
 RMSDP=3.43D-03 MaxDP=6.75D-02 DE=-6.73D-02 OVMax= 1.02D-01

 Cycle   3  Pass 1  IDiag  1:
 E= -232.256314139177     Delta-E=       -0.084033529242 Rises=F Damp=F
 DIIS: error= 4.50D-03 at cycle   3 NSaved=   3.
 NSaved= 3 IEnMin= 3 EnMin= -232.256314139177     IErMin= 3 ErrMin= 4.50D-03
 ErrMax= 4.50D-03  0.00D+00 EMaxC= 1.00D-01 BMatC= 1.44D-03 BMatP= 7.41D-03
 IDIUse=3 WtCom= 9.55D-01 WtEn= 4.50D-02
 Coeff-Com: -0.416D-01 0.261D+00 0.780D+00
 Coeff-En:   0.000D+00 0.000D+00 0.100D+01
 Coeff:     -0.398D-01 0.250D+00 0.790D+00
 Gap=     0.241 Goal=   None    Shift=    0.000
 RMSDP=1.12D-03 MaxDP=1.58D-02 DE=-8.40D-02 OVMax= 9.02D-03

 Cycle   4  Pass 1  IDiag  1:
 E= -232.257665803050     Delta-E=       -0.001351663873 Rises=F Damp=F
 DIIS: error= 5.91D-04 at cycle   4 NSaved=   4.
 NSaved= 4 IEnMin= 4 EnMin= -232.257665803050     IErMin= 4 ErrMin= 5.91D-04
 ErrMax= 5.91D-04  0.00D+00 EMaxC= 1.00D-01 BMatC= 3.22D-05 BMatP= 1.44D-03
 IDIUse=3 WtCom= 9.94D-01 WtEn= 5.91D-03
 Coeff-Com: -0.124D-01 0.233D-01 0.171D+00 0.818D+00
 Coeff-En:   0.000D+00 0.000D+00 0.000D+00 0.100D+01
 Coeff:     -0.123D-01 0.232D-01 0.170D+00 0.819D+00
 Gap=     0.242 Goal=   None    Shift=    0.000
 RMSDP=1.60D-04 MaxDP=2.43D-03 DE=-1.35D-03 OVMax= 1.12D-03

 Cycle   5  Pass 1  IDiag  1:
 E= -232.257696616310     Delta-E=       -0.000030813260 Rises=F Damp=F
 DIIS: error= 1.97D-05 at cycle   5 NSaved=   5.
 NSaved= 5 IEnMin= 5 EnMin= -232.257696616310     IErMin= 5 ErrMin= 1.97D-05
 ErrMax= 1.97D-05  0.00D+00 EMaxC= 1.00D-01 BMatC= 4.17D-08 BMatP= 3.22D-05
 IDIUse=1 WtCom= 1.00D+00 WtEn= 0.00D+00
 Coeff-Com: -0.584D-03 0.690D-04 0.447D-02 0.489D-01 0.947D+00
 Coeff:     -0.584D-03 0.690D-04 0.447D-02 0.489D-01 0.947D+00
 Gap=     0.242 Goal=   None    Shift=    0.000
 RMSDP=1.16D-05 MaxDP=1.80D-04 DE=-3.08D-05 OVMax= 3.76D-05

 Cycle   6  Pass 1  IDiag  1:
 E= -232.257696653432     Delta-E=       -0.000000037122 Rises=F Damp=F
 DIIS: error= 2.28D-06 at cycle   6 NSaved=   6.
 NSaved= 6 IEnMin= 6 EnMin= -232.257696653432     IErMin= 6 ErrMin= 2.28D-06
 ErrMax= 2.28D-06  0.00D+00 EMaxC= 1.00D-01 BMatC= 4.22D-10 BMatP= 4.17D-08
 IDIUse=1 WtCom= 1.00D+00 WtEn= 0.00D+00
 Coeff-Com:  0.447D-04-0.892D-04-0.119D-02-0.384D-02-0.209D-02 0.101D+01
 Coeff:      0.447D-04-0.892D-04-0.119D-02-0.384D-02-0.209D-02 0.101D+01
 Gap=     0.242 Goal=   None    Shift=    0.000
 RMSDP=4.71D-07 MaxDP=4.45D-06 DE=-3.71D-08 OVMax= 6.66D-06

 Cycle   7  Pass 1  IDiag  1:
 E= -232.257696653914     Delta-E=       -0.000000000482 Rises=F Damp=F
 DIIS: error= 1.33D-07 at cycle   7 NSaved=   7.
 NSaved= 7 IEnMin= 7 EnMin= -232.257696653914     IErMin= 7 ErrMin= 1.33D-07
 ErrMax= 1.33D-07  0.00D+00 EMaxC= 1.00D-01 BMatC= 1.60D-12 BMatP= 4.22D-10
 IDIUse=1 WtCom= 1.00D+00 WtEn= 0.00D+00
 Coeff-Com: -0.477D-06 0.521D-06-0.385D-04-0.152D-03-0.189D-02 0.160D-01
 Coeff-Com:  0.986D+00
 Coeff:     -0.477D-06 0.521D-06-0.385D-04-0.152D-03-0.189D-02 0.160D-01
 Coeff:      0.986D+00
 Gap=     0.242 Goal=   None    Shift=    0.000
 RMSDP=3.59D-08 MaxDP=3.47D-07 DE=-4.82D-10 OVMax= 4.84D-07

 Cycle   8  Pass 1  IDiag  1:
 E= -232.257696653917     Delta-E=       -0.000000000004 Rises=F Damp=F
 DIIS: error= 2.73D-08 at cycle   8 NSaved=   8.
 NSaved= 8 IEnMin= 8 EnMin= -232.257696653917     IErMin= 8 ErrMin= 2.73D-08
 ErrMax= 2.73D-08  0.00D+00 EMaxC= 1.00D-01 BMatC= 5.29D-14 BMatP= 1.60D-12
 IDIUse=1 WtCom= 1.00D+00 WtEn= 0.00D+00
 Coeff-Com: -0.322D-06 0.614D-06-0.634D-05-0.325D-04-0.583D-03 0.669D-03
 Coeff-Com:  0.290D+00 0.710D+00
 Coeff:     -0.322D-06 0.614D-06-0.634D-05-0.325D-04-0.583D-03 0.669D-03
 Coeff:      0.290D+00 0.710D+00
 Gap=     0.242 Goal=   None    Shift=    0.000
 RMSDP=3.54D-09 MaxDP=5.68D-08 DE=-3.64D-12 OVMax= 1.33D-07

 SCF Done:  E(RB3LYP) =  -232.257696654     A.U. after    8 cycles
            NFock=  8  Conv=0.35D-08     -V/T= 2.0098
 KE= 2.299952884771D+02 PE=-9.431614495718D+02 EE= 2.778269959468D+02
 Leave Link  502 at Wed Mar 18 10:00:15 2026, MaxMem=   104857600 cpu:               7.7 elap:               7.7
 (Enter /sw/cluster/pub/apps//g16/l601.exe)
 Copying SCF densities to generalized density rwf, IOpCl= 0 IROHF=0.

 **********************************************************************

            Population analysis using the SCF density.

 **********************************************************************

 Orbital symmetries:
       Occupied  (A) (A) (A) (A) (A) (A) (A) (A) (A) (A) (A) (A)
                 (A) (A) (A) (A) (A) (A) (A) (A) (A)
       Virtual   (A) (A) (A) (A) (A) (A) (A) (A) (A) (A) (A) (A)
                 (A) (A) (A) (A) (A) (A) (A) (A) (A) (A) (A) (A)
                 (A) (A) (A) (A) (A) (A) (A) (A) (A) (A) (A) (A)
                 (A) (A) (A) (A) (A) (A) (A) (A) (A) (A) (A) (A)
                 (A) (A) (A) (A) (A) (A) (A) (A) (A) (A) (A) (A)
                 (A) (A) (A) (A) (A) (A) (A) (A) (A) (A) (A) (A)
                 (A) (A) (A) (A) (A) (A) (A) (A) (A) (A) (A) (A)
                 (A) (A) (A) (A) (A) (A) (A) (A) (A) (A) (A) (A)
                 (A) (A) (A) (A) (A) (A) (A) (A) (A)
 The electronic state is 1-A.
 Alpha  occ. eigenvalues --  -10.19704 -10.19678 -10.19678 -10.19624 -10.19624
 Alpha  occ. eigenvalues --  -10.19598  -0.85518  -0.75013  -0.75013  -0.60886
 Alpha  occ. eigenvalues --   -0.60886  -0.52986  -0.47325  -0.44711  -0.42843
 Alpha  occ. eigenvalues --   -0.42843  -0.36777  -0.35116  -0.35116  -0.25624
 Alpha  occ. eigenvalues --   -0.25623
 Alpha virt. eigenvalues --   -0.01472  -0.01472   0.01018   0.02678   0.02678
 Alpha virt. eigenvalues --    0.04634   0.04634   0.06699   0.07907   0.08076
 Alpha virt. eigenvalues --    0.09252   0.09252   0.10037   0.12618   0.14288
 Alpha virt. eigenvalues --    0.14289   0.14557   0.14557   0.15572   0.15572
 Alpha virt. eigenvalues --    0.19822   0.19822   0.20116   0.20467   0.21166
 Alpha virt. eigenvalues --    0.21166   0.23751   0.24875   0.24875   0.26689
 Alpha virt. eigenvalues --    0.28171   0.28171   0.32812   0.34539   0.34539
 Alpha virt. eigenvalues --    0.35072   0.35072   0.56253   0.57663   0.59827
 Alpha virt. eigenvalues --    0.61542   0.65995   0.71816   0.71816   0.72010
 Alpha virt. eigenvalues --    0.72010   0.74714   0.74714   0.76961   0.76961
 Alpha virt. eigenvalues --    0.80375   0.82878   0.90320   0.94255   0.94255
 Alpha virt. eigenvalues --    0.97339   0.97340   0.97487   1.04302   1.07432
 Alpha virt. eigenvalues --    1.07432   1.13316   1.13317   1.16577   1.16577
 Alpha virt. eigenvalues --    1.25160   1.30650   1.39165   1.44082   1.44082
 Alpha virt. eigenvalues --    1.47729   1.47729   1.50382   1.50382   1.75418
 Alpha virt. eigenvalues --    1.81268   1.89988   1.91235   2.00713   2.00713
 Alpha virt. eigenvalues --    2.10111   2.10111   2.14718   2.14718   2.15764
 Alpha virt. eigenvalues --    2.15764   2.29842   2.29842   2.31478   2.57625
 Alpha virt. eigenvalues --    2.57625   2.63720   2.70572   2.70572   2.72657
 Alpha virt. eigenvalues --    2.72657   2.83360   3.01328   3.40010   4.22228
 Alpha virt. eigenvalues --    4.24028   4.24028   4.37820   4.37820   4.67733
          Condensed to atoms (all electrons):
               1          2          3          4          5          6
     1  C    4.957293   0.559896  -0.092757  -0.005314  -0.092757   0.559896
     2  C    0.559896   4.957281   0.559896  -0.092757  -0.005310  -0.092754
     3  C   -0.092757   0.559896   4.957301   0.559896  -0.092754  -0.005311
     4  C   -0.005314  -0.092757   0.559896   4.957293   0.559896  -0.092757
     5  C   -0.092757  -0.005310  -0.092754   0.559896   4.957281   0.559896
     6  C    0.559896  -0.092754  -0.005311  -0.092757   0.559896   4.957301
     7  H    0.287345  -0.005367   0.010692  -0.007624   0.010692  -0.005365
     8  H   -0.005366   0.287345  -0.005363   0.010691  -0.007624   0.010691
     9  H    0.010690  -0.005364   0.287343  -0.005364   0.010692  -0.007624
    10  H   -0.007624   0.010692  -0.005365   0.287345  -0.005367   0.010692
    11  H    0.010691  -0.007624   0.010691  -0.005366   0.287345  -0.005363
    12  H   -0.005364   0.010692  -0.007624   0.010690  -0.005364   0.287343
               7          8          9         10         11         12
     1  C    0.287345  -0.005366   0.010690  -0.007624   0.010691  -0.005364
     2  C   -0.005367   0.287345  -0.005364   0.010692  -0.007624   0.010692
     3  C    0.010692  -0.005363   0.287343  -0.005365   0.010691  -0.007624
     4  C   -0.007624   0.010691  -0.005364   0.287345  -0.005366   0.010690
     5  C    0.010692  -0.007624   0.010692  -0.005367   0.287345  -0.005364
     6  C   -0.005365   0.010691  -0.007624   0.010692  -0.005363   0.287343
     7  H    0.544152  -0.005420  -0.000167   0.000016  -0.000167  -0.005420
     8  H   -0.005420   0.544151  -0.005420  -0.000167   0.000016  -0.000167
     9  H   -0.000167  -0.005420   0.544151  -0.005420  -0.000167   0.000016
    10  H    0.000016  -0.000167  -0.005420   0.544152  -0.005420  -0.000167
    11  H   -0.000167   0.000016  -0.000167  -0.005420   0.544151  -0.005420
    12  H   -0.005420  -0.000167   0.000016  -0.000167  -0.005420   0.544151
 Mulliken charges:
               1
     1  C   -0.176629
     2  C   -0.176626
     3  C   -0.176645
     4  C   -0.176629
     5  C   -0.176626
     6  C   -0.176645
     7  H    0.176633
     8  H    0.176634
     9  H    0.176634
    10  H    0.176633
    11  H    0.176634
    12  H    0.176634
 Sum of Mulliken charges =  -0.00000
 Mulliken charges with hydrogens summed into heavy atoms:
               1
     1  C    0.000004
     2  C    0.000008
     3  C   -0.000012
     4  C    0.000004
     5  C    0.000008
     6  C   -0.000012
 Electronic spatial extent (au):  <R**2>=            461.1084
 Charge=             -0.0000 electrons
 Dipole moment (field-independent basis, Debye):
    X=              0.0000    Y=              0.0000    Z=              0.0000  Tot=              0.0000
 Quadrupole moment (field-independent basis, Debye-Ang):
   XX=            -32.1101   YY=            -32.1101   ZZ=            -40.3715
   XY=              0.0000   XZ=             -0.0055   YZ=             -0.0022
 Traceless Quadrupole moment (field-independent basis, Debye-Ang):
   XX=              2.7538   YY=              2.7538   ZZ=             -5.5076
   XY=              0.0000   XZ=             -0.0055   YZ=             -0.0022
 Octapole moment (field-independent basis, Debye-Ang**2):
  XXX=             -0.0000  YYY=              0.0000  ZZZ=              0.0000  XYY=              0.0000
  XXY=              0.0000  XXZ=             -0.0000  XZZ=              0.0000  YZZ=             -0.0000
  YYZ=              0.0000  XYZ=              0.0000
 Hexadecapole moment (field-independent basis, Debye-Ang**3):
 XXXX=           -279.5166 YYYY=           -279.5168 ZZZZ=            -52.2874 XXXY=              0.0001
 XXXZ=              0.0538 YYYX=              0.0000 YYYZ=              0.0213 ZZZX=              0.0965
 ZZZY=              0.0382 XXYY=            -93.1722 XXZZ=            -66.0498 YYZZ=            -66.0498
 XXYZ=              0.0071 YYXZ=              0.0179 ZZXY=              0.0000
 N-N= 2.030814684940D+02 E-N=-9.431614496501D+02  KE= 2.299952884771D+02
 No NMR shielding tensors so no spin-rotation constants.
 Leave Link  601 at Wed Mar 18 10:00:15 2026, MaxMem=   104857600 cpu:               0.0 elap:               0.0
 (Enter /sw/cluster/pub/apps//g16/l701.exe)
 ... and contract with generalized density number  0.
 Compute integral first derivatives.
 Leave Link  701 at Wed Mar 18 10:00:16 2026, MaxMem=   104857600 cpu:               0.0 elap:               0.0
 (Enter /sw/cluster/pub/apps//g16/l702.exe)
 L702 exits ... SP integral derivatives will be done elsewhere.
 Leave Link  702 at Wed Mar 18 10:00:16 2026, MaxMem=   104857600 cpu:               0.0 elap:               0.0
 (Enter /sw/cluster/pub/apps//g16/l703.exe)
 Integral derivatives from FoFJK, PRISM(SPDF).
 Compute integral first derivatives, UseDBF=F ICtDFT=           0.
 Calling FoFJK, ICntrl=      2127 FMM=F ISym2X=0 I1Cent= 0 IOpClX= 0 NMat=1 NMatS=1 NMatT=0.
 FoFJK:  IHMeth= 1 ICntrl=    2127 DoSepK=F KAlg= 0 I1Cent=           0 FoldK=F
 IRaf=         0 NMat=       1 IRICut=       1 DoRegI=T DoRafI=F ISym2E= 0 IDoP0=0 IntGTp=1.
 FoFCou: FMM=F IPFlag=           0 FMFlag=      100000 FMFlg1=         800
         NFxFlg=           0 DoJE=F BraDBF=F KetDBF=F FulRan=T
         wScrn=  0.000000 ICntrl=      2127 IOpCl=  0 I1Cent=           0 NGrid=           0
         NMat0=    1 NMatS0=      1 NMatT0=    0 NMatD0=    1 NMtDS0=    0 NMtDT0=    0
 Symmetry not used in FoFCou.
 Leave Link  703 at Wed Mar 18 10:00:19 2026, MaxMem=   104857600 cpu:               2.8 elap:               2.8
 (Enter /sw/cluster/pub/apps//g16/l716.exe)
 Dipole        = 1.58095554D-08 3.35286789D-08 4.90383762D-08
 ***** Axes restored to original set *****
 -------------------------------------------------------------------
 Center     Atomic                   Forces (Hartrees/Bohr)
 Number     Number              X              Y              Z
 -------------------------------------------------------------------
      1        6           0.007354335    0.012734567   -0.000005910
      2        6          -0.007354115    0.012733243   -0.000010376
      3        6          -0.014701616    0.000007120   -0.000004658
      4        6          -0.007354336   -0.012734569    0.000006040
      5        6           0.007354115   -0.012733238    0.000010294
      6        6           0.014701615   -0.000007115    0.000004606
      7        1          -0.006167699   -0.010681317    0.000005003
      8        1           0.006166570   -0.010682447    0.000008779
      9        1           0.012334304   -0.000000114    0.000003773
     10        1           0.006167698    0.010681315   -0.000004943
     11        1          -0.006166568    0.010682441   -0.000008812
     12        1          -0.012334305    0.000000113   -0.000003797
 -------------------------------------------------------------------
 Cartesian Forces:  Max     0.014701616 RMS     0.007835174
 Leave Link  716 at Wed Mar 18 10:00:19 2026, MaxMem=   104857600 cpu:               0.0 elap:               0.0
 (Enter /sw/cluster/pub/apps//g16/l103.exe)

 GradGradGradGradGradGradGradGradGradGradGradGradGradGradGradGradGradGrad
 Berny optimization.
 FormGI is forming the generalized inverse of G from B-inverse, IUseBI=4.
 Internal  Forces:  Max     0.012334559 RMS     0.004186626
 Search for a local minimum.
 Step number   1 out of a maximum of   64
 All quantities printed in internal units (Hartrees-Bohrs-Radians)
 RMS Force = .41866D-02 SwitMx=.10000D-02 MixMth= 1
 Mixed Optimization -- RFO/linear search
 Second derivative matrix not updated -- first step.
 ITU=  0
     Eigenvalues ---    0.02070   0.02070   0.02070   0.02070   0.02070
     Eigenvalues ---    0.02070   0.02070   0.02070   0.02070   0.16000
     Eigenvalues ---    0.16000   0.16000   0.16000   0.16000   0.16000
     Eigenvalues ---    0.22000   0.22000   0.22000   0.37230   0.37230
     Eigenvalues ---    0.37230   0.37230   0.37230   0.37230   0.41268
     Eigenvalues ---    0.41268   0.45389   0.45389   0.45389   0.45389
 RFO step:  Lambda=-2.50921852D-03 EMin= 2.07023645D-02
 Linear search not attempted -- first point.
 Iteration  1 RMS(Cart)=  0.00939950 RMS(Int)=  0.00000003
 Iteration  2 RMS(Cart)=  0.00000003 RMS(Int)=  0.00000000
 ITry= 1 IFail=0 DXMaxC= 2.77D-02 DCOld= 1.00D+10 DXMaxT= 3.00D-01 DXLimC= 3.00D+00 Rises=F
 Variable       Old X    -DE/DX   Delta X   Delta X   Delta X     New X
                                 (Linear)    (Quad)   (Total)
    R1        2.64826  -0.00237   0.00000  -0.00519  -0.00519   2.64307
    R2        2.64826  -0.00237   0.00000  -0.00520  -0.00520   2.64306
    R3        2.02201   0.01233   0.00000   0.03291   0.03291   2.05491
    R4        2.64826  -0.00237   0.00000  -0.00518  -0.00518   2.64308
    R5        2.02201   0.01233   0.00000   0.03291   0.03291   2.05492
    R6        2.64826  -0.00237   0.00000  -0.00520  -0.00520   2.64306
    R7        2.02201   0.01233   0.00000   0.03291   0.03291   2.05492
    R8        2.64826  -0.00237   0.00000  -0.00519  -0.00519   2.64307
    R9        2.02201   0.01233   0.00000   0.03291   0.03291   2.05491
   R10        2.64826  -0.00237   0.00000  -0.00518  -0.00518   2.64308
   R11        2.02201   0.01233   0.00000   0.03291   0.03291   2.05492
   R12        2.02201   0.01233   0.00000   0.03291   0.03291   2.05492
    A1        2.09440   0.00000   0.00000   0.00000   0.00000   2.09440
    A2        2.09440   0.00000   0.00000   0.00000   0.00000   2.09440
    A3        2.09440  -0.00000   0.00000  -0.00001  -0.00001   2.09439
    A4        2.09440   0.00000   0.00000   0.00000   0.00000   2.09440
    A5        2.09440  -0.00000   0.00000  -0.00001  -0.00001   2.09439
    A6        2.09440   0.00000   0.00000   0.00000   0.00000   2.09440
    A7        2.09440  -0.00000   0.00000  -0.00001  -0.00001   2.09439
    A8        2.09440   0.00000   0.00000   0.00000   0.00000   2.09440
    A9        2.09440   0.00000   0.00000   0.00000   0.00000   2.09440
   A10        2.09440   0.00000   0.00000   0.00000   0.00000   2.09440
   A11        2.09440  -0.00000   0.00000  -0.00001  -0.00001   2.09439
   A12        2.09440   0.00000   0.00000   0.00000   0.00000   2.09440
   A13        2.09440   0.00000   0.00000   0.00000   0.00000   2.09440
   A14        2.09440  -0.00000   0.00000  -0.00001  -0.00001   2.09439
   A15        2.09440   0.00000   0.00000   0.00000   0.00000   2.09440
   A16        2.09440  -0.00000   0.00000  -0.00001  -0.00001   2.09439
   A17        2.09440   0.00000   0.00000   0.00000   0.00000   2.09440
   A18        2.09440   0.00000   0.00000   0.00000   0.00000   2.09440
    D1       -0.00000   0.00000   0.00000   0.00000   0.00000  -0.00000
    D2        3.14159   0.00000   0.00000   0.00000   0.00000  -3.14159
    D3        3.14159   0.00000   0.00000   0.00000   0.00000   3.14159
    D4       -0.00000  -0.00000   0.00000  -0.00000  -0.00000  -0.00000
    D5        0.00000  -0.00000   0.00000  -0.00000  -0.00000   0.00000
    D6       -3.14159  -0.00000   0.00000  -0.00000  -0.00000  -3.14159
    D7       -3.14159   0.00000   0.00000   0.00000   0.00000  -3.14159
    D8        0.00000  -0.00000   0.00000  -0.00000  -0.00000   0.00000
    D9       -0.00000   0.00000   0.00000   0.00000   0.00000   0.00000
   D10       -3.14159  -0.00000   0.00000  -0.00000  -0.00000   3.14159
   D11        3.14159   0.00000   0.00000   0.00000   0.00000   3.14159
   D12       -0.00000  -0.00000   0.00000  -0.00000  -0.00000  -0.00000
   D13        0.00000  -0.00000   0.00000  -0.00000  -0.00000  -0.00000
   D14       -3.14159  -0.00000   0.00000  -0.00000  -0.00000   3.14159
   D15       -3.14159  -0.00000   0.00000  -0.00000  -0.00000  -3.14159
   D16        0.00000  -0.00000   0.00000  -0.00000  -0.00000   0.00000
   D17       -0.00000   0.00000   0.00000   0.00000   0.00000   0.00000
   D18        3.14159   0.00000   0.00000   0.00000   0.00000   3.14159
   D19        3.14159   0.00000   0.00000   0.00000   0.00000  -3.14159
   D20       -0.00000   0.00000   0.00000   0.00000   0.00000  -0.00000
   D21        0.00000  -0.00000   0.00000  -0.00000  -0.00000  -0.00000
   D22       -3.14159  -0.00000   0.00000  -0.00000  -0.00000   3.14159
   D23       -3.14159  -0.00000   0.00000  -0.00000  -0.00000  -3.14159
   D24        0.00000   0.00000   0.00000   0.00000   0.00000   0.00000
         Item               Value     Threshold  Converged?
 Maximum Force            0.012335     0.000450     NO 
 RMS     Force            0.004187     0.000300     NO 
 Maximum Displacement     0.027721     0.001800     NO 
 RMS     Displacement     0.009399     0.001200     NO 
 Predicted change in Energy=-1.262964D-03
 Lowest energy point so far.  Saving SCF results.
 GradGradGradGradGradGradGradGradGradGradGradGradGradGradGradGradGradGrad

 Leave Link  103 at Wed Mar 18 10:00:19 2026, MaxMem=   104857600 cpu:               0.0 elap:               0.0
 (Enter /sw/cluster/pub/apps//g16/l202.exe)
                          Input orientation:                          
 ---------------------------------------------------------------------
 Center     Atomic      Atomic             Coordinates (Angstroms)
 Number     Number       Type             X           Y           Z
 ---------------------------------------------------------------------
      1          6           0       -0.436686    0.154587    0.248922
      2          6           0        0.961965    0.154520    0.249349
      3          6           0        1.661357    1.365756    0.248785
      4          6           0        0.962089    2.577055    0.247793
      5          6           0       -0.436562    2.577121    0.247366
      6          6           0       -1.135954    1.365885    0.247931
      7          1           0       -0.980442   -0.787113    0.249360
      8          1           0        1.505620   -0.787238    0.250120
      9          1           0        2.748771    1.365701    0.249117
     10          1           0        1.505845    3.518755    0.247355
     11          1           0       -0.980217    3.518880    0.246596
     12          1           0       -2.223368    1.365940    0.247598
 ---------------------------------------------------------------------
                    Distance matrix (angstroms):
                    1          2          3          4          5
     1  C    0.000000
     2  C    1.398651   0.000000
     3  C    2.422543   1.398657   0.000000
     4  C    2.797307   2.422535   1.398650   0.000000
     5  C    2.422535   2.797299   2.422534   1.398651   0.000000
     6  C    1.398650   2.422534   2.797311   2.422543   1.398657
     7  H    1.087414   2.158615   3.407924   3.884721   3.407915
     8  H    2.158608   1.087415   2.158620   3.407917   3.884713
     9  H    3.407922   2.158619   1.087414   2.158613   3.407916
    10  H    3.884721   3.407915   2.158608   1.087414   2.158615
    11  H    3.407917   3.884713   3.407911   2.158608   1.087415
    12  H    2.158613   3.407916   3.884725   3.407922   2.158619
                    6          7          8          9         10
     6  C    0.000000
     7  H    2.158608   0.000000
     8  H    3.407911   2.486063   0.000000
     9  H    3.884725   4.306000   2.486076   0.000000
    10  H    3.407924   4.972135   4.305994   2.486062   0.000000
    11  H    2.158620   4.305994   4.972128   4.305988   2.486063
    12  H    1.087414   2.486062   4.305988   4.972139   4.306000
                   11         12
    11  H    0.000000
    12  H    2.486076   0.000000
 Stoichiometry    C6H6
 Framework group  C1[X(C6H6)]
 Deg. of freedom    30
 Full point group                 C1      NOp   1
 RotChk:  IX=1 Diff= 1.79D+00
 Largest Abelian subgroup         C1      NOp   1
 Largest concise Abelian subgroup C1      NOp   1
                         Standard orientation:                         
 ---------------------------------------------------------------------
 Center     Atomic      Atomic             Coordinates (Angstroms)
 Number     Number       Type             X           Y           Z
 ---------------------------------------------------------------------
      1          6           0        1.272870   -0.579684   -0.000000
      2          6           0        0.134413   -1.392176   -0.000000
      3          6           0       -1.138461   -0.812492    0.000000
      4          6           0       -1.272870    0.579684   -0.000000
      5          6           0       -0.134413    1.392176    0.000000
      6          6           0        1.138461    0.812492   -0.000000
      7          1           0        2.262491   -1.030370    0.000001
      8          1           0        0.238922   -2.474556    0.000000
      9          1           0       -2.023579   -1.444185   -0.000000
     10          1           0       -2.262491    1.030370   -0.000000
     11          1           0       -0.238922    2.474556   -0.000000
     12          1           0        2.023579    1.444185   -0.000000
 ---------------------------------------------------------------------
 Rotational constants (GHZ):           5.6713721           5.6713226           2.8356737
 Leave Link  202 at Wed Mar 18 10:00:19 2026, MaxMem=   104857600 cpu:               0.0 elap:               0.0
 (Enter /sw/cluster/pub/apps//g16/l301.exe)
 Standard basis: 6-31+G(d) (6D, 7F)
 Ernie: Thresh=  0.10000D-02 Tol=  0.10000D-05 Strict=F.
 There are   126 symmetry adapted cartesian basis functions of A   symmetry.
 There are   126 symmetry adapted basis functions of A   symmetry.
   126 basis functions,   216 primitive gaussians,   126 cartesian basis functions
    21 alpha electrons       21 beta electrons
       nuclear repulsion energy       202.9241162422 Hartrees.
 IExCor=  402 DFT=T Ex+Corr=B3LYP ExCW=0 ScaHFX=  0.200000
 ScaDFX=  0.800000  0.720000  1.000000  0.810000 ScalE2=  1.000000  1.000000
 IRadAn=      5 IRanWt=     -1 IRanGd=            0 ICorTp=0 IEmpDi=  4
 NAtoms=   12 NActive=   12 NUniq=   12 SFac= 1.00D+00 NAtFMM=   60 NAOKFM=F Big=F
 Integral buffers will be    131072 words long.
 Raffenetti 2 integral format.
 Two-electron integral symmetry is turned on.
 Leave Link  301 at Wed Mar 18 10:00:19 2026, MaxMem=   104857600 cpu:               0.0 elap:               0.0
 (Enter /sw/cluster/pub/apps//g16/l302.exe)
 NPDir=0 NMtPBC=     1 NCelOv=     1 NCel=       1 NClECP=     1 NCelD=      1
         NCelK=      1 NCelE2=     1 NClLst=     1 CellRange=     0.0.
 One-electron integrals computed using PRISM.
 One-electron integral symmetry used in STVInt
 NBasis=   126 RedAO= T EigKep=  6.53D-06  NBF=   126
 NBsUse=   126 1.00D-06 EigRej= -1.00D+00 NBFU=   126
 Precomputing XC quadrature grid using
 IXCGrd= 4 IRadAn=           5 IRanWt=          -1 IRanGd=           0 AccXCQ= 0.00D+00.
 Generated NRdTot=       0 NPtTot=           0 NUsed=           0 NTot=          32
 NSgBfM=   126   126   126   126   126 MxSgAt=    12 MxSgA2=    12.
 Leave Link  302 at Wed Mar 18 10:00:19 2026, MaxMem=   104857600 cpu:               0.1 elap:               0.1
 (Enter /sw/cluster/pub/apps//g16/l303.exe)
 DipDrv:  MaxL=1.
 Leave Link  303 at Wed Mar 18 10:00:19 2026, MaxMem=   104857600 cpu:               0.0 elap:               0.0
 (Enter /sw/cluster/pub/apps//g16/l401.exe)
 Initial guess from the checkpoint file:  "bz-6-31+Gstar.chk"
 B after Tr=    -0.000000    0.000000   -0.000000
         Rot=    0.774590   -0.000311    0.000173   -0.632464 Ang= -78.46 deg.
 Guess basis will be translated and rotated to current coordinates.
 JPrj=2 DoOrth=T DoCkMO=T.
 Generating alternative initial guess.
 ExpMin= 4.38D-02 ExpMax= 3.05D+03 ExpMxC= 4.57D+02 IAcc=2 IRadAn=         4 AccDes= 0.00D+00
 Harris functional with IExCor=  402 and IRadAn=       4 diagonalized for initial guess.
 HarFok:  IExCor=  402 AccDes= 0.00D+00 IRadAn=         4 IDoV= 1 UseB2=F ITyADJ=14
 ICtDFT=  3500011 ScaDFX=  1.000000  1.000000  1.000000  1.000000
 FoFCou: FMM=F IPFlag=           0 FMFlag=      100000 FMFlg1=           0
         NFxFlg=           0 DoJE=T BraDBF=F KetDBF=T FulRan=T
         wScrn=  0.000000 ICntrl=       500 IOpCl=  0 I1Cent=   200000004 NGrid=           0
         NMat0=    1 NMatS0=      1 NMatT0=    0 NMatD0=    1 NMtDS0=    0 NMtDT0=    0
 Petite list used in FoFCou.
 Harris En= -232.280010172879    
 Leave Link  401 at Wed Mar 18 10:00:19 2026, MaxMem=   104857600 cpu:               0.4 elap:               0.4
 (Enter /sw/cluster/pub/apps//g16/l502.exe)
 Keep R1 ints in memory in canonical form, NReq=33036972.
 FoFCou: FMM=F IPFlag=           0 FMFlag=           0 FMFlg1=           0
         NFxFlg=           0 DoJE=F BraDBF=F KetDBF=F FulRan=T
         wScrn=  0.000000 ICntrl=       600 IOpCl=  0 I1Cent=           0 NGrid=           0
         NMat0=    1 NMatS0=   8001 NMatT0=    0 NMatD0=    1 NMtDS0=    0 NMtDT0=    0
 Symmetry not used in FoFCou.
 Two-electron integral symmetry not used.
 Closed shell SCF:
 Using DIIS extrapolation, IDIIS=  1040.
 NGot=   104857600 LenX=    72811647 LenY=    72795330
 Requested convergence on RMS density matrix=1.00D-08 within 128 cycles.
 Requested convergence on MAX density matrix=1.00D-06.
 Requested convergence on             energy=1.00D-06.
 No special actions if energy rises.

 Cycle   1  Pass 1  IDiag  1:
 E= -232.258635340608    
 DIIS: error= 1.36D-03 at cycle   1 NSaved=   1.
 NSaved= 1 IEnMin= 1 EnMin= -232.258635340608     IErMin= 1 ErrMin= 1.36D-03
 ErrMax= 1.36D-03  0.00D+00 EMaxC= 1.00D-01 BMatC= 2.01D-04 BMatP= 2.01D-04
 IDIUse=3 WtCom= 9.86D-01 WtEn= 1.36D-02
 Coeff-Com:  0.100D+01
 Coeff-En:   0.100D+01
 Coeff:      0.100D+01
 Gap=     0.520 Goal=   None    Shift=    0.000
 GapD=    0.520 DampG=2.000 DampE=1.000 DampFc=2.0000 IDamp=-1.
 RMSDP=1.13D-03 MaxDP=1.81D-02              OVMax= 5.07D-03

 Cycle   2  Pass 1  IDiag  1:
 E= -232.258903045747     Delta-E=       -0.000267705139 Rises=F Damp=F
 DIIS: error= 4.42D-04 at cycle   2 NSaved=   2.
 NSaved= 2 IEnMin= 2 EnMin= -232.258903045747     IErMin= 2 ErrMin= 4.42D-04
 ErrMax= 4.42D-04  0.00D+00 EMaxC= 1.00D-01 BMatC= 1.67D-05 BMatP= 2.01D-04
 IDIUse=3 WtCom= 9.96D-01 WtEn= 4.42D-03
 Coeff-Com:  0.160D+00 0.840D+00
 Coeff-En:   0.000D+00 0.100D+01
 Coeff:      0.159D+00 0.841D+00
 Gap=     0.243 Goal=   None    Shift=    0.000
 RMSDP=9.96D-05 MaxDP=9.63D-04 DE=-2.68D-04 OVMax= 1.42D-03

 Cycle   3  Pass 1  IDiag  1:
 E= -232.258917958405     Delta-E=       -0.000014912658 Rises=F Damp=F
 DIIS: error= 1.64D-04 at cycle   3 NSaved=   3.
 NSaved= 3 IEnMin= 3 EnMin= -232.258917958405     IErMin= 3 ErrMin= 1.64D-04
 ErrMax= 1.64D-04  0.00D+00 EMaxC= 1.00D-01 BMatC= 3.59D-06 BMatP= 1.67D-05
 IDIUse=3 WtCom= 9.98D-01 WtEn= 1.64D-03
 Coeff-Com:  0.236D-01 0.307D+00 0.669D+00
 Coeff-En:   0.000D+00 0.000D+00 0.100D+01
 Coeff:      0.236D-01 0.307D+00 0.670D+00
 Gap=     0.243 Goal=   None    Shift=    0.000
 RMSDP=2.96D-05 MaxDP=3.29D-04 DE=-1.49D-05 OVMax= 5.47D-04

 Cycle   4  Pass 1  IDiag  1:
 E= -232.258921509072     Delta-E=       -0.000003550667 Rises=F Damp=F
 DIIS: error= 7.97D-05 at cycle   4 NSaved=   4.
 NSaved= 4 IEnMin= 4 EnMin= -232.258921509072     IErMin= 4 ErrMin= 7.97D-05
 ErrMax= 7.97D-05  0.00D+00 EMaxC= 1.00D-01 BMatC= 4.87D-07 BMatP= 3.59D-06
 IDIUse=1 WtCom= 1.00D+00 WtEn= 0.00D+00
 Coeff-Com: -0.327D-02 0.781D-01 0.305D+00 0.620D+00
 Coeff:     -0.327D-02 0.781D-01 0.305D+00 0.620D+00
 Gap=     0.243 Goal=   None    Shift=    0.000
 RMSDP=1.96D-05 MaxDP=3.45D-04 DE=-3.55D-06 OVMax= 1.59D-04

 Cycle   5  Pass 1  IDiag  1:
 E= -232.258922009820     Delta-E=       -0.000000500748 Rises=F Damp=F
 DIIS: error= 6.88D-06 at cycle   5 NSaved=   5.
 NSaved= 5 IEnMin= 5 EnMin= -232.258922009820     IErMin= 5 ErrMin= 6.88D-06
 ErrMax= 6.88D-06  0.00D+00 EMaxC= 1.00D-01 BMatC= 3.67D-09 BMatP= 4.87D-07
 IDIUse=1 WtCom= 1.00D+00 WtEn= 0.00D+00
 Coeff-Com: -0.105D-02-0.168D-02 0.730D-02 0.939D-01 0.902D+00
 Coeff:     -0.105D-02-0.168D-02 0.730D-02 0.939D-01 0.902D+00
 Gap=     0.243 Goal=   None    Shift=    0.000
 RMSDP=1.51D-06 MaxDP=1.84D-05 DE=-5.01D-07 OVMax= 1.57D-05

 Cycle   6  Pass 1  IDiag  1:
 E= -232.258922013565     Delta-E=       -0.000000003745 Rises=F Damp=F
 DIIS: error= 1.23D-07 at cycle   6 NSaved=   6.
 NSaved= 6 IEnMin= 6 EnMin= -232.258922013565     IErMin= 6 ErrMin= 1.23D-07
 ErrMax= 1.23D-07  0.00D+00 EMaxC= 1.00D-01 BMatC= 1.06D-12 BMatP= 3.67D-09
 IDIUse=1 WtCom= 1.00D+00 WtEn= 0.00D+00
 Coeff-Com:  0.167D-04-0.265D-03-0.928D-03-0.136D-02-0.220D-02 0.100D+01
 Coeff:      0.167D-04-0.265D-03-0.928D-03-0.136D-02-0.220D-02 0.100D+01
 Gap=     0.243 Goal=   None    Shift=    0.000
 RMSDP=1.19D-07 MaxDP=2.11D-06 DE=-3.75D-09 OVMax= 6.68D-07

 Cycle   7  Pass 1  IDiag  1:
 E= -232.258922013569     Delta-E=       -0.000000000003 Rises=F Damp=F
 DIIS: error= 4.89D-08 at cycle   7 NSaved=   7.
 NSaved= 7 IEnMin= 7 EnMin= -232.258922013569     IErMin= 7 ErrMin= 4.89D-08
 ErrMax= 4.89D-08  0.00D+00 EMaxC= 1.00D-01 BMatC= 3.19D-13 BMatP= 1.06D-12
 IDIUse=1 WtCom= 1.00D+00 WtEn= 0.00D+00
 Coeff-Com:  0.126D-04-0.934D-04-0.412D-03-0.125D-02-0.661D-02 0.371D+00
 Coeff-Com:  0.637D+00
 Coeff:      0.126D-04-0.934D-04-0.412D-03-0.125D-02-0.661D-02 0.371D+00
 Coeff:      0.637D+00
 Gap=     0.243 Goal=   None    Shift=    0.000
 RMSDP=1.03D-08 MaxDP=1.85D-07 DE=-3.18D-12 OVMax= 2.85D-07

 Cycle   8  Pass 1  IDiag  1:
 E= -232.258922013570     Delta-E=       -0.000000000001 Rises=F Damp=F
 DIIS: error= 2.84D-08 at cycle   8 NSaved=   8.
 NSaved= 8 IEnMin= 8 EnMin= -232.258922013570     IErMin= 8 ErrMin= 2.84D-08
 ErrMax= 2.84D-08  0.00D+00 EMaxC= 1.00D-01 BMatC= 9.80D-14 BMatP= 3.19D-13
 IDIUse=1 WtCom= 1.00D+00 WtEn= 0.00D+00
 Coeff-Com:  0.394D-05-0.383D-05-0.647D-04-0.506D-03-0.338D-02 0.166D-01
 Coeff-Com:  0.364D+00 0.624D+00
 Coeff:      0.394D-05-0.383D-05-0.647D-04-0.506D-03-0.338D-02 0.166D-01
 Coeff:      0.364D+00 0.624D+00
 Gap=     0.243 Goal=   None    Shift=    0.000
 RMSDP=4.08D-09 MaxDP=7.67D-08 DE=-9.09D-13 OVMax= 1.03D-07

 SCF Done:  E(RB3LYP) =  -232.258922014     A.U. after    8 cycles
            NFock=  8  Conv=0.41D-08     -V/T= 2.0103
 KE= 2.298888412521D+02 PE=-9.427651322216D+02 EE= 2.776932527137D+02
 Leave Link  502 at Wed Mar 18 10:00:27 2026, MaxMem=   104857600 cpu:               7.8 elap:               7.8
 (Enter /sw/cluster/pub/apps//g16/l701.exe)
 ... and contract with generalized density number  0.
 Compute integral first derivatives.
 Leave Link  701 at Wed Mar 18 10:00:27 2026, MaxMem=   104857600 cpu:               0.0 elap:               0.0
 (Enter /sw/cluster/pub/apps//g16/l702.exe)
 L702 exits ... SP integral derivatives will be done elsewhere.
 Leave Link  702 at Wed Mar 18 10:00:27 2026, MaxMem=   104857600 cpu:               0.0 elap:               0.0
 (Enter /sw/cluster/pub/apps//g16/l703.exe)
 Integral derivatives from FoFJK, PRISM(SPDF).
 Compute integral first derivatives, UseDBF=F ICtDFT=           0.
 Calling FoFJK, ICntrl=      2127 FMM=F ISym2X=0 I1Cent= 0 IOpClX= 0 NMat=1 NMatS=1 NMatT=0.
 FoFJK:  IHMeth= 1 ICntrl=    2127 DoSepK=F KAlg= 0 I1Cent=           0 FoldK=F
 IRaf=         0 NMat=       1 IRICut=       1 DoRegI=T DoRafI=F ISym2E= 0 IDoP0=0 IntGTp=1.
 FoFCou: FMM=F IPFlag=           0 FMFlag=      100000 FMFlg1=         800
         NFxFlg=           0 DoJE=F BraDBF=F KetDBF=F FulRan=T
         wScrn=  0.000000 ICntrl=      2127 IOpCl=  0 I1Cent=           0 NGrid=           0
         NMat0=    1 NMatS0=      1 NMatT0=    0 NMatD0=    1 NMtDS0=    0 NMtDT0=    0
 Symmetry not used in FoFCou.
 Leave Link  703 at Wed Mar 18 10:00:30 2026, MaxMem=   104857600 cpu:               2.8 elap:               2.8
 (Enter /sw/cluster/pub/apps//g16/l716.exe)
 Dipole        =-8.12958874D-08 6.91423887D-08-6.31490081D-09
 ***** Axes restored to original set *****
 -------------------------------------------------------------------
 Center     Atomic                   Forces (Hartrees/Bohr)
 Number     Number              X              Y              Z
 -------------------------------------------------------------------
      1        6           0.000006294    0.000012698   -0.000000049
      2        6          -0.000003454    0.000014171   -0.000000051
      3        6          -0.000015164   -0.000002767    0.000000062
      4        6          -0.000006298   -0.000012701   -0.000000036
      5        6           0.000003460   -0.000014171    0.000000102
      6        6           0.000015163    0.000002774   -0.000000028
      7        1           0.000042610    0.000072376    0.000000007
      8        1          -0.000041405    0.000073035   -0.000000055
      9        1          -0.000083930    0.000000059   -0.000000039
     10        1          -0.000042611   -0.000072377    0.000000030
     11        1           0.000041405   -0.000073037    0.000000032
     12        1           0.000083929   -0.000000060    0.000000024
 -------------------------------------------------------------------
 Cartesian Forces:  Max     0.000083930 RMS     0.000034800
 Leave Link  716 at Wed Mar 18 10:00:30 2026, MaxMem=   104857600 cpu:               0.0 elap:               0.0
 (Enter /sw/cluster/pub/apps//g16/l103.exe)

 GradGradGradGradGradGradGradGradGradGradGradGradGradGradGradGradGradGrad
 Berny optimization.
 Using GEDIIS/GDIIS optimizer.
 FormGI is forming the generalized inverse of G from B-inverse, IUseBI=4.
 Internal  Forces:  Max     0.000101560 RMS     0.000043122
 Search for a local minimum.
 Step number   2 out of a maximum of   64
 All quantities printed in internal units (Hartrees-Bohrs-Radians)
 RMS Force = .43122D-04 SwitMx=.10000D-02 MixMth= 2
 Mixed Optimization -- En-DIIS/RFO-DIIS
 Update second derivatives using D2CorX and points    1    2
 DE= -1.23D-03 DEPred=-1.26D-03 R= 9.70D-01
 TightC=F SS=  1.41D+00  RLast= 8.16D-02 DXNew= 5.0454D-01 2.4482D-01
 Trust test= 9.70D-01 RLast= 8.16D-02 DXMaxT set to 3.00D-01
 ITU=  1  0
 Use linear search instead of GDIIS.
     Eigenvalues ---    0.02070   0.02070   0.02070   0.02070   0.02070
     Eigenvalues ---    0.02070   0.02070   0.02070   0.02070   0.16000
     Eigenvalues ---    0.16000   0.16000   0.16000   0.16000   0.16000
     Eigenvalues ---    0.22000   0.22000   0.22000   0.37230   0.37230
     Eigenvalues ---    0.37230   0.37230   0.37230   0.37767   0.41255
     Eigenvalues ---    0.41255   0.45287   0.45389   0.45389   0.45389
 RFO step:  Lambda=-1.66836741D-07 EMin= 2.07023645D-02
 Quartic linear search produced a step of -0.00565.
 Iteration  1 RMS(Cart)=  0.00016489 RMS(Int)=  0.00000000
 Iteration  2 RMS(Cart)=  0.00000000 RMS(Int)=  0.00000000
 ITry= 1 IFail=0 DXMaxC= 4.43D-04 DCOld= 1.00D+10 DXMaxT= 3.00D-01 DXLimC= 3.00D+00 Rises=F
 Variable       Old X    -DE/DX   Delta X   Delta X   Delta X     New X
                                 (Linear)    (Quad)   (Total)
    R1        2.64307  -0.00010   0.00003  -0.00024  -0.00021   2.64286
    R2        2.64306  -0.00010   0.00003  -0.00024  -0.00021   2.64285
    R3        2.05491  -0.00008  -0.00019  -0.00004  -0.00023   2.05468
    R4        2.64308  -0.00010   0.00003  -0.00025  -0.00022   2.64286
    R5        2.05492  -0.00008  -0.00019  -0.00004  -0.00023   2.05469
    R6        2.64306  -0.00010   0.00003  -0.00024  -0.00021   2.64285
    R7        2.05492  -0.00008  -0.00019  -0.00004  -0.00023   2.05468
    R8        2.64307  -0.00010   0.00003  -0.00024  -0.00021   2.64286
    R9        2.05491  -0.00008  -0.00019  -0.00004  -0.00023   2.05468
   R10        2.64308  -0.00010   0.00003  -0.00025  -0.00022   2.64286
   R11        2.05492  -0.00008  -0.00019  -0.00004  -0.00023   2.05469
   R12        2.05492  -0.00008  -0.00019  -0.00004  -0.00023   2.05468
    A1        2.09440   0.00000  -0.00000   0.00000   0.00000   2.09440
    A2        2.09440  -0.00000  -0.00000  -0.00000  -0.00000   2.09440
    A3        2.09439  -0.00000   0.00000   0.00000   0.00000   2.09439
    A4        2.09440  -0.00000  -0.00000  -0.00000  -0.00000   2.09440
    A5        2.09439   0.00000   0.00000   0.00000   0.00000   2.09439
    A6        2.09440   0.00000  -0.00000  -0.00000  -0.00000   2.09440
    A7        2.09439  -0.00000   0.00000  -0.00000  -0.00000   2.09439
    A8        2.09440  -0.00000  -0.00000  -0.00000  -0.00000   2.09439
    A9        2.09440   0.00000  -0.00000   0.00000   0.00000   2.09440
   A10        2.09440   0.00000  -0.00000   0.00000   0.00000   2.09440
   A11        2.09439  -0.00000   0.00000   0.00000   0.00000   2.09439
   A12        2.09440  -0.00000  -0.00000  -0.00000  -0.00000   2.09440
   A13        2.09440  -0.00000  -0.00000  -0.00000  -0.00000   2.09440
   A14        2.09439   0.00000   0.00000   0.00000   0.00000   2.09439
   A15        2.09440   0.00000  -0.00000  -0.00000  -0.00000   2.09440
   A16        2.09439  -0.00000   0.00000  -0.00000  -0.00000   2.09439
   A17        2.09440   0.00000  -0.00000   0.00000   0.00000   2.09440
   A18        2.09440  -0.00000  -0.00000  -0.00000  -0.00000   2.09439
    D1       -0.00000   0.00000  -0.00000   0.00000   0.00000   0.00000
    D2       -3.14159  -0.00000  -0.00000  -0.00000  -0.00000   3.14159
    D3        3.14159   0.00000  -0.00000   0.00000   0.00000  -3.14159
    D4       -0.00000   0.00000   0.00000   0.00000   0.00000  -0.00000
    D5        0.00000  -0.00000   0.00000  -0.00000  -0.00000  -0.00000
    D6       -3.14159   0.00000   0.00000   0.00000   0.00000  -3.14159
    D7       -3.14159  -0.00000  -0.00000  -0.00000  -0.00000   3.14159
    D8        0.00000  -0.00000   0.00000  -0.00000  -0.00000   0.00000
    D9        0.00000  -0.00000  -0.00000  -0.00000  -0.00000  -0.00000
   D10        3.14159   0.00000   0.00000   0.00000   0.00000   3.14159
   D11        3.14159   0.00000  -0.00000   0.00000  -0.00000   3.14159
   D12       -0.00000   0.00000   0.00000   0.00000   0.00000   0.00000
   D13       -0.00000   0.00000   0.00000   0.00000   0.00000   0.00000
   D14        3.14159   0.00000   0.00000   0.00000   0.00000  -3.14159
   D15       -3.14159   0.00000   0.00000   0.00000   0.00000  -3.14159
   D16        0.00000  -0.00000   0.00000  -0.00000  -0.00000   0.00000
   D17        0.00000  -0.00000  -0.00000  -0.00000  -0.00000  -0.00000
   D18        3.14159   0.00000  -0.00000   0.00000   0.00000   3.14159
   D19       -3.14159  -0.00000  -0.00000  -0.00000  -0.00000   3.14159
   D20       -0.00000   0.00000  -0.00000   0.00000   0.00000  -0.00000
   D21       -0.00000   0.00000   0.00000   0.00000   0.00000   0.00000
   D22        3.14159   0.00000   0.00000   0.00000   0.00000  -3.14159
   D23       -3.14159  -0.00000   0.00000  -0.00000  -0.00000   3.14159
   D24        0.00000  -0.00000  -0.00000  -0.00000  -0.00000  -0.00000
         Item               Value     Threshold  Converged?
 Maximum Force            0.000102     0.000450     YES
 RMS     Force            0.000043     0.000300     YES
 Maximum Displacement     0.000443     0.001800     YES
 RMS     Displacement     0.000165     0.001200     YES
 Predicted change in Energy=-1.193562D-07
 Optimization completed.
    -- Stationary point found.
                           ----------------------------
                           !   Optimized Parameters   !
                           ! (Angstroms and Degrees)  !
 --------------------------                            --------------------------
 ! Name  Definition              Value          Derivative Info.                !
 --------------------------------------------------------------------------------
 ! R1    R(1,2)                  1.3987         -DE/DX =   -0.0001              !
 ! R2    R(1,6)                  1.3986         -DE/DX =   -0.0001              !
 ! R3    R(1,7)                  1.0874         -DE/DX =   -0.0001              !
 ! R4    R(2,3)                  1.3987         -DE/DX =   -0.0001              !
 ! R5    R(2,8)                  1.0874         -DE/DX =   -0.0001              !
 ! R6    R(3,4)                  1.3986         -DE/DX =   -0.0001              !
 ! R7    R(3,9)                  1.0874         -DE/DX =   -0.0001              !
 ! R8    R(4,5)                  1.3987         -DE/DX =   -0.0001              !
 ! R9    R(4,10)                 1.0874         -DE/DX =   -0.0001              !
 ! R10   R(5,6)                  1.3987         -DE/DX =   -0.0001              !
 ! R11   R(5,11)                 1.0874         -DE/DX =   -0.0001              !
 ! R12   R(6,12)                 1.0874         -DE/DX =   -0.0001              !
 ! A1    A(2,1,6)              120.0            -DE/DX =    0.0                 !
 ! A2    A(2,1,7)              120.0003         -DE/DX =    0.0                 !
 ! A3    A(6,1,7)              119.9997         -DE/DX =    0.0                 !
 ! A4    A(1,2,3)              120.0002         -DE/DX =    0.0                 !
 ! A5    A(1,2,8)              119.9996         -DE/DX =    0.0                 !
 ! A6    A(3,2,8)              120.0002         -DE/DX =    0.0                 !
 ! A7    A(2,3,4)              119.9997         -DE/DX =    0.0                 !
 ! A8    A(2,3,9)              120.0001         -DE/DX =    0.0                 !
 ! A9    A(4,3,9)              120.0002         -DE/DX =    0.0                 !
 ! A10   A(3,4,5)              120.0            -DE/DX =    0.0                 !
 ! A11   A(3,4,10)             119.9997         -DE/DX =    0.0                 !
 ! A12   A(5,4,10)             120.0003         -DE/DX =    0.0                 !
 ! A13   A(4,5,6)              120.0002         -DE/DX =    0.0                 !
 ! A14   A(4,5,11)             119.9996         -DE/DX =    0.0                 !
 ! A15   A(6,5,11)             120.0002         -DE/DX =    0.0                 !
 ! A16   A(1,6,5)              119.9997         -DE/DX =    0.0                 !
 ! A17   A(1,6,12)             120.0002         -DE/DX =    0.0                 !
 ! A18   A(5,6,12)             120.0001         -DE/DX =    0.0                 !
 ! D1    D(6,1,2,3)              0.0            -DE/DX =    0.0                 !
 ! D2    D(6,1,2,8)            180.0            -DE/DX =    0.0                 !
 ! D3    D(7,1,2,3)           -180.0001         -DE/DX =    0.0                 !
 ! D4    D(7,1,2,8)              0.0            -DE/DX =    0.0                 !
 ! D5    D(2,1,6,5)              0.0            -DE/DX =    0.0                 !
 ! D6    D(2,1,6,12)          -180.0            -DE/DX =    0.0                 !
 ! D7    D(7,1,6,5)            180.0001         -DE/DX =    0.0                 !
 ! D8    D(7,1,6,12)             0.0            -DE/DX =    0.0                 !
 ! D9    D(1,2,3,4)              0.0            -DE/DX =    0.0                 !
 ! D10   D(1,2,3,9)            180.0            -DE/DX =    0.0                 !
 ! D11   D(8,2,3,4)            180.0            -DE/DX =    0.0                 !
 ! D12   D(8,2,3,9)              0.0            -DE/DX =    0.0                 !
 ! D13   D(2,3,4,5)              0.0            -DE/DX =    0.0                 !
 ! D14   D(2,3,4,10)          -180.0            -DE/DX =    0.0                 !
 ! D15   D(9,3,4,5)           -180.0            -DE/DX =    0.0                 !
 ! D16   D(9,3,4,10)             0.0            -DE/DX =    0.0                 !
 ! D17   D(3,4,5,6)              0.0            -DE/DX =    0.0                 !
 ! D18   D(3,4,5,11)           180.0            -DE/DX =    0.0                 !
 ! D19   D(10,4,5,6)           180.0            -DE/DX =    0.0                 !
 ! D20   D(10,4,5,11)            0.0            -DE/DX =    0.0                 !
 ! D21   D(4,5,6,1)              0.0            -DE/DX =    0.0                 !
 ! D22   D(4,5,6,12)          -180.0            -DE/DX =    0.0                 !
 ! D23   D(11,5,6,1)           180.0            -DE/DX =    0.0                 !
 ! D24   D(11,5,6,12)            0.0            -DE/DX =    0.0                 !
 --------------------------------------------------------------------------------
 Lowest energy point so far.  Saving SCF results.
 Largest change from initial coordinates is atom   11       3.135 Angstoms.
 GradGradGradGradGradGradGradGradGradGradGradGradGradGradGradGradGradGrad

 Leave Link  103 at Wed Mar 18 10:00:30 2026, MaxMem=   104857600 cpu:               0.0 elap:               0.0
 (Enter /sw/cluster/pub/apps//g16/l202.exe)
                          Input orientation:                          
 ---------------------------------------------------------------------
 Center     Atomic      Atomic             Coordinates (Angstroms)
 Number     Number       Type             X           Y           Z
 ---------------------------------------------------------------------
      1          6           0       -0.436686    0.154587    0.248922
      2          6           0        0.961965    0.154520    0.249349
      3          6           0        1.661357    1.365756    0.248785
      4          6           0        0.962089    2.577055    0.247793
      5          6           0       -0.436562    2.577121    0.247366
      6          6           0       -1.135954    1.365885    0.247931
      7          1           0       -0.980442   -0.787113    0.249360
      8          1           0        1.505620   -0.787238    0.250120
      9          1           0        2.748771    1.365701    0.249117
     10          1           0        1.505845    3.518755    0.247355
     11          1           0       -0.980217    3.518880    0.246596
     12          1           0       -2.223368    1.365940    0.247598
 ---------------------------------------------------------------------
                    Distance matrix (angstroms):
                    1          2          3          4          5
     1  C    0.000000
     2  C    1.398651   0.000000
     3  C    2.422543   1.398657   0.000000
     4  C    2.797307   2.422535   1.398650   0.000000
     5  C    2.422535   2.797299   2.422534   1.398651   0.000000
     6  C    1.398650   2.422534   2.797311   2.422543   1.398657
     7  H    1.087414   2.158615   3.407924   3.884721   3.407915
     8  H    2.158608   1.087415   2.158620   3.407917   3.884713
     9  H    3.407922   2.158619   1.087414   2.158613   3.407916
    10  H    3.884721   3.407915   2.158608   1.087414   2.158615
    11  H    3.407917   3.884713   3.407911   2.158608   1.087415
    12  H    2.158613   3.407916   3.884725   3.407922   2.158619
                    6          7          8          9         10
     6  C    0.000000
     7  H    2.158608   0.000000
     8  H    3.407911   2.486063   0.000000
     9  H    3.884725   4.306000   2.486076   0.000000
    10  H    3.407924   4.972135   4.305994   2.486062   0.000000
    11  H    2.158620   4.305994   4.972128   4.305988   2.486063
    12  H    1.087414   2.486062   4.305988   4.972139   4.306000
                   11         12
    11  H    0.000000
    12  H    2.486076   0.000000
 Stoichiometry    C6H6
 Framework group  C1[X(C6H6)]
 Deg. of freedom    30
 Full point group                 C1      NOp   1
 RotChk:  IX=1 Diff= 1.53D-10
 Largest Abelian subgroup         C1      NOp   1
 Largest concise Abelian subgroup C1      NOp   1
                         Standard orientation:                         
 ---------------------------------------------------------------------
 Center     Atomic      Atomic             Coordinates (Angstroms)
 Number     Number       Type             X           Y           Z
 ---------------------------------------------------------------------
      1          6           0        1.272870   -0.579684   -0.000000
      2          6           0        0.134413   -1.392176   -0.000000
      3          6           0       -1.138461   -0.812492    0.000000
      4          6           0       -1.272870    0.579684   -0.000000
      5          6           0       -0.134413    1.392176    0.000000
      6          6           0        1.138461    0.812492   -0.000000
      7          1           0        2.262491   -1.030370    0.000001
      8          1           0        0.238922   -2.474556    0.000000
      9          1           0       -2.023579   -1.444185   -0.000000
     10          1           0       -2.262491    1.030370   -0.000000
     11          1           0       -0.238922    2.474556   -0.000000
     12          1           0        2.023579    1.444185   -0.000000
 ---------------------------------------------------------------------
 Rotational constants (GHZ):           5.6713721           5.6713226           2.8356737
 Leave Link  202 at Wed Mar 18 10:00:30 2026, MaxMem=   104857600 cpu:               0.0 elap:               0.0
 (Enter /sw/cluster/pub/apps//g16/l601.exe)
 Copying SCF densities to generalized density rwf, IOpCl= 0 IROHF=0.

 **********************************************************************

            Population analysis using the SCF density.

 **********************************************************************

 Orbital symmetries:
       Occupied  (A) (A) (A) (A) (A) (A) (A) (A) (A) (A) (A) (A)
                 (A) (A) (A) (A) (A) (A) (A) (A) (A)
       Virtual   (A) (A) (A) (A) (A) (A) (A) (A) (A) (A) (A) (A)
                 (A) (A) (A) (A) (A) (A) (A) (A) (A) (A) (A) (A)
                 (A) (A) (A) (A) (A) (A) (A) (A) (A) (A) (A) (A)
                 (A) (A) (A) (A) (A) (A) (A) (A) (A) (A) (A) (A)
                 (A) (A) (A) (A) (A) (A) (A) (A) (A) (A) (A) (A)
                 (A) (A) (A) (A) (A) (A) (A) (A) (A) (A) (A) (A)
                 (A) (A) (A) (A) (A) (A) (A) (A) (A) (A) (A) (A)
                 (A) (A) (A) (A) (A) (A) (A) (A) (A) (A) (A) (A)
                 (A) (A) (A) (A) (A) (A) (A) (A) (A)
 The electronic state is 1-A.
 Alpha  occ. eigenvalues --  -10.19876 -10.19849 -10.19849 -10.19794 -10.19794
 Alpha  occ. eigenvalues --  -10.19767  -0.85667  -0.74981  -0.74981  -0.60692
 Alpha  occ. eigenvalues --   -0.60692  -0.52737  -0.46769  -0.44849  -0.42662
 Alpha  occ. eigenvalues --   -0.42662  -0.36924  -0.34973  -0.34973  -0.25706
 Alpha  occ. eigenvalues --   -0.25706
 Alpha virt. eigenvalues --   -0.01445  -0.01445   0.00891   0.02620   0.02620
 Alpha virt. eigenvalues --    0.04595   0.04595   0.06681   0.07803   0.07954
 Alpha virt. eigenvalues --    0.09227   0.09227   0.09976   0.12675   0.14273
 Alpha virt. eigenvalues --    0.14273   0.14481   0.14481   0.15521   0.15521
 Alpha virt. eigenvalues --    0.19586   0.19679   0.19679   0.20507   0.21166
 Alpha virt. eigenvalues --    0.21167   0.23513   0.24368   0.24368   0.26632
 Alpha virt. eigenvalues --    0.27899   0.27899   0.32463   0.34764   0.34764
 Alpha virt. eigenvalues --    0.34895   0.34896   0.56534   0.57547   0.60102
 Alpha virt. eigenvalues --    0.62031   0.65912   0.71729   0.71729   0.72078
 Alpha virt. eigenvalues --    0.72079   0.74664   0.74664   0.76856   0.76856
 Alpha virt. eigenvalues --    0.80333   0.82791   0.89550   0.93106   0.93106
 Alpha virt. eigenvalues --    0.96412   0.96413   0.97514   1.03176   1.07387
 Alpha virt. eigenvalues --    1.07387   1.13607   1.13607   1.16985   1.16985
 Alpha virt. eigenvalues --    1.25088   1.30879   1.39154   1.43428   1.43429
 Alpha virt. eigenvalues --    1.47805   1.47805   1.50508   1.50508   1.74917
 Alpha virt. eigenvalues --    1.81566   1.88311   1.90351   1.98660   1.98661
 Alpha virt. eigenvalues --    2.10329   2.10329   2.14988   2.14989   2.16129
 Alpha virt. eigenvalues --    2.16129   2.30072   2.30072   2.31958   2.57125
 Alpha virt. eigenvalues --    2.57125   2.64221   2.69955   2.69956   2.73057
 Alpha virt. eigenvalues --    2.73058   2.82537   3.01768   3.39426   4.22098
 Alpha virt. eigenvalues --    4.23786   4.23786   4.37584   4.37584   4.67621
          Condensed to atoms (all electrons):
               1          2          3          4          5          6
     1  C    4.966419   0.548846  -0.079471  -0.018132  -0.079479   0.548840
     2  C    0.548846   4.966437   0.548841  -0.079479  -0.018137  -0.079474
     3  C   -0.079471   0.548841   4.966422   0.548840  -0.079474  -0.018131
     4  C   -0.018132  -0.079479   0.548840   4.966419   0.548846  -0.079471
     5  C   -0.079479  -0.018137  -0.079474   0.548846   4.966437   0.548841
     6  C    0.548840  -0.079474  -0.018131  -0.079471   0.548841   4.966422
     7  H    0.275274   0.001916   0.009109  -0.006371   0.009112   0.001916
     8  H    0.001915   0.275277   0.001915   0.009109  -0.006371   0.009111
     9  H    0.009110   0.001911   0.275282   0.001916   0.009110  -0.006372
    10  H   -0.006371   0.009112   0.001916   0.275274   0.001916   0.009109
    11  H    0.009109  -0.006371   0.009111   0.001915   0.275277   0.001915
    12  H    0.001916   0.009110  -0.006372   0.009110   0.001911   0.275282
               7          8          9         10         11         12
     1  C    0.275274   0.001915   0.009110  -0.006371   0.009109   0.001916
     2  C    0.001916   0.275277   0.001911   0.009112  -0.006371   0.009110
     3  C    0.009109   0.001915   0.275282   0.001916   0.009111  -0.006372
     4  C   -0.006371   0.009109   0.001916   0.275274   0.001915   0.009110
     5  C    0.009112  -0.006371   0.009110   0.001916   0.275277   0.001911
     6  C    0.001916   0.009111  -0.006372   0.009109   0.001915   0.275282
     7  H    0.541748  -0.005194  -0.000157   0.000015  -0.000157  -0.005194
     8  H   -0.005194   0.541748  -0.005194  -0.000157   0.000015  -0.000157
     9  H   -0.000157  -0.005194   0.541745  -0.005194  -0.000157   0.000015
    10  H    0.000015  -0.000157  -0.005194   0.541748  -0.005194  -0.000157
    11  H   -0.000157   0.000015  -0.000157  -0.005194   0.541748  -0.005194
    12  H   -0.005194  -0.000157   0.000015  -0.000157  -0.005194   0.541745
 Mulliken charges:
               1
     1  C   -0.177976
     2  C   -0.177989
     3  C   -0.177987
     4  C   -0.177976
     5  C   -0.177989
     6  C   -0.177987
     7  H    0.177983
     8  H    0.177983
     9  H    0.177985
    10  H    0.177983
    11  H    0.177983
    12  H    0.177985
 Sum of Mulliken charges =  -0.00000
 Mulliken charges with hydrogens summed into heavy atoms:
               1
     1  C    0.000008
     2  C   -0.000005
     3  C   -0.000002
     4  C    0.000008
     5  C   -0.000005
     6  C   -0.000002
 Electronic spatial extent (au):  <R**2>=            461.8565
 Charge=             -0.0000 electrons
 Dipole moment (field-independent basis, Debye):
    X=             -0.0000    Y=              0.0000    Z=             -0.0000  Tot=              0.0000
 Quadrupole moment (field-independent basis, Debye-Ang):
   XX=            -32.1982   YY=            -32.1984   ZZ=            -40.4361
   XY=              0.0000   XZ=              0.0000   YZ=             -0.0000
 Traceless Quadrupole moment (field-independent basis, Debye-Ang):
   XX=              2.7460   YY=              2.7459   ZZ=             -5.4919
   XY=              0.0000   XZ=              0.0000   YZ=             -0.0000
 Octapole moment (field-independent basis, Debye-Ang**2):
  XXX=             -0.0000  YYY=              0.0000  ZZZ=             -0.0000  XYY=             -0.0000
  XXY=              0.0000  XXZ=              0.0000  XZZ=             -0.0000  YZZ=              0.0000
  YYZ=             -0.0000  XYZ=             -0.0000
 Hexadecapole moment (field-independent basis, Debye-Ang**3):
 XXXX=           -280.8729 YYYY=           -280.8719 ZZZZ=            -52.2501 XXXY=              0.0003
 XXXZ=              0.0000 YYYX=             -0.0000 YYYZ=             -0.0000 ZZZX=              0.0000
 ZZZY=             -0.0000 XXYY=            -93.6241 XXZZ=            -66.4172 YYZZ=            -66.4169
 XXYZ=             -0.0000 YYXZ=              0.0000 ZZXY=              0.0000
 N-N= 2.029241162422D+02 E-N=-9.427651328350D+02  KE= 2.298888412521D+02
 No NMR shielding tensors so no spin-rotation constants.
 Leave Link  601 at Wed Mar 18 10:00:30 2026, MaxMem=   104857600 cpu:               0.0 elap:               0.0
 (Enter /sw/cluster/pub/apps//g16/l9999.exe)
 1\1\GINC-N07\FOpt\RB3LYP\6-31+G(d)\C6H6\UNKNOWN\18-Mar-2026\0\\#P B3LY
 P/6-31+G* OPT FREQ\\OPT FREQ benzene 6-31+G*\\0,1\C,-0.4366860834,0.15
 45868567,0.248922124\C,0.9619650782,0.154520301,0.2493493733\C,1.66135
 66681,1.3657563667,0.2487847681\C,0.962088872,2.5770549045,0.247793356
 4\C,-0.4365622861,2.5771214605,0.2473659219\C,-1.1359538787,1.36588539
 73,0.2479305547\H,-0.9804423256,-0.7871127591,0.2493601768\H,1.5056201
 593,-0.7872381804,0.2501201464\H,2.7487708498,1.3657014901,0.249117174
 3\H,1.5058451138,3.5187545186,0.2473546892\H,-0.9802173667,3.518879941
 5,0.246595523\H,-2.2233680608,1.3659402727,0.2475984118\\Version=ES64L
 -G16RevA.03\State=1-A\HF=-232.258922\RMSD=4.083e-09\RMSF=3.480e-05\Dip
 ole=0.,0.0000001,0.\Quadrupole=2.0415596,2.0414984,-4.083058,0.0000463
 ,0.001871,-0.0039317\PG=C01 [X(C6H6)]\\@


 I LOVE MANKIND - IT'S PEOPLE I CAN'T STAND.
     -- LINUS OF PEANUTS
 Leave Link 9999 at Wed Mar 18 10:00:30 2026, MaxMem=   104857600 cpu:               0.0 elap:               0.0
 Job cpu time:       0 days  0 hours  0 minutes 22.9 seconds.
 Elapsed time:       0 days  0 hours  0 minutes 22.9 seconds.
 File lengths (MBytes):  RWF=     10 Int=      0 D2E=      0 Chk=      2 Scr=      1
 Normal termination of Gaussian 16 at Wed Mar 18 10:00:30 2026.
 (Enter /sw/cluster/pub/apps//g16/l1.exe)
 Link1:  Proceeding to internal job step number  2.
 ---------------------------------------------------------------------
 #P Geom=AllCheck Guess=TCheck SCRF=Check GenChk RB3LYP/6-31+G(d) Freq
 ---------------------------------------------------------------------
 1/10=4,29=7,30=1,38=1,40=1/1,3;
 2/12=2,40=1/2;
 3/5=1,6=6,7=11,11=2,14=-4,25=1,30=1,70=2,71=2,74=-5,116=1,140=1/1,2,3;
 4/5=101/1;
 5/5=2,38=6,98=1/2;
 8/6=4,10=90,11=11/1;
 11/6=1,8=1,9=11,15=111,16=1/1,2,10;
 10/6=1/2;
 6/7=2,8=2,9=2,10=2,28=1/1;
 7/8=1,10=1,25=1/1,2,3,16;
 1/10=4,30=1/3;
 99//99;
 Leave Link    1 at Wed Mar 18 10:00:30 2026, MaxMem=   104857600 cpu:               0.0 elap:               0.0
 (Enter /sw/cluster/pub/apps//g16/l101.exe)
 Structure from the checkpoint file:  "bz-6-31+Gstar.chk"
 ------------------------
 OPT FREQ benzene 6-31+G*
 ------------------------
 Charge =  0 Multiplicity = 1
 Redundant internal coordinates found in file.  (old form).
 C,0,-0.4366860834,0.1545868567,0.248922124
 C,0,0.9619650782,0.154520301,0.2493493733
 C,0,1.6613566681,1.3657563667,0.2487847681
 C,0,0.962088872,2.5770549045,0.2477933564
 C,0,-0.4365622861,2.5771214605,0.2473659219
 C,0,-1.1359538787,1.3658853973,0.2479305547
 H,0,-0.9804423256,-0.7871127591,0.2493601768
 H,0,1.5056201593,-0.7872381804,0.2501201464
 H,0,2.7487708498,1.3657014901,0.2491171743
 H,0,1.5058451138,3.5187545186,0.2473546892
 H,0,-0.9802173667,3.5188799415,0.246595523
 H,0,-2.2233680608,1.3659402727,0.2475984118
 Recover connectivity data from disk.
 ITRead=  0  0  0  0  0  0  0  0  0  0  0  0
 MicOpt= -1 -1 -1 -1 -1 -1 -1 -1 -1 -1 -1 -1
 NAtoms=     12 NQM=       12 NQMF=       0 NMMI=      0 NMMIF=      0
                NMic=       0 NMicF=      0.
                    Isotopes and Nuclear Properties:
 (Nuclear quadrupole moments (NQMom) in fm**2, nuclear magnetic moments (NMagM)
  in nuclear magnetons)

  Atom         1           2           3           4           5           6           7           8           9          10
 IAtWgt=          12          12          12          12          12          12           1           1           1           1
 AtmWgt=  12.0000000  12.0000000  12.0000000  12.0000000  12.0000000  12.0000000   1.0078250   1.0078250   1.0078250   1.0078250
 NucSpn=           0           0           0           0           0           0           1           1           1           1
 AtZEff=   3.6000000   3.6000000   3.6000000   3.6000000   3.6000000   3.6000000   1.0000000   1.0000000   1.0000000   1.0000000
 NQMom=    0.0000000   0.0000000   0.0000000   0.0000000   0.0000000   0.0000000   0.0000000   0.0000000   0.0000000   0.0000000
 NMagM=    0.0000000   0.0000000   0.0000000   0.0000000   0.0000000   0.0000000   2.7928460   2.7928460   2.7928460   2.7928460
 AtZNuc=   6.0000000   6.0000000   6.0000000   6.0000000   6.0000000   6.0000000   1.0000000   1.0000000   1.0000000   1.0000000

  Atom        11          12
 IAtWgt=           1           1
 AtmWgt=   1.0078250   1.0078250
 NucSpn=           1           1
 AtZEff=   1.0000000   1.0000000
 NQMom=    0.0000000   0.0000000
 NMagM=    2.7928460   2.7928460
 AtZNuc=   1.0000000   1.0000000
 Leave Link  101 at Wed Mar 18 10:00:30 2026, MaxMem=   104857600 cpu:               0.0 elap:               0.0
 (Enter /sw/cluster/pub/apps//g16/l103.exe)

 GradGradGradGradGradGradGradGradGradGradGradGradGradGradGradGradGradGrad
 Berny optimization.
 Initialization pass.
                           ----------------------------
                           !    Initial Parameters    !
                           ! (Angstroms and Degrees)  !
 --------------------------                            --------------------------
 ! Name  Definition              Value          Derivative Info.                !
 --------------------------------------------------------------------------------
 ! R1    R(1,2)                  1.3987         calculate D2E/DX2 analytically  !
 ! R2    R(1,6)                  1.3986         calculate D2E/DX2 analytically  !
 ! R3    R(1,7)                  1.0874         calculate D2E/DX2 analytically  !
 ! R4    R(2,3)                  1.3987         calculate D2E/DX2 analytically  !
 ! R5    R(2,8)                  1.0874         calculate D2E/DX2 analytically  !
 ! R6    R(3,4)                  1.3986         calculate D2E/DX2 analytically  !
 ! R7    R(3,9)                  1.0874         calculate D2E/DX2 analytically  !
 ! R8    R(4,5)                  1.3987         calculate D2E/DX2 analytically  !
 ! R9    R(4,10)                 1.0874         calculate D2E/DX2 analytically  !
 ! R10   R(5,6)                  1.3987         calculate D2E/DX2 analytically  !
 ! R11   R(5,11)                 1.0874         calculate D2E/DX2 analytically  !
 ! R12   R(6,12)                 1.0874         calculate D2E/DX2 analytically  !
 ! A1    A(2,1,6)              120.0            calculate D2E/DX2 analytically  !
 ! A2    A(2,1,7)              120.0003         calculate D2E/DX2 analytically  !
 ! A3    A(6,1,7)              119.9997         calculate D2E/DX2 analytically  !
 ! A4    A(1,2,3)              120.0002         calculate D2E/DX2 analytically  !
 ! A5    A(1,2,8)              119.9996         calculate D2E/DX2 analytically  !
 ! A6    A(3,2,8)              120.0002         calculate D2E/DX2 analytically  !
 ! A7    A(2,3,4)              119.9997         calculate D2E/DX2 analytically  !
 ! A8    A(2,3,9)              120.0001         calculate D2E/DX2 analytically  !
 ! A9    A(4,3,9)              120.0002         calculate D2E/DX2 analytically  !
 ! A10   A(3,4,5)              120.0            calculate D2E/DX2 analytically  !
 ! A11   A(3,4,10)             119.9997         calculate D2E/DX2 analytically  !
 ! A12   A(5,4,10)             120.0003         calculate D2E/DX2 analytically  !
 ! A13   A(4,5,6)              120.0002         calculate D2E/DX2 analytically  !
 ! A14   A(4,5,11)             119.9996         calculate D2E/DX2 analytically  !
 ! A15   A(6,5,11)             120.0002         calculate D2E/DX2 analytically  !
 ! A16   A(1,6,5)              119.9997         calculate D2E/DX2 analytically  !
 ! A17   A(1,6,12)             120.0002         calculate D2E/DX2 analytically  !
 ! A18   A(5,6,12)             120.0001         calculate D2E/DX2 analytically  !
 ! D1    D(6,1,2,3)              0.0            calculate D2E/DX2 analytically  !
 ! D2    D(6,1,2,8)           -180.0            calculate D2E/DX2 analytically  !
 ! D3    D(7,1,2,3)            179.9999         calculate D2E/DX2 analytically  !
 ! D4    D(7,1,2,8)              0.0            calculate D2E/DX2 analytically  !
 ! D5    D(2,1,6,5)              0.0            calculate D2E/DX2 analytically  !
 ! D6    D(2,1,6,12)          -180.0            calculate D2E/DX2 analytically  !
 ! D7    D(7,1,6,5)           -179.9999         calculate D2E/DX2 analytically  !
 ! D8    D(7,1,6,12)             0.0            calculate D2E/DX2 analytically  !
 ! D9    D(1,2,3,4)              0.0            calculate D2E/DX2 analytically  !
 ! D10   D(1,2,3,9)            180.0            calculate D2E/DX2 analytically  !
 ! D11   D(8,2,3,4)            180.0            calculate D2E/DX2 analytically  !
 ! D12   D(8,2,3,9)              0.0            calculate D2E/DX2 analytically  !
 ! D13   D(2,3,4,5)              0.0            calculate D2E/DX2 analytically  !
 ! D14   D(2,3,4,10)           180.0            calculate D2E/DX2 analytically  !
 ! D15   D(9,3,4,5)           -180.0            calculate D2E/DX2 analytically  !
 ! D16   D(9,3,4,10)             0.0            calculate D2E/DX2 analytically  !
 ! D17   D(3,4,5,6)              0.0            calculate D2E/DX2 analytically  !
 ! D18   D(3,4,5,11)           180.0            calculate D2E/DX2 analytically  !
 ! D19   D(10,4,5,6)          -180.0            calculate D2E/DX2 analytically  !
 ! D20   D(10,4,5,11)            0.0            calculate D2E/DX2 analytically  !
 ! D21   D(4,5,6,1)              0.0            calculate D2E/DX2 analytically  !
 ! D22   D(4,5,6,12)           180.0            calculate D2E/DX2 analytically  !
 ! D23   D(11,5,6,1)          -180.0            calculate D2E/DX2 analytically  !
 ! D24   D(11,5,6,12)            0.0            calculate D2E/DX2 analytically  !
 --------------------------------------------------------------------------------
 Trust Radius=3.00D-01 FncErr=1.00D-07 GrdErr=1.00D-07 EigMax=2.50D+02 EigMin=1.00D-04
 Number of steps in this run=      2 maximum allowed number of steps=      2.
 GradGradGradGradGradGradGradGradGradGradGradGradGradGradGradGradGradGrad

 Leave Link  103 at Wed Mar 18 10:00:30 2026, MaxMem=   104857600 cpu:               0.0 elap:               0.0
 (Enter /sw/cluster/pub/apps//g16/l202.exe)
                          Input orientation:                          
 ---------------------------------------------------------------------
 Center     Atomic      Atomic             Coordinates (Angstroms)
 Number     Number       Type             X           Y           Z
 ---------------------------------------------------------------------
      1          6           0       -0.436686    0.154587    0.248922
      2          6           0        0.961965    0.154520    0.249349
      3          6           0        1.661357    1.365756    0.248785
      4          6           0        0.962089    2.577055    0.247793
      5          6           0       -0.436562    2.577121    0.247366
      6          6           0       -1.135954    1.365885    0.247931
      7          1           0       -0.980442   -0.787113    0.249360
      8          1           0        1.505620   -0.787238    0.250120
      9          1           0        2.748771    1.365701    0.249117
     10          1           0        1.505845    3.518755    0.247355
     11          1           0       -0.980217    3.518880    0.246596
     12          1           0       -2.223368    1.365940    0.247598
 ---------------------------------------------------------------------
                    Distance matrix (angstroms):
                    1          2          3          4          5
     1  C    0.000000
     2  C    1.398651   0.000000
     3  C    2.422543   1.398657   0.000000
     4  C    2.797307   2.422535   1.398650   0.000000
     5  C    2.422535   2.797299   2.422534   1.398651   0.000000
     6  C    1.398650   2.422534   2.797311   2.422543   1.398657
     7  H    1.087414   2.158615   3.407924   3.884721   3.407915
     8  H    2.158608   1.087415   2.158620   3.407917   3.884713
     9  H    3.407922   2.158619   1.087414   2.158613   3.407916
    10  H    3.884721   3.407915   2.158608   1.087414   2.158615
    11  H    3.407917   3.884713   3.407911   2.158608   1.087415
    12  H    2.158613   3.407916   3.884725   3.407922   2.158619
                    6          7          8          9         10
     6  C    0.000000
     7  H    2.158608   0.000000
     8  H    3.407911   2.486063   0.000000
     9  H    3.884725   4.306000   2.486076   0.000000
    10  H    3.407924   4.972135   4.305994   2.486062   0.000000
    11  H    2.158620   4.305994   4.972128   4.305988   2.486063
    12  H    1.087414   2.486062   4.305988   4.972139   4.306000
                   11         12
    11  H    0.000000
    12  H    2.486076   0.000000
 Stoichiometry    C6H6
 Framework group  C1[X(C6H6)]
 Deg. of freedom    30
 Full point group                 C1      NOp   1
 RotChk:  IX=1 Diff= 5.59D-11
 Largest Abelian subgroup         C1      NOp   1
 Largest concise Abelian subgroup C1      NOp   1
                         Standard orientation:                         
 ---------------------------------------------------------------------
 Center     Atomic      Atomic             Coordinates (Angstroms)
 Number     Number       Type             X           Y           Z
 ---------------------------------------------------------------------
      1          6           0        1.272870   -0.579684   -0.000000
      2          6           0        0.134413   -1.392176   -0.000000
      3          6           0       -1.138461   -0.812492    0.000000
      4          6           0       -1.272870    0.579684   -0.000000
      5          6           0       -0.134413    1.392176    0.000000
      6          6           0        1.138461    0.812492   -0.000000
      7          1           0        2.262491   -1.030370    0.000001
      8          1           0        0.238922   -2.474556    0.000000
      9          1           0       -2.023579   -1.444185   -0.000000
     10          1           0       -2.262491    1.030370   -0.000000
     11          1           0       -0.238922    2.474556   -0.000000
     12          1           0        2.023579    1.444185   -0.000000
 ---------------------------------------------------------------------
 Rotational constants (GHZ):           5.6713721           5.6713226           2.8356737
 Leave Link  202 at Wed Mar 18 10:00:30 2026, MaxMem=   104857600 cpu:               0.0 elap:               0.0
 (Enter /sw/cluster/pub/apps//g16/l301.exe)
 Standard basis: 6-31+G(d) (6D, 7F)
 Ernie: Thresh=  0.10000D-02 Tol=  0.10000D-05 Strict=F.
 There are   126 symmetry adapted cartesian basis functions of A   symmetry.
 There are   126 symmetry adapted basis functions of A   symmetry.
   126 basis functions,   216 primitive gaussians,   126 cartesian basis functions
    21 alpha electrons       21 beta electrons
       nuclear repulsion energy       202.9241162422 Hartrees.
 IExCor=  402 DFT=T Ex+Corr=B3LYP ExCW=0 ScaHFX=  0.200000
 ScaDFX=  0.800000  0.720000  1.000000  0.810000 ScalE2=  1.000000  1.000000
 IRadAn=      5 IRanWt=     -1 IRanGd=            0 ICorTp=0 IEmpDi=  4
 NAtoms=   12 NActive=   12 NUniq=   12 SFac= 1.00D+00 NAtFMM=   60 NAOKFM=F Big=F
 Integral buffers will be    131072 words long.
 Raffenetti 2 integral format.
 Two-electron integral symmetry is turned on.
 Leave Link  301 at Wed Mar 18 10:00:30 2026, MaxMem=   104857600 cpu:               0.0 elap:               0.0
 (Enter /sw/cluster/pub/apps//g16/l302.exe)
 NPDir=0 NMtPBC=     1 NCelOv=     1 NCel=       1 NClECP=     1 NCelD=      1
         NCelK=      1 NCelE2=     1 NClLst=     1 CellRange=     0.0.
 One-electron integrals computed using PRISM.
 One-electron integral symmetry used in STVInt
 NBasis=   126 RedAO= T EigKep=  6.53D-06  NBF=   126
 NBsUse=   126 1.00D-06 EigRej= -1.00D+00 NBFU=   126
 Precomputing XC quadrature grid using
 IXCGrd= 4 IRadAn=           5 IRanWt=          -1 IRanGd=           0 AccXCQ= 0.00D+00.
 Generated NRdTot=       0 NPtTot=           0 NUsed=           0 NTot=          32
 NSgBfM=   126   126   126   126   126 MxSgAt=    12 MxSgA2=    12.
 Leave Link  302 at Wed Mar 18 10:00:30 2026, MaxMem=   104857600 cpu:               0.1 elap:               0.1
 (Enter /sw/cluster/pub/apps//g16/l303.exe)
 DipDrv:  MaxL=1.
 Leave Link  303 at Wed Mar 18 10:00:30 2026, MaxMem=   104857600 cpu:               0.0 elap:               0.0
 (Enter /sw/cluster/pub/apps//g16/l401.exe)
 Initial guess from the checkpoint file:  "bz-6-31+Gstar.chk"
 B after Tr=     0.000000   -0.000000    0.000000
         Rot=    1.000000   -0.000000   -0.000000   -0.000000 Ang=   0.00 deg.
 Guess basis will be translated and rotated to current coordinates.
 JPrj=2 DoOrth=T DoCkMO=T.
 Leave Link  401 at Wed Mar 18 10:00:30 2026, MaxMem=   104857600 cpu:               0.0 elap:               0.0
 (Enter /sw/cluster/pub/apps//g16/l502.exe)
 Keep R1 ints in memory in canonical form, NReq=33036972.
 FoFCou: FMM=F IPFlag=           0 FMFlag=           0 FMFlg1=           0
         NFxFlg=           0 DoJE=F BraDBF=F KetDBF=F FulRan=T
         wScrn=  0.000000 ICntrl=       600 IOpCl=  0 I1Cent=           0 NGrid=           0
         NMat0=    1 NMatS0=   8001 NMatT0=    0 NMatD0=    1 NMtDS0=    0 NMtDT0=    0
 Symmetry not used in FoFCou.
 Two-electron integral symmetry not used.
 Closed shell SCF:
 Using DIIS extrapolation, IDIIS=  1040.
 NGot=   104857600 LenX=    72811647 LenY=    72795330
 Requested convergence on RMS density matrix=1.00D-08 within 128 cycles.
 Requested convergence on MAX density matrix=1.00D-06.
 Requested convergence on             energy=1.00D-06.
 No special actions if energy rises.

 Cycle   1  Pass 1  IDiag  1:
 E= -232.258922013569    
 DIIS: error= 2.50D-09 at cycle   1 NSaved=   1.
 NSaved= 1 IEnMin= 1 EnMin= -232.258922013569     IErMin= 1 ErrMin= 2.50D-09
 ErrMax= 2.50D-09  0.00D+00 EMaxC= 1.00D-01 BMatC= 3.13D-16 BMatP= 3.13D-16
 IDIUse=1 WtCom= 1.00D+00 WtEn= 0.00D+00
 Coeff-Com:  0.100D+01
 Coeff:      0.100D+01
 Gap=     0.243 Goal=   None    Shift=    0.000
 RMSDP=1.11D-09 MaxDP=2.30D-08              OVMax= 2.43D-08

 SCF Done:  E(RB3LYP) =  -232.258922014     A.U. after    1 cycles
            NFock=  1  Conv=0.11D-08     -V/T= 2.0103
 KE= 2.298888412099D+02 PE=-9.427651327927D+02 EE= 2.776932533270D+02
 Leave Link  502 at Wed Mar 18 10:00:32 2026, MaxMem=   104857600 cpu:               1.3 elap:               1.3
 (Enter /sw/cluster/pub/apps//g16/l801.exe)
 DoSCS=F DFT=T ScalE2(SS,OS)=  1.000000  1.000000
 Range of M.O.s used for correlation:     1   126
 NBasis=   126 NAE=    21 NBE=    21 NFC=     0 NFV=     0
 NROrb=    126 NOA=    21 NOB=    21 NVA=   105 NVB=   105

 **** Warning!!: The largest alpha MO coefficient is  0.10073685D+03

 Leave Link  801 at Wed Mar 18 10:00:32 2026, MaxMem=   104857600 cpu:               0.0 elap:               0.0
 (Enter /sw/cluster/pub/apps//g16/l1101.exe)
 Using compressed storage, NAtomX=    12.
 Will process     13 centers per pass.
 Leave Link 1101 at Wed Mar 18 10:00:32 2026, MaxMem=   104857600 cpu:               0.0 elap:               0.1
 (Enter /sw/cluster/pub/apps//g16/l1102.exe)
 Symmetrizing basis deriv contribution to polar:
 IMax=3 JMax=2 DiffMx= 0.00D+00
 Leave Link 1102 at Wed Mar 18 10:00:32 2026, MaxMem=   104857600 cpu:               0.0 elap:               0.0
 (Enter /sw/cluster/pub/apps//g16/l1110.exe)
 Forming Gx(P) for the SCF density, NAtomX=    12.
 Integral derivatives from FoFJK, PRISM(SPDF).
 Do as many integral derivatives as possible in FoFJK.
 G2DrvN: MDV=     104856624.
 G2DrvN: will do    13 centers at a time, making    1 passes.
 Calling FoFCou, ICntrl=  3107 FMM=F I1Cent=   0 AccDes= 0.00D+00.
 FoFJK:  IHMeth= 1 ICntrl=    3107 DoSepK=F KAlg= 0 I1Cent=           0 FoldK=F
 IRaf=         0 NMat=       1 IRICut=       1 DoRegI=T DoRafI=F ISym2E= 0 IDoP0=0 IntGTp=1.
 FoFCou: FMM=F IPFlag=           0 FMFlag=      100000 FMFlg1=           0
         NFxFlg=           0 DoJE=F BraDBF=F KetDBF=F FulRan=T
         wScrn=  0.000000 ICntrl=      3107 IOpCl=  0 I1Cent=           0 NGrid=           0
         NMat0=    1 NMatS0=      1 NMatT0=    0 NMatD0=    1 NMtDS0=    0 NMtDT0=    0
 Symmetry not used in FoFCou.
 End of G2Drv F.D. properties file   721 does not exist.
 End of G2Drv F.D. properties file   722 does not exist.
 End of G2Drv F.D. properties file   788 does not exist.
 Leave Link 1110 at Wed Mar 18 10:00:53 2026, MaxMem=   104857600 cpu:              20.4 elap:              20.5
 (Enter /sw/cluster/pub/apps//g16/l1002.exe)
 Minotr:  Closed shell wavefunction.
          IDoAtm=111111111111
          Direct CPHF calculation.
          Differentiating once with respect to electric field.
                with respect to dipole field.
          Differentiating once with respect to nuclear coordinates.
          Requested convergence is 1.0D-08 RMS, and 1.0D-07 maximum.
          Secondary convergence is 1.0D-12 RMS, and 1.0D-12 maximum.
          NewPWx=T KeepS1=F KeepF1=F KeepIn=T MapXYZ=F SortEE=F KeepMc=T.
         3619 words used for storage of precomputed grid.
 Keep R1 ints in memory in canonical form, NReq=33042085.
 FoFCou: FMM=F IPFlag=           0 FMFlag=           0 FMFlg1=           0
         NFxFlg=           0 DoJE=F BraDBF=F KetDBF=F FulRan=T
         wScrn=  0.000000 ICntrl=       600 IOpCl=  0 I1Cent=           0 NGrid=           0
         NMat0=    1 NMatS0=   8001 NMatT0=    0 NMatD0=    1 NMtDS0=    0 NMtDT0=    0
 Symmetry not used in FoFCou.
 Two-electron integral symmetry not used.
          MDV=     104857600 using IRadAn=       1.
          Solving linear equations simultaneously, MaxMat=       0.
          There are    39 degrees of freedom in the 1st order CPHF.  IDoFFX=6 NUNeed=     3.
     36 vectors produced by pass  0 Test12= 5.65D-15 2.56D-09 XBig12= 9.54D+01 4.82D+00.
 AX will form    36 AO Fock derivatives at one time.
     36 vectors produced by pass  1 Test12= 5.65D-15 2.56D-09 XBig12= 1.29D+01 8.31D-01.
     36 vectors produced by pass  2 Test12= 5.65D-15 2.56D-09 XBig12= 1.04D-01 8.61D-02.
     36 vectors produced by pass  3 Test12= 5.65D-15 2.56D-09 XBig12= 2.78D-04 4.18D-03.
     36 vectors produced by pass  4 Test12= 5.65D-15 2.56D-09 XBig12= 2.73D-07 1.18D-04.
     31 vectors produced by pass  5 Test12= 5.65D-15 2.56D-09 XBig12= 1.51D-10 2.93D-06.
      5 vectors produced by pass  6 Test12= 5.65D-15 2.56D-09 XBig12= 7.47D-14 5.88D-08.
 InvSVY:  IOpt=1 It=  1 EMax= 3.55D-15
 Solved reduced A of dimension   216 with    39 vectors.
 FullF1:  Do perturbations      1 to       3.
 Isotropic polarizability for W=    0.000000       66.09 Bohr**3.
 End of Minotr F.D. properties file   721 does not exist.
 End of Minotr F.D. properties file   722 does not exist.
 End of Minotr F.D. properties file   788 does not exist.
 Leave Link 1002 at Wed Mar 18 10:01:11 2026, MaxMem=   104857600 cpu:              18.1 elap:              18.1
 (Enter /sw/cluster/pub/apps//g16/l601.exe)
 Copying SCF densities to generalized density rwf, IOpCl= 0 IROHF=0.

 **********************************************************************

            Population analysis using the SCF density.

 **********************************************************************

 Orbital symmetries:
       Occupied  (A) (A) (A) (A) (A) (A) (A) (A) (A) (A) (A) (A)
                 (A) (A) (A) (A) (A) (A) (A) (A) (A)
       Virtual   (A) (A) (A) (A) (A) (A) (A) (A) (A) (A) (A) (A)
                 (A) (A) (A) (A) (A) (A) (A) (A) (A) (A) (A) (A)
                 (A) (A) (A) (A) (A) (A) (A) (A) (A) (A) (A) (A)
                 (A) (A) (A) (A) (A) (A) (A) (A) (A) (A) (A) (A)
                 (A) (A) (A) (A) (A) (A) (A) (A) (A) (A) (A) (A)
                 (A) (A) (A) (A) (A) (A) (A) (A) (A) (A) (A) (A)
                 (A) (A) (A) (A) (A) (A) (A) (A) (A) (A) (A) (A)
                 (A) (A) (A) (A) (A) (A) (A) (A) (A) (A) (A) (A)
                 (A) (A) (A) (A) (A) (A) (A) (A) (A)
 The electronic state is 1-A.
 Alpha  occ. eigenvalues --  -10.19876 -10.19849 -10.19849 -10.19794 -10.19794
 Alpha  occ. eigenvalues --  -10.19767  -0.85667  -0.74981  -0.74981  -0.60692
 Alpha  occ. eigenvalues --   -0.60692  -0.52737  -0.46769  -0.44849  -0.42662
 Alpha  occ. eigenvalues --   -0.42662  -0.36924  -0.34973  -0.34973  -0.25706
 Alpha  occ. eigenvalues --   -0.25706
 Alpha virt. eigenvalues --   -0.01445  -0.01445   0.00891   0.02620   0.02620
 Alpha virt. eigenvalues --    0.04595   0.04595   0.06681   0.07803   0.07954
 Alpha virt. eigenvalues --    0.09227   0.09227   0.09976   0.12675   0.14273
 Alpha virt. eigenvalues --    0.14273   0.14481   0.14481   0.15521   0.15521
 Alpha virt. eigenvalues --    0.19586   0.19679   0.19679   0.20507   0.21166
 Alpha virt. eigenvalues --    0.21167   0.23513   0.24368   0.24368   0.26632
 Alpha virt. eigenvalues --    0.27899   0.27899   0.32463   0.34764   0.34764
 Alpha virt. eigenvalues --    0.34895   0.34896   0.56534   0.57547   0.60102
 Alpha virt. eigenvalues --    0.62031   0.65912   0.71729   0.71729   0.72078
 Alpha virt. eigenvalues --    0.72079   0.74664   0.74664   0.76856   0.76856
 Alpha virt. eigenvalues --    0.80333   0.82791   0.89550   0.93106   0.93106
 Alpha virt. eigenvalues --    0.96412   0.96413   0.97514   1.03176   1.07387
 Alpha virt. eigenvalues --    1.07387   1.13607   1.13607   1.16985   1.16985
 Alpha virt. eigenvalues --    1.25088   1.30879   1.39154   1.43428   1.43429
 Alpha virt. eigenvalues --    1.47805   1.47805   1.50508   1.50508   1.74917
 Alpha virt. eigenvalues --    1.81566   1.88311   1.90351   1.98660   1.98661
 Alpha virt. eigenvalues --    2.10329   2.10329   2.14988   2.14989   2.16129
 Alpha virt. eigenvalues --    2.16129   2.30072   2.30072   2.31958   2.57125
 Alpha virt. eigenvalues --    2.57125   2.64221   2.69955   2.69956   2.73057
 Alpha virt. eigenvalues --    2.73058   2.82537   3.01768   3.39426   4.22098
 Alpha virt. eigenvalues --    4.23786   4.23786   4.37584   4.37584   4.67621
          Condensed to atoms (all electrons):
               1          2          3          4          5          6
     1  C    4.966419   0.548846  -0.079471  -0.018132  -0.079479   0.548840
     2  C    0.548846   4.966437   0.548841  -0.079479  -0.018137  -0.079474
     3  C   -0.079471   0.548841   4.966422   0.548840  -0.079474  -0.018131
     4  C   -0.018132  -0.079479   0.548840   4.966419   0.548846  -0.079471
     5  C   -0.079479  -0.018137  -0.079474   0.548846   4.966437   0.548841
     6  C    0.548840  -0.079474  -0.018131  -0.079471   0.548841   4.966422
     7  H    0.275274   0.001916   0.009109  -0.006371   0.009112   0.001916
     8  H    0.001915   0.275277   0.001915   0.009109  -0.006371   0.009111
     9  H    0.009110   0.001911   0.275282   0.001916   0.009110  -0.006372
    10  H   -0.006371   0.009112   0.001916   0.275274   0.001916   0.009109
    11  H    0.009109  -0.006371   0.009111   0.001915   0.275277   0.001915
    12  H    0.001916   0.009110  -0.006372   0.009110   0.001911   0.275282
               7          8          9         10         11         12
     1  C    0.275274   0.001915   0.009110  -0.006371   0.009109   0.001916
     2  C    0.001916   0.275277   0.001911   0.009112  -0.006371   0.009110
     3  C    0.009109   0.001915   0.275282   0.001916   0.009111  -0.006372
     4  C   -0.006371   0.009109   0.001916   0.275274   0.001915   0.009110
     5  C    0.009112  -0.006371   0.009110   0.001916   0.275277   0.001911
     6  C    0.001916   0.009111  -0.006372   0.009109   0.001915   0.275282
     7  H    0.541748  -0.005194  -0.000157   0.000015  -0.000157  -0.005194
     8  H   -0.005194   0.541748  -0.005194  -0.000157   0.000015  -0.000157
     9  H   -0.000157  -0.005194   0.541745  -0.005194  -0.000157   0.000015
    10  H    0.000015  -0.000157  -0.005194   0.541748  -0.005194  -0.000157
    11  H   -0.000157   0.000015  -0.000157  -0.005194   0.541748  -0.005194
    12  H   -0.005194  -0.000157   0.000015  -0.000157  -0.005194   0.541745
 Mulliken charges:
               1
     1  C   -0.177976
     2  C   -0.177989
     3  C   -0.177987
     4  C   -0.177976
     5  C   -0.177989
     6  C   -0.177987
     7  H    0.177983
     8  H    0.177983
     9  H    0.177985
    10  H    0.177983
    11  H    0.177983
    12  H    0.177985
 Sum of Mulliken charges =   0.00000
 Mulliken charges with hydrogens summed into heavy atoms:
               1
     1  C    0.000008
     2  C   -0.000005
     3  C   -0.000002
     4  C    0.000008
     5  C   -0.000005
     6  C   -0.000002
 APT charges:
               1
     1  C   -0.026099
     2  C   -0.026145
     3  C   -0.026097
     4  C   -0.026099
     5  C   -0.026145
     6  C   -0.026097
     7  H    0.026107
     8  H    0.026114
     9  H    0.026120
    10  H    0.026107
    11  H    0.026114
    12  H    0.026120
 Sum of APT charges =  -0.00000
 APT charges with hydrogens summed into heavy atoms:
               1
     1  C    0.000008
     2  C   -0.000031
     3  C    0.000023
     4  C    0.000008
     5  C   -0.000031
     6  C    0.000023
 Electronic spatial extent (au):  <R**2>=            461.8565
 Charge=              0.0000 electrons
 Dipole moment (field-independent basis, Debye):
    X=              0.0000    Y=             -0.0000    Z=             -0.0000  Tot=              0.0000
 Quadrupole moment (field-independent basis, Debye-Ang):
   XX=            -32.1982   YY=            -32.1984   ZZ=            -40.4361
   XY=              0.0000   XZ=              0.0000   YZ=             -0.0000
 Traceless Quadrupole moment (field-independent basis, Debye-Ang):
   XX=              2.7460   YY=              2.7459   ZZ=             -5.4919
   XY=              0.0000   XZ=              0.0000   YZ=             -0.0000
 Octapole moment (field-independent basis, Debye-Ang**2):
  XXX=              0.0000  YYY=             -0.0000  ZZZ=             -0.0000  XYY=              0.0000
  XXY=             -0.0000  XXZ=              0.0000  XZZ=              0.0000  YZZ=             -0.0000
  YYZ=             -0.0000  XYZ=             -0.0000
 Hexadecapole moment (field-independent basis, Debye-Ang**3):
 XXXX=           -280.8729 YYYY=           -280.8719 ZZZZ=            -52.2501 XXXY=              0.0003
 XXXZ=              0.0000 YYYX=             -0.0000 YYYZ=             -0.0000 ZZZX=              0.0000
 ZZZY=             -0.0000 XXYY=            -93.6241 XXZZ=            -66.4172 YYZZ=            -66.4169
 XXYZ=             -0.0000 YYXZ=              0.0000 ZZXY=              0.0000
 N-N= 2.029241162422D+02 E-N=-9.427651326829D+02  KE= 2.298888412099D+02
  Exact polarizability:  78.638  -0.000  78.638  -0.000   0.000  41.005
 Approx polarizability: 126.017   0.000 126.016  -0.000   0.000  56.822
 No NMR shielding tensors so no spin-rotation constants.
 Leave Link  601 at Wed Mar 18 10:01:11 2026, MaxMem=   104857600 cpu:               0.0 elap:               0.0
 (Enter /sw/cluster/pub/apps//g16/l701.exe)
 ... and contract with generalized density number  0.
 Compute integral second derivatives.
 Leave Link  701 at Wed Mar 18 10:01:11 2026, MaxMem=   104857600 cpu:               0.0 elap:               0.1
 (Enter /sw/cluster/pub/apps//g16/l702.exe)
 L702 exits ... SP integral derivatives will be done elsewhere.
 Leave Link  702 at Wed Mar 18 10:01:11 2026, MaxMem=   104857600 cpu:               0.0 elap:               0.0
 (Enter /sw/cluster/pub/apps//g16/l703.exe)
 Integral derivatives from FoFJK, PRISM(SPDF).
 Compute integral second derivatives, UseDBF=F ICtDFT=           0.
 Calling FoFJK, ICntrl=    100127 FMM=F ISym2X=0 I1Cent= 0 IOpClX= 0 NMat=1 NMatS=1 NMatT=0.
 FoFJK:  IHMeth= 1 ICntrl=  100127 DoSepK=F KAlg= 0 I1Cent=           0 FoldK=F
 IRaf=         0 NMat=       1 IRICut=       1 DoRegI=T DoRafI=F ISym2E= 0 IDoP0=0 IntGTp=1.
 FoFCou: FMM=F IPFlag=           0 FMFlag=      100000 FMFlg1=         800
         NFxFlg=           0 DoJE=F BraDBF=F KetDBF=F FulRan=T
         wScrn=  0.000000 ICntrl=    100127 IOpCl=  0 I1Cent=           0 NGrid=           0
         NMat0=    1 NMatS0=      1 NMatT0=    0 NMatD0=    1 NMtDS0=    0 NMtDT0=    0
 Symmetry not used in FoFCou.
 Leave Link  703 at Wed Mar 18 10:01:56 2026, MaxMem=   104857600 cpu:              44.9 elap:              44.9
 (Enter /sw/cluster/pub/apps//g16/l716.exe)
 Dipole        = 1.59654626D-07-1.36144718D-07-6.19739555D-09
 Polarizability= 7.86384361D+01-3.24911980D-04 7.86382854D+01
                -1.83426212D-06 1.55628364D-06 4.10051499D+01
 Full mass-weighted force constant matrix:
 Low frequencies ---   -0.0011   -0.0007    0.0007    9.3364    9.6652   11.7860
 Low frequencies ---  412.4141  412.4800  620.4354
 Diagonal vibrational polarizability:
        0.3343157       0.3343436       7.1677873
 Harmonic frequencies (cm**-1), IR intensities (KM/Mole), Raman scattering
 activities (A**4/AMU), depolarization ratios for plane and unpolarized
 incident light, reduced masses (AMU), force constants (mDyne/A),
 and normal coordinates:
                      1                      2                      3
                      A                      A                      A
 Frequencies --    412.4141               412.4800               620.4354
 Red. masses --      2.8825                 2.8828                 6.0930
 Frc consts  --      0.2889                 0.2890                 1.3819
 IR Inten    --      0.0000                 0.0000                 0.0000
  Atom  AN      X      Y      Z        X      Y      Z        X      Y      Z
     1   6    -0.00   0.00  -0.18    -0.00  -0.00  -0.16     0.18  -0.21  -0.00
     2   6    -0.00   0.00  -0.05     0.00  -0.00   0.23     0.16  -0.08   0.00
     3   6     0.00   0.00   0.23    -0.00   0.00  -0.07     0.26   0.23  -0.00
     4   6     0.00  -0.00  -0.18     0.00  -0.00  -0.16    -0.18   0.21  -0.00
     5   6    -0.00   0.00  -0.05     0.00  -0.00   0.23    -0.16   0.08  -0.00
     6   6     0.00  -0.00   0.23    -0.00   0.00  -0.07    -0.26  -0.23   0.00
     7   1     0.00  -0.00  -0.39     0.00   0.00  -0.35     0.30   0.04  -0.00
     8   1    -0.00   0.00  -0.11     0.00   0.00   0.51    -0.20  -0.12   0.00
     9   1    -0.00  -0.00   0.50    -0.00   0.00  -0.16     0.32   0.16   0.00
    10   1     0.00  -0.00  -0.39     0.00   0.00  -0.35    -0.30  -0.04   0.00
    11   1     0.00  -0.00  -0.11     0.00   0.00   0.51     0.20   0.12   0.00
    12   1     0.00  -0.00   0.50    -0.00   0.00  -0.16    -0.32  -0.16   0.00
                      4                      5                      6
                      A                      A                      A
 Frequencies --    620.4545               689.6433               712.0985
 Red. masses --      6.0929                 1.0848                 3.7112
 Frc consts  --      1.3820                 0.3040                 1.1088
 IR Inten    --      0.0000               126.6780                 0.0000
  Atom  AN      X      Y      Z        X      Y      Z        X      Y      Z
     1   6     0.28  -0.01  -0.00    -0.00   0.00  -0.03    -0.00   0.00  -0.20
     2   6     0.01   0.35   0.00    -0.00  -0.00  -0.03     0.00  -0.00   0.20
     3   6    -0.16   0.07  -0.00     0.00  -0.00  -0.03    -0.00  -0.00  -0.20
     4   6    -0.28   0.01   0.00     0.00  -0.00  -0.03     0.00  -0.00   0.20
     5   6    -0.01  -0.35  -0.00     0.00  -0.00  -0.03     0.00   0.00  -0.20
     6   6     0.16  -0.07   0.00     0.00   0.00  -0.03     0.00   0.00   0.20
     7   1     0.17  -0.25   0.00    -0.00   0.00   0.41     0.00  -0.00  -0.35
     8   1    -0.09   0.34   0.00     0.00   0.00   0.41     0.00  -0.00   0.35
     9   1     0.05  -0.23   0.00    -0.00  -0.00   0.41    -0.00   0.00  -0.35
    10   1    -0.17   0.25   0.00    -0.00   0.00   0.41    -0.00  -0.00   0.35
    11   1     0.09  -0.34   0.00    -0.00   0.00   0.41    -0.00   0.00  -0.35
    12   1    -0.05   0.23   0.00     0.00  -0.00   0.41     0.00  -0.00   0.35
                      7                      8                      9
                      A                      A                      A
 Frequencies --    863.5528               863.6323               981.0777
 Red. masses --      1.2474                 1.2474                 1.3724
 Frc consts  --      0.5481                 0.5482                 0.7783
 IR Inten    --      0.0000                 0.0000                 0.0000
  Atom  AN      X      Y      Z        X      Y      Z        X      Y      Z
     1   6     0.00  -0.00  -0.08     0.00  -0.00  -0.03     0.00  -0.00  -0.09
     2   6    -0.00   0.00  -0.02     0.00   0.00  -0.08    -0.00   0.00   0.00
     3   6    -0.00  -0.00   0.06    -0.00   0.00  -0.06    -0.00  -0.00   0.09
     4   6     0.00  -0.00   0.08     0.00  -0.00   0.03     0.00  -0.00  -0.09
     5   6    -0.00   0.00   0.02     0.00   0.00   0.08    -0.00   0.00   0.00
     6   6    -0.00  -0.00  -0.06    -0.00  -0.00   0.06    -0.00  -0.00   0.09
     7   1    -0.00   0.00   0.54    -0.00  -0.00   0.18    -0.00  -0.00   0.50
     8   1    -0.00   0.00   0.12     0.00   0.00   0.56    -0.00   0.00  -0.02
     9   1     0.00   0.00  -0.43    -0.00  -0.00   0.38    -0.00   0.00  -0.48
    10   1     0.00  -0.00  -0.54     0.00  -0.00  -0.18     0.00  -0.00   0.50
    11   1    -0.00  -0.00  -0.12     0.00  -0.00  -0.56     0.00   0.00  -0.02
    12   1    -0.00  -0.00   0.43    -0.00   0.00  -0.38    -0.00   0.00  -0.48
                     10                     11                     12
                      A                      A                      A
 Frequencies --    981.1620              1013.7205              1014.2650
 Red. masses --      1.3723                 6.0434                 1.2405
 Frc consts  --      0.7784                 3.6591                 0.7519
 IR Inten    --      0.0000                 0.0000                 0.0000
  Atom  AN      X      Y      Z        X      Y      Z        X      Y      Z
     1   6    -0.00   0.00   0.05    -0.25   0.11   0.00     0.00  -0.00   0.06
     2   6     0.00  -0.00  -0.11    -0.03   0.28  -0.00     0.00  -0.00  -0.06
     3   6     0.00   0.00   0.06     0.22   0.16   0.00    -0.00  -0.00   0.06
     4   6    -0.00   0.00   0.05     0.25  -0.11  -0.00    -0.00   0.00  -0.06
     5   6     0.00  -0.00  -0.11     0.03  -0.28   0.00    -0.00   0.00   0.06
     6   6     0.00   0.00   0.06    -0.22  -0.16  -0.00     0.00   0.00  -0.06
     7   1     0.00   0.00  -0.27    -0.27   0.12  -0.00     0.00  -0.00  -0.40
     8   1     0.00  -0.00   0.57    -0.03   0.30   0.00     0.00  -0.00   0.40
     9   1     0.00   0.00  -0.30     0.24   0.17  -0.00    -0.00  -0.00  -0.40
    10   1    -0.00   0.00  -0.27     0.27  -0.12   0.00    -0.00   0.00   0.40
    11   1     0.00   0.00   0.57     0.03  -0.30  -0.00     0.00   0.00  -0.40
    12   1    -0.00   0.00  -0.30    -0.24  -0.17   0.00     0.00   0.00   0.40
                     13                     14                     15
                      A                      A                      A
 Frequencies --   1018.9373              1064.1078              1064.1347
 Red. masses --      6.5416                 1.7175                 1.7173
 Frc consts  --      4.0016                 1.1458                 1.1457
 IR Inten    --      0.0000                 5.7924                 5.7946
  Atom  AN      X      Y      Z        X      Y      Z        X      Y      Z
     1   6     0.26  -0.12   0.00    -0.00   0.09  -0.00     0.11  -0.02   0.00
     2   6    -0.03   0.29  -0.00     0.07  -0.07   0.00    -0.05  -0.10  -0.00
     3   6    -0.24  -0.17  -0.00    -0.10  -0.06  -0.00    -0.03   0.08   0.00
     4   6     0.26  -0.12   0.00    -0.00   0.09  -0.00     0.11  -0.02  -0.00
     5   6    -0.03   0.29  -0.00     0.07  -0.07   0.00    -0.05  -0.10   0.00
     6   6    -0.24  -0.17  -0.00    -0.10  -0.06   0.00    -0.03   0.08  -0.00
     7   1     0.26  -0.12  -0.00     0.17   0.48   0.00     0.19   0.12  -0.00
     8   1    -0.03   0.29   0.00     0.42  -0.04  -0.00    -0.34  -0.13   0.00
     9   1    -0.23  -0.17   0.00    -0.16   0.00   0.00    -0.29   0.45  -0.00
    10   1     0.26  -0.12  -0.00     0.17   0.48   0.00     0.19   0.12   0.00
    11   1    -0.03   0.29   0.00     0.42  -0.04  -0.00    -0.34  -0.13  -0.00
    12   1    -0.23  -0.17   0.00    -0.16   0.00   0.00    -0.29   0.45   0.00
                     16                     17                     18
                      A                      A                      A
 Frequencies --   1183.7112              1204.7165              1204.7356
 Red. masses --      1.0830                 1.1402                 1.1403
 Frc consts  --      0.8941                 0.9750                 0.9751
 IR Inten    --      0.0000                 0.0000                 0.0000
  Atom  AN      X      Y      Z        X      Y      Z        X      Y      Z
     1   6    -0.01  -0.03   0.00     0.03   0.05  -0.00    -0.01  -0.02  -0.00
     2   6     0.03   0.00   0.00    -0.01   0.00  -0.00     0.06   0.01   0.00
     3   6    -0.02   0.03  -0.00    -0.03   0.04  -0.00    -0.02   0.03  -0.00
     4   6    -0.01  -0.03   0.00    -0.03  -0.05   0.00     0.01   0.02  -0.00
     5   6     0.03   0.00   0.00     0.01  -0.00   0.00    -0.06  -0.01  -0.00
     6   6    -0.02   0.03  -0.00     0.03  -0.04   0.00     0.02  -0.03   0.00
     7   1    -0.17  -0.37  -0.00     0.22   0.48   0.00    -0.09  -0.20   0.00
     8   1     0.40   0.04  -0.00    -0.07  -0.01   0.00     0.57   0.05  -0.00
     9   1    -0.24   0.33   0.00    -0.27   0.37   0.00    -0.20   0.29   0.00
    10   1    -0.17  -0.37  -0.00    -0.22  -0.48  -0.00     0.09   0.20   0.00
    11   1     0.40   0.04  -0.00     0.07   0.01   0.00    -0.57  -0.05   0.00
    12   1    -0.24   0.33   0.00     0.27  -0.37  -0.00     0.20  -0.29  -0.00
                     19                     20                     21
                      A                      A                      A
 Frequencies --   1354.2808              1385.6555              1522.7144
 Red. masses --      6.5701                 1.2474                 1.9935
 Frc consts  --      7.0997                 1.4112                 2.7233
 IR Inten    --      0.0000                 0.0000                 5.7206
  Atom  AN      X      Y      Z        X      Y      Z        X      Y      Z
     1   6    -0.12  -0.26  -0.00    -0.02  -0.05   0.00     0.03   0.14  -0.00
     2   6     0.29   0.03  -0.00    -0.06  -0.01  -0.00     0.12  -0.05  -0.00
     3   6    -0.17   0.24   0.00    -0.04   0.05  -0.00    -0.09  -0.03   0.00
     4   6    -0.12  -0.26  -0.00     0.02   0.05  -0.00     0.03   0.14  -0.00
     5   6     0.29   0.03  -0.00     0.06   0.01   0.00     0.12  -0.05  -0.00
     6   6    -0.17   0.24   0.00     0.04  -0.05   0.00    -0.09  -0.03   0.00
     7   1     0.12   0.26  -0.00     0.17   0.37   0.00    -0.25  -0.44  -0.00
     8   1    -0.29  -0.03  -0.00     0.40   0.04  -0.00    -0.41  -0.11   0.00
     9   1     0.17  -0.23   0.00     0.23  -0.33  -0.00    -0.04  -0.13  -0.00
    10   1     0.12   0.26  -0.00    -0.17  -0.37  -0.00    -0.25  -0.44  -0.00
    11   1    -0.29  -0.03  -0.00    -0.40  -0.04   0.00    -0.41  -0.11   0.00
    12   1     0.17  -0.23   0.00    -0.23   0.33   0.00    -0.04  -0.13  -0.00
                     22                     23                     24
                      A                      A                      A
 Frequencies --   1522.7388              1645.2514              1645.2743
 Red. masses --      1.9937                 5.2476                 5.2481
 Frc consts  --      2.7237                 8.3691                 8.3701
 IR Inten    --      5.7181                 0.0000                 0.0000
  Atom  AN      X      Y      Z        X      Y      Z        X      Y      Z
     1   6     0.10   0.01   0.00    -0.19  -0.21  -0.00    -0.04   0.21  -0.00
     2   6    -0.08  -0.08  -0.00     0.28   0.09  -0.00     0.16  -0.12  -0.00
     3   6    -0.07   0.13   0.00    -0.13  -0.07   0.00    -0.18   0.27   0.00
     4   6     0.10   0.01   0.00     0.19   0.21   0.00     0.04  -0.21   0.00
     5   6    -0.08  -0.08  -0.00    -0.28  -0.09   0.00    -0.16   0.12   0.00
     6   6    -0.07   0.13  -0.00     0.13   0.07  -0.00     0.18  -0.27  -0.00
     7   1     0.01  -0.22   0.00     0.06   0.36   0.00    -0.22  -0.15   0.00
     8   1     0.34  -0.05   0.00    -0.38   0.04  -0.00    -0.17  -0.17  -0.00
     9   1     0.32  -0.42  -0.00    -0.12  -0.12   0.00     0.25  -0.34   0.00
    10   1     0.01  -0.22   0.00    -0.06  -0.36   0.00     0.22   0.15   0.00
    11   1     0.34  -0.05  -0.00     0.38  -0.04  -0.00     0.17   0.17   0.00
    12   1     0.32  -0.42  -0.00     0.12   0.12  -0.00    -0.25   0.34  -0.00
                     25                     26                     27
                      A                      A                      A
 Frequencies --   3171.5071              3181.1702              3181.2206
 Red. masses --      1.0838                 1.0876                 1.0876
 Frc consts  --      6.4227                 6.4847                 6.4850
 IR Inten    --      0.0001                 0.0000                 0.0000
  Atom  AN      X      Y      Z        X      Y      Z        X      Y      Z
     1   6    -0.03   0.01  -0.00    -0.04   0.02  -0.00    -0.01   0.01  -0.00
     2   6     0.00  -0.03   0.00     0.00  -0.01   0.00     0.00  -0.05   0.00
     3   6     0.03   0.02   0.00    -0.03  -0.02  -0.00     0.02   0.02   0.00
     4   6    -0.03   0.01  -0.00     0.04  -0.02   0.00     0.01  -0.01   0.00
     5   6     0.00  -0.03   0.00    -0.00   0.01  -0.00    -0.00   0.05  -0.00
     6   6     0.03   0.02   0.00     0.03   0.02  -0.00    -0.02  -0.02   0.00
     7   1     0.37  -0.17   0.00     0.49  -0.22   0.00     0.18  -0.08   0.00
     8   1    -0.04   0.40  -0.00    -0.01   0.10  -0.00    -0.05   0.56  -0.00
     9   1    -0.33  -0.24  -0.00     0.36   0.25   0.00    -0.30  -0.22  -0.00
    10   1     0.37  -0.17   0.00    -0.49   0.22  -0.00    -0.18   0.08  -0.00
    11   1    -0.04   0.40  -0.00     0.01  -0.10   0.00     0.05  -0.56   0.00
    12   1    -0.33  -0.24   0.00    -0.36  -0.25   0.00     0.30   0.22   0.00
                     28                     29                     30
                      A                      A                      A
 Frequencies --   3196.8467              3196.9000              3206.8998
 Red. masses --      1.0947                 1.0947                 1.0988
 Frc consts  --      6.5916                 6.5918                 6.6578
 IR Inten    --     49.4736                49.4660                 0.0000
  Atom  AN      X      Y      Z        X      Y      Z        X      Y      Z
     1   6    -0.04   0.02  -0.00     0.02  -0.00   0.00     0.03  -0.02   0.00
     2   6     0.00   0.01  -0.00     0.01  -0.05   0.00     0.00  -0.04   0.00
     3   6    -0.03  -0.02  -0.00    -0.03  -0.02  -0.00    -0.03  -0.02  -0.00
     4   6    -0.04   0.02  -0.00     0.02  -0.00   0.00    -0.03   0.02  -0.00
     5   6     0.00   0.01  -0.00     0.01  -0.05   0.00    -0.00   0.04  -0.00
     6   6    -0.03  -0.02   0.00    -0.03  -0.02   0.00     0.03   0.02  -0.00
     7   1     0.49  -0.23   0.00    -0.18   0.08  -0.00    -0.37   0.17  -0.00
     8   1     0.01  -0.10   0.00    -0.06   0.56  -0.00    -0.04   0.41  -0.00
     9   1     0.35   0.26   0.00     0.31   0.21   0.00     0.33   0.24   0.00
    10   1     0.49  -0.23   0.00    -0.18   0.08  -0.00     0.37  -0.17   0.00
    11   1     0.01  -0.10   0.00    -0.06   0.56  -0.00     0.04  -0.41   0.00
    12   1     0.35   0.26   0.00     0.31   0.21  -0.00    -0.33  -0.24   0.00

 -------------------
 - Thermochemistry -
 -------------------
 Temperature   298.150 Kelvin.  Pressure   1.00000 Atm.
 Atom     1 has atomic number  6 and mass  12.00000
 Atom     2 has atomic number  6 and mass  12.00000
 Atom     3 has atomic number  6 and mass  12.00000
 Atom     4 has atomic number  6 and mass  12.00000
 Atom     5 has atomic number  6 and mass  12.00000
 Atom     6 has atomic number  6 and mass  12.00000
 Atom     7 has atomic number  1 and mass   1.00783
 Atom     8 has atomic number  1 and mass   1.00783
 Atom     9 has atomic number  1 and mass   1.00783
 Atom    10 has atomic number  1 and mass   1.00783
 Atom    11 has atomic number  1 and mass   1.00783
 Atom    12 has atomic number  1 and mass   1.00783
 Molecular mass:    78.04695 amu.
 Principal axes and moments of inertia in atomic units:
                           1         2         3
     Eigenvalues --   318.21950 318.22228 636.44178
           X            0.99983  -0.01853   0.00000
           Y            0.01853   0.99983  -0.00000
           Z           -0.00000   0.00000   1.00000
 This molecule is an asymmetric top.
 Rotational symmetry number  1.
 Rotational temperatures (Kelvin)      0.27218     0.27218     0.13609
 Rotational constants (GHZ):           5.67137     5.67132     2.83567
 Zero-point vibrational energy     263990.3 (Joules/Mol)
                                   63.09521 (Kcal/Mol)
 Warning -- explicit consideration of   4 degrees of freedom as
           vibrations may cause significant error
 Vibrational temperatures:    593.37   593.47   892.67   892.70   992.24
          (Kelvin)           1024.55  1242.46  1242.57  1411.55  1411.67
                             1458.52  1459.30  1466.02  1531.01  1531.05
                             1703.10  1733.32  1733.35  1948.51  1993.65
                             2190.85  2190.88  2367.15  2367.18  4563.09
                             4576.99  4577.07  4599.55  4599.63  4614.01
 
 Zero-point correction=                           0.100549 (Hartree/Particle)
 Thermal correction to Energy=                    0.104945
 Thermal correction to Enthalpy=                  0.105890
 Thermal correction to Gibbs Free Energy=         0.073077
 Sum of electronic and zero-point Energies=           -232.158373
 Sum of electronic and thermal Energies=              -232.153977
 Sum of electronic and thermal Enthalpies=            -232.153032
 Sum of electronic and thermal Free Energies=         -232.185845
 
                     E (Thermal)             CV                S
                      KCal/Mol        Cal/Mol-Kelvin    Cal/Mol-Kelvin
 Total                   65.854             17.169             69.059
 Electronic               0.000              0.000              0.000
 Translational            0.889              2.981             38.979
 Rotational               0.889              2.981             25.669
 Vibrational             64.077             11.207              4.411
 Vibration     1          0.776              1.443              0.918
 Vibration     2          0.776              1.443              0.918
 Vibration     3          0.980              0.989              0.416
 Vibration     4          0.981              0.989              0.416
                       Q            Log10(Q)             Ln(Q)
 Total Bot       0.243677D-33        -33.613185        -77.397219
 Total V=0       0.432439D+13         12.635925         29.095292
 Vib (Bot)       0.989403D-46        -46.004627       -105.929568
 Vib (Bot)    1  0.428215D+00         -0.368338         -0.848130
 Vib (Bot)    2  0.428125D+00         -0.368429         -0.848340
 Vib (Bot)    3  0.235598D+00         -0.627828         -1.445629
 Vib (Bot)    4  0.235586D+00         -0.627851         -1.445680
 Vib (V=0)       0.175583D+01          0.244483          0.562943
 Vib (V=0)    1  0.115831D+01          0.063824          0.146959
 Vib (V=0)    2  0.115825D+01          0.063802          0.146909
 Vib (V=0)    3  0.105273D+01          0.022315          0.051383
 Vib (V=0)    4  0.105272D+01          0.022313          0.051378
 Electronic      0.100000D+01          0.000000          0.000000
 Translational   0.271012D+08          7.432988         17.115087
 Rotational      0.908769D+05          4.958454         11.417261
 
                                                       OPT FREQ benzene 6-31+G*
                                                             IR Spectrum
 
    3333                                                           1    1     11     11   111                                        
    2111                                                           6    5     33     21   000 9   8     76  6       4                
    0987                                                           4    2     85     08   611 8   6     19  2       1                
    7712                                                           5    3     64     54   494 1   4     20  0       2                
 
     X                                                                  X                 X              X                           
     X                                                                  X                 X              X                           
     X                                                                                                   X                           
     X                                                                                                   X                           
     X                                                                                                   X                           
     X                                                                                                   X                           
     X                                                                                                   X                           
     X                                                                                                   X                           
     X                                                                                                   X                           
     X                                                                                                   X                           
     X                                                                                                   X                           
     X                                                                                                   X                           
     X                                                                                                   X                           
     X                                                                                                   X                           
     X                                                                                                   X                           
     X                                                                                                   X                           
                                                                                                         X                           
                                                                                                         X                           
                                                                                                         X                           
                                                                                                         X                           
 
 ***** Axes restored to original set *****
 -------------------------------------------------------------------
 Center     Atomic                   Forces (Hartrees/Bohr)
 Number     Number              X              Y              Z
 -------------------------------------------------------------------
      1        6           0.000006303    0.000012705   -0.000000049
      2        6          -0.000003467    0.000014173   -0.000000051
      3        6          -0.000015163   -0.000002782    0.000000062
      4        6          -0.000006291   -0.000012696   -0.000000036
      5        6           0.000003447   -0.000014172    0.000000102
      6        6           0.000015167    0.000002759   -0.000000028
      7        1           0.000042612    0.000072379    0.000000007
      8        1          -0.000041405    0.000073039   -0.000000055
      9        1          -0.000083929    0.000000061   -0.000000039
     10        1          -0.000042609   -0.000072374    0.000000030
     11        1           0.000041405   -0.000073034    0.000000032
     12        1           0.000083930   -0.000000058    0.000000024
 -------------------------------------------------------------------
 Cartesian Forces:  Max     0.000083930 RMS     0.000034800
 Force constants in Cartesian coordinates: 
                1             2             3             4             5 
      1  0.683557D+00
      2  0.323891D-01  0.720959D+00
      3  0.147323D-03 -0.367272D-03  0.133448D+00
      4 -0.336354D+00 -0.317694D-01 -0.633788D-04  0.683563D+00
      5  0.318116D-01 -0.129148D+00  0.527529D-04 -0.324135D-01  0.720979D+00
      6 -0.104198D-03  0.333471D-04 -0.621104D-01  0.188800D-03 -0.387235D-03
      7 -0.262260D-01 -0.287610D-01  0.827531D-05 -0.180962D+00 -0.121514D+00
      8 -0.753765D-01  0.338986D-01 -0.401920D-04 -0.579291D-01 -0.284552D+00
      9  0.382126D-04 -0.259617D-04  0.715323D-02  0.000000D+00  0.105795D-03
     10 -0.508065D-01  0.285795D-01 -0.317921D-04  0.639547D-01  0.233047D-01
     11  0.285795D-01 -0.178291D-01  0.158194D-04 -0.233131D-01 -0.562697D-01
     12 -0.317957D-04  0.158156D-04 -0.679960D-02  0.323245D-04  0.478546D-04
     13  0.639547D-01 -0.233131D-01  0.323294D-04 -0.508185D-01 -0.285754D-01
     14  0.233047D-01 -0.562697D-01  0.478508D-04 -0.285754D-01 -0.178213D-01
     15  0.238136D-05  0.336045D-04  0.714648D-02  0.490512D-05 -0.164899D-05
     16 -0.180939D+00  0.121503D+00 -0.114340D-03 -0.262108D-01  0.287656D-01
     17  0.579187D-01 -0.284578D+00  0.160555D-03  0.753809D-01  0.338864D-01
     18 -0.734934D-04  0.179995D-03 -0.621084D-01 -0.586123D-04 -0.838464D-05
     19 -0.129479D+00 -0.120048D+00  0.486143D-04 -0.107444D-01 -0.294527D-01
     20 -0.120046D+00 -0.268055D+00  0.111911D-03  0.194671D-02  0.377281D-02
     21  0.486018D-04  0.111886D-03 -0.364903D-01 -0.545873D-05 -0.945190D-05
     22 -0.107406D-01  0.294539D-01 -0.231285D-04 -0.129460D+00  0.120038D+00
     23 -0.194592D-02  0.377056D-02 -0.105179D-05  0.120037D+00 -0.268100D+00
     24 -0.295875D-05  0.853596D-05  0.305864D-02 -0.105475D-03  0.185370D-03
     25  0.694048D-03 -0.327565D-02  0.000000D+00 -0.117685D-01  0.254007D-02
     26 -0.205996D-02 -0.476637D-02  0.701632D-05 -0.288600D-01  0.479952D-02
     27  0.000000D+00  0.664971D-05  0.713768D-02  0.140196D-04  0.000000D+00
     28 -0.803665D-03  0.870723D-03  0.000000D+00 -0.109051D-02  0.309052D-02
     29  0.869916D-03  0.201906D-03  0.000000D+00  0.430600D-02 -0.298203D-02
     30  0.000000D+00  0.000000D+00 -0.633043D-03 -0.528071D-05  0.744212D-05
     31 -0.109098D-02 -0.309145D-02  0.000000D+00 -0.803315D-03 -0.870183D-03
     32 -0.430696D-02 -0.298043D-02  0.518020D-05 -0.869967D-03  0.201312D-03
     33  0.000000D+00  0.555525D-05  0.713797D-02  0.000000D+00  0.000000D+00
     34 -0.117659D-01 -0.253818D-02 -0.289864D-05  0.694122D-03  0.327595D-02
     35  0.288621D-01  0.479634D-02  0.770066D-05  0.205953D-02 -0.476666D-02
     36 -0.230745D-04 -0.188374D-05  0.306002D-02 -0.328629D-05  0.864700D-05
                6             7             8             9            10 
      6  0.133470D+00
      7  0.417753D-04  0.739667D+00
      8  0.125210D-03 -0.172029D-05  0.664897D+00
      9 -0.621161D-01  0.185193D-03 -0.341358D-03  0.133458D+00
     10  0.237467D-05 -0.180939D+00  0.579187D-01 -0.734910D-04  0.683557D+00
     11  0.336050D-04  0.121504D+00 -0.284578D+00  0.179979D-03  0.323891D-01
     12  0.714648D-02 -0.114329D-03  0.160545D-03 -0.621084D-01  0.147248D-03
     13  0.491357D-05 -0.262108D-01  0.753809D-01 -0.586085D-04 -0.336354D+00
     14 -0.164752D-05  0.287656D-01  0.338864D-01 -0.836949D-05  0.318116D-01
     15 -0.680432D-02 -0.286514D-04  0.585995D-05  0.715514D-02 -0.104216D-03
     16 -0.286628D-04 -0.133354D-02 -0.610189D-05  0.167828D-05 -0.262260D-01
     17  0.584947D-05 -0.610626D-05 -0.673123D-01  0.388540D-04 -0.753765D-01
     18  0.715515D-02  0.167625D-05  0.388633D-04 -0.680915D-02  0.382167D-04
     19  0.146910D-04 -0.571165D-02  0.163817D-02 -0.498079D-05 -0.803666D-03
     20  0.000000D+00  0.422786D-03  0.163900D-02  0.365666D-05  0.869915D-03
     21  0.305882D-02 -0.419345D-05  0.403056D-05  0.713802D-02  0.000000D+00
     22 -0.105470D-03  0.120541D-01 -0.151084D-01  0.124486D-04 -0.109098D-02
     23  0.185384D-03  0.162908D-01 -0.190251D-01  0.191563D-04 -0.430696D-02
     24 -0.365002D-01 -0.771694D-05  0.958397D-05  0.305996D-02  0.000000D+00
     25 -0.616263D-05 -0.337383D+00  0.155347D-04 -0.919687D-04 -0.117659D-01
     26 -0.993665D-05  0.155719D-04 -0.601612D-01  0.152077D-04  0.288621D-01
     27  0.305794D-02 -0.919878D-04  0.152022D-04 -0.364938D-01 -0.230632D-04
     28 -0.449822D-05  0.120546D-01  0.151067D-01 -0.695502D-05 -0.129479D+00
     29  0.781288D-05 -0.162934D-01 -0.190257D-01  0.920814D-05 -0.120046D+00
     30  0.713778D-02  0.132096D-04  0.187975D-04  0.305860D-02  0.486952D-04
     31  0.000000D+00 -0.571252D-02 -0.163809D-02 -0.287286D-05 -0.107406D-01
     32  0.000000D+00 -0.421639D-03  0.163913D-02  0.340043D-05 -0.194592D-02
     33 -0.633014D-03 -0.365723D-05  0.303047D-05  0.713767D-02 -0.297110D-05
     34 -0.407071D-05  0.703314D-03  0.000000D+00  0.000000D+00  0.694048D-03
     35  0.827526D-05  0.000000D+00 -0.130575D-02  0.000000D+00 -0.205996D-02
     36  0.713801D-02  0.000000D+00  0.000000D+00 -0.633270D-03  0.000000D+00
               11            12            13            14            15 
     11  0.720959D+00
     12 -0.367405D-03  0.133448D+00
     13 -0.317694D-01 -0.633976D-04  0.683563D+00
     14 -0.129148D+00  0.527580D-04 -0.324135D-01  0.720979D+00
     15  0.333410D-04 -0.621104D-01  0.188753D-03 -0.387155D-03  0.133470D+00
     16 -0.287610D-01  0.828330D-05 -0.180962D+00 -0.121514D+00  0.417776D-04
     17  0.338986D-01 -0.401965D-04 -0.579291D-01 -0.284552D+00  0.125213D-03
     18 -0.259701D-04  0.715323D-02  0.000000D+00  0.105798D-03 -0.621161D-01
     19  0.870722D-03  0.000000D+00 -0.109051D-02  0.309052D-02 -0.449980D-05
     20  0.201903D-03  0.000000D+00  0.430600D-02 -0.298202D-02  0.780856D-05
     21  0.000000D+00 -0.633043D-03 -0.528331D-05  0.744386D-05  0.713778D-02
     22 -0.309145D-02  0.000000D+00 -0.803315D-03 -0.870182D-03  0.000000D+00
     23 -0.298043D-02  0.518403D-05 -0.869966D-03  0.201310D-03  0.000000D+00
     24  0.555261D-05  0.713797D-02  0.000000D+00  0.000000D+00 -0.633014D-03
     25 -0.253818D-02 -0.290112D-05  0.694121D-03  0.327595D-02 -0.407197D-05
     26  0.479634D-02  0.770615D-05  0.205953D-02 -0.476665D-02  0.827338D-05
     27 -0.188980D-05  0.306002D-02 -0.328836D-05  0.864575D-05  0.713801D-02
     28 -0.120048D+00  0.486891D-04 -0.107444D-01 -0.294527D-01  0.147011D-04
     29 -0.268055D+00  0.112041D-03  0.194671D-02  0.377282D-02  0.000000D+00
     30  0.112046D-03 -0.364903D-01 -0.547036D-05 -0.945977D-05  0.305882D-02
     31  0.294538D-01 -0.231209D-04 -0.129460D+00  0.120038D+00 -0.105425D-03
     32  0.377056D-02 -0.105125D-05  0.120037D+00 -0.268100D+00  0.185304D-03
     33  0.854374D-05  0.305864D-02 -0.105412D-03  0.185276D-03 -0.365002D-01
     34 -0.327565D-02  0.000000D+00 -0.117685D-01  0.254007D-02 -0.616089D-05
     35 -0.476637D-02  0.701861D-05 -0.288600D-01  0.479952D-02 -0.993457D-05
     36  0.664852D-05  0.713768D-02  0.140214D-04  0.000000D+00  0.305794D-02
               16            17            18            19            20 
     16  0.739667D+00
     17 -0.170773D-05  0.664897D+00
     18  0.185125D-03 -0.341359D-03  0.133458D+00
     19  0.120546D-01  0.151067D-01 -0.695013D-05  0.133887D+00
     20 -0.162934D-01 -0.190257D-01  0.919978D-05  0.129672D+00  0.283574D+00
     21  0.132104D-04  0.188099D-04  0.305860D-02 -0.500726D-04 -0.126015D-03
     22 -0.571252D-02 -0.163809D-02 -0.287257D-05  0.105359D-02 -0.384245D-03
     23 -0.421641D-03  0.163913D-02  0.340304D-05  0.384339D-03  0.865283D-03
     24 -0.365648D-05  0.303308D-05  0.713767D-02  0.129311D-05 -0.322808D-05
     25  0.703315D-03  0.000000D+00  0.000000D+00 -0.690211D-03  0.190978D-03
     26  0.000000D+00 -0.130575D-02  0.000000D+00 -0.152710D-02  0.814242D-04
     27  0.000000D+00  0.000000D+00 -0.633270D-03  0.000000D+00  0.000000D+00
     28 -0.571165D-02  0.163817D-02 -0.497840D-05  0.145229D-03 -0.127735D-03
     29  0.422784D-03  0.163900D-02  0.366030D-05 -0.127735D-03 -0.223709D-05
     30 -0.419607D-05  0.403227D-05  0.713802D-02  0.000000D+00  0.000000D+00
     31  0.120541D-01 -0.151084D-01  0.124466D-04  0.467052D-03 -0.859126D-03
     32  0.162908D-01 -0.190251D-01  0.191521D-04  0.859032D-03 -0.107581D-02
     33 -0.771743D-05  0.958520D-05  0.305995D-02  0.000000D+00  0.000000D+00
     34 -0.337383D+00  0.155359D-04 -0.919039D-04  0.912263D-03  0.302755D-03
     35  0.155676D-04 -0.601612D-01  0.152099D-04 -0.465710D-03  0.100615D-02
     36 -0.919085D-04  0.151936D-04 -0.364938D-01  0.179544D-05 -0.310769D-05
               21            22            23            24            25 
     21  0.254566D-01
     22  0.178443D-05  0.133866D+00
     23 -0.299589D-05 -0.129661D+00  0.283620D+00
     24 -0.398260D-02  0.116363D-03 -0.205376D-03  0.254657D-01
     25  0.000000D+00  0.912071D-03 -0.303081D-03  0.169050D-05  0.358458D+00
     26  0.000000D+00  0.465573D-03  0.100604D-02 -0.306119D-05 -0.173095D-04
     27  0.243733D-03  0.119509D-05 -0.329568D-05 -0.398151D-02  0.101783D-03
     28  0.000000D+00  0.467052D-03  0.859032D-03  0.000000D+00  0.912263D-03
     29  0.000000D+00 -0.859126D-03 -0.107581D-02  0.000000D+00  0.302755D-03
     30 -0.125009D-02  0.000000D+00  0.111015D-05  0.243698D-03  0.130081D-05
     31  0.000000D+00  0.145245D-03  0.127674D-03  0.000000D+00 -0.690002D-03
     32  0.111071D-05  0.127674D-03 -0.220298D-05  0.000000D+00 -0.190960D-03
     33  0.243698D-03  0.000000D+00  0.000000D+00 -0.125004D-02  0.000000D+00
     34  0.129996D-05 -0.690002D-03 -0.190960D-03  0.000000D+00 -0.759767D-04
     35 -0.334582D-05  0.152719D-02  0.812471D-04  0.000000D+00  0.000000D+00
     36 -0.398120D-02 -0.126574D-05  0.000000D+00  0.243800D-03  0.000000D+00
               26            27            28            29            30 
     26  0.590103D-01
     27 -0.215579D-04  0.254586D-01
     28 -0.465710D-03  0.179427D-05  0.133887D+00
     29  0.100615D-02 -0.311020D-05  0.129672D+00  0.283574D+00
     30 -0.334564D-05 -0.398120D-02 -0.501534D-04 -0.126155D-03  0.254566D-01
     31  0.152719D-02 -0.126622D-05  0.105359D-02 -0.384245D-03  0.178384D-05
     32  0.812471D-04  0.000000D+00  0.384339D-03  0.865283D-03 -0.299464D-05
     33  0.000000D+00  0.243800D-03  0.129163D-05 -0.323032D-05 -0.398260D-02
     34  0.000000D+00  0.000000D+00 -0.690211D-03  0.190978D-03  0.000000D+00
     35  0.218981D-03  0.000000D+00 -0.152710D-02  0.814243D-04  0.000000D+00
     36  0.000000D+00 -0.125006D-02  0.000000D+00  0.000000D+00  0.243733D-03
               31            32            33            34            35 
     31  0.133866D+00
     32 -0.129661D+00  0.283620D+00
     33  0.116315D-03 -0.205290D-03  0.254657D-01
     34  0.912071D-03 -0.303081D-03  0.168900D-05  0.358458D+00
     35  0.465573D-03  0.100604D-02 -0.306153D-05 -0.173106D-04  0.590103D-01
     36  0.119439D-05 -0.329383D-05 -0.398151D-02  0.101713D-03 -0.215597D-04
               36 
     36  0.254586D-01
 FormGI is forming the generalized inverse of G from B-inverse, IUseBI=4.
 Leave Link  716 at Wed Mar 18 10:01:56 2026, MaxMem=   104857600 cpu:               0.0 elap:               0.0
 (Enter /sw/cluster/pub/apps//g16/l103.exe)

 GradGradGradGradGradGradGradGradGradGradGradGradGradGradGradGradGradGrad
 Berny optimization.
 Red2BG is reusing G-inverse.
 Internal  Forces:  Max     0.000101563 RMS     0.000043122
 Search for a local minimum.
 Step number   1 out of a maximum of    2
 All quantities printed in internal units (Hartrees-Bohrs-Radians)
 Second derivative matrix not updated -- analytic derivatives used.
 ITU=  0
     Eigenvalues ---    0.01704   0.01704   0.01822   0.02370   0.02370
     Eigenvalues ---    0.02643   0.02853   0.02868   0.02869   0.10896
     Eigenvalues ---    0.11409   0.11409   0.12213   0.12843   0.12844
     Eigenvalues ---    0.19416   0.19552   0.19553   0.28727   0.35618
     Eigenvalues ---    0.35619   0.35951   0.35963   0.35964   0.36146
     Eigenvalues ---    0.41386   0.41390   0.46840   0.46841   0.50915
 Angle between quadratic step and forces=   9.83 degrees.
 Linear search not attempted -- first point.
 Iteration  1 RMS(Cart)=  0.00015223 RMS(Int)=  0.00000000
 Iteration  2 RMS(Cart)=  0.00000000 RMS(Int)=  0.00000000
 ITry= 1 IFail=0 DXMaxC= 4.14D-04 DCOld= 1.00D+10 DXMaxT= 3.00D-01 DXLimC= 3.00D+00 Rises=F
 Variable       Old X    -DE/DX   Delta X   Delta X   Delta X     New X
                                 (Linear)    (Quad)   (Total)
    R1        2.64307  -0.00010   0.00000  -0.00018  -0.00018   2.64288
    R2        2.64306  -0.00010   0.00000  -0.00019  -0.00019   2.64288
    R3        2.05491  -0.00008   0.00000  -0.00023  -0.00023   2.05469
    R4        2.64308  -0.00010   0.00000  -0.00020  -0.00020   2.64288
    R5        2.05492  -0.00008   0.00000  -0.00023  -0.00023   2.05469
    R6        2.64306  -0.00010   0.00000  -0.00019  -0.00019   2.64288
    R7        2.05492  -0.00008   0.00000  -0.00023  -0.00023   2.05469
    R8        2.64307  -0.00010   0.00000  -0.00018  -0.00018   2.64288
    R9        2.05491  -0.00008   0.00000  -0.00023  -0.00023   2.05469
   R10        2.64308  -0.00010   0.00000  -0.00020  -0.00020   2.64288
   R11        2.05492  -0.00008   0.00000  -0.00023  -0.00023   2.05469
   R12        2.05492  -0.00008   0.00000  -0.00023  -0.00023   2.05469
    A1        2.09440   0.00000   0.00000   0.00000   0.00000   2.09440
    A2        2.09440  -0.00000   0.00000  -0.00000  -0.00000   2.09440
    A3        2.09439  -0.00000   0.00000   0.00000   0.00000   2.09439
    A4        2.09440  -0.00000   0.00000  -0.00000  -0.00000   2.09440
    A5        2.09439   0.00000   0.00000   0.00000   0.00000   2.09439
    A6        2.09440   0.00000   0.00000   0.00000   0.00000   2.09440
    A7        2.09439  -0.00000   0.00000  -0.00000  -0.00000   2.09439
    A8        2.09440  -0.00000   0.00000  -0.00000  -0.00000   2.09440
    A9        2.09440   0.00000   0.00000   0.00000   0.00000   2.09440
   A10        2.09440   0.00000   0.00000   0.00000   0.00000   2.09440
   A11        2.09439  -0.00000   0.00000   0.00000   0.00000   2.09439
   A12        2.09440  -0.00000   0.00000  -0.00000  -0.00000   2.09440
   A13        2.09440  -0.00000   0.00000  -0.00000  -0.00000   2.09440
   A14        2.09439   0.00000   0.00000   0.00000   0.00000   2.09439
   A15        2.09440   0.00000   0.00000   0.00000   0.00000   2.09440
   A16        2.09439  -0.00000   0.00000  -0.00000  -0.00000   2.09439
   A17        2.09440   0.00000   0.00000   0.00000   0.00000   2.09440
   A18        2.09440  -0.00000   0.00000  -0.00000  -0.00000   2.09440
    D1       -0.00000   0.00000   0.00000   0.00000   0.00000  -0.00000
    D2       -3.14159  -0.00000   0.00000  -0.00000  -0.00000   3.14159
    D3        3.14159   0.00000   0.00000   0.00000   0.00000   3.14159
    D4       -0.00000   0.00000   0.00000   0.00000   0.00000   0.00000
    D5        0.00000  -0.00000   0.00000  -0.00000  -0.00000   0.00000
    D6       -3.14159   0.00000   0.00000  -0.00000  -0.00000   3.14159
    D7       -3.14159  -0.00000   0.00000  -0.00000  -0.00000   3.14159
    D8        0.00000  -0.00000   0.00000  -0.00000  -0.00000   0.00000
    D9        0.00000  -0.00000   0.00000  -0.00000  -0.00000   0.00000
   D10        3.14159   0.00000   0.00000   0.00000   0.00000   3.14159
   D11        3.14159   0.00000   0.00000   0.00000   0.00000   3.14159
   D12       -0.00000   0.00000   0.00000   0.00000   0.00000  -0.00000
   D13       -0.00000   0.00000   0.00000   0.00000   0.00000   0.00000
   D14        3.14159   0.00000   0.00000   0.00000   0.00000   3.14159
   D15       -3.14159   0.00000   0.00000  -0.00000  -0.00000  -3.14159
   D16        0.00000  -0.00000   0.00000  -0.00000  -0.00000   0.00000
   D17        0.00000  -0.00000   0.00000  -0.00000  -0.00000  -0.00000
   D18        3.14159   0.00000   0.00000   0.00000   0.00000   3.14159
   D19       -3.14159  -0.00000   0.00000  -0.00000  -0.00000   3.14159
   D20       -0.00000   0.00000   0.00000   0.00000   0.00000   0.00000
   D21       -0.00000   0.00000   0.00000   0.00000   0.00000   0.00000
   D22        3.14159   0.00000   0.00000   0.00000   0.00000   3.14159
   D23       -3.14159  -0.00000   0.00000  -0.00000  -0.00000  -3.14159
   D24        0.00000  -0.00000   0.00000  -0.00000  -0.00000   0.00000
         Item               Value     Threshold  Converged?
 Maximum Force            0.000102     0.000450     YES
 RMS     Force            0.000043     0.000300     YES
 Maximum Displacement     0.000414     0.001800     YES
 RMS     Displacement     0.000152     0.001200     YES
 Predicted change in Energy=-1.129437D-07
 Optimization completed.
    -- Stationary point found.
                           ----------------------------
                           !   Optimized Parameters   !
                           ! (Angstroms and Degrees)  !
 --------------------------                            --------------------------
 ! Name  Definition              Value          Derivative Info.                !
 --------------------------------------------------------------------------------
 ! R1    R(1,2)                  1.3987         -DE/DX =   -0.0001              !
 ! R2    R(1,6)                  1.3986         -DE/DX =   -0.0001              !
 ! R3    R(1,7)                  1.0874         -DE/DX =   -0.0001              !
 ! R4    R(2,3)                  1.3987         -DE/DX =   -0.0001              !
 ! R5    R(2,8)                  1.0874         -DE/DX =   -0.0001              !
 ! R6    R(3,4)                  1.3986         -DE/DX =   -0.0001              !
 ! R7    R(3,9)                  1.0874         -DE/DX =   -0.0001              !
 ! R8    R(4,5)                  1.3987         -DE/DX =   -0.0001              !
 ! R9    R(4,10)                 1.0874         -DE/DX =   -0.0001              !
 ! R10   R(5,6)                  1.3987         -DE/DX =   -0.0001              !
 ! R11   R(5,11)                 1.0874         -DE/DX =   -0.0001              !
 ! R12   R(6,12)                 1.0874         -DE/DX =   -0.0001              !
 ! A1    A(2,1,6)              120.0            -DE/DX =    0.0                 !
 ! A2    A(2,1,7)              120.0003         -DE/DX =    0.0                 !
 ! A3    A(6,1,7)              119.9997         -DE/DX =    0.0                 !
 ! A4    A(1,2,3)              120.0002         -DE/DX =    0.0                 !
 ! A5    A(1,2,8)              119.9996         -DE/DX =    0.0                 !
 ! A6    A(3,2,8)              120.0002         -DE/DX =    0.0                 !
 ! A7    A(2,3,4)              119.9997         -DE/DX =    0.0                 !
 ! A8    A(2,3,9)              120.0001         -DE/DX =    0.0                 !
 ! A9    A(4,3,9)              120.0002         -DE/DX =    0.0                 !
 ! A10   A(3,4,5)              120.0            -DE/DX =    0.0                 !
 ! A11   A(3,4,10)             119.9997         -DE/DX =    0.0                 !
 ! A12   A(5,4,10)             120.0003         -DE/DX =    0.0                 !
 ! A13   A(4,5,6)              120.0002         -DE/DX =    0.0                 !
 ! A14   A(4,5,11)             119.9996         -DE/DX =    0.0                 !
 ! A15   A(6,5,11)             120.0002         -DE/DX =    0.0                 !
 ! A16   A(1,6,5)              119.9997         -DE/DX =    0.0                 !
 ! A17   A(1,6,12)             120.0002         -DE/DX =    0.0                 !
 ! A18   A(5,6,12)             120.0001         -DE/DX =    0.0                 !
 ! D1    D(6,1,2,3)              0.0            -DE/DX =    0.0                 !
 ! D2    D(6,1,2,8)            180.0            -DE/DX =    0.0                 !
 ! D3    D(7,1,2,3)            179.9999         -DE/DX =    0.0                 !
 ! D4    D(7,1,2,8)              0.0            -DE/DX =    0.0                 !
 ! D5    D(2,1,6,5)              0.0            -DE/DX =    0.0                 !
 ! D6    D(2,1,6,12)           180.0            -DE/DX =    0.0                 !
 ! D7    D(7,1,6,5)            180.0001         -DE/DX =    0.0                 !
 ! D8    D(7,1,6,12)             0.0            -DE/DX =    0.0                 !
 ! D9    D(1,2,3,4)              0.0            -DE/DX =    0.0                 !
 ! D10   D(1,2,3,9)            180.0            -DE/DX =    0.0                 !
 ! D11   D(8,2,3,4)            180.0            -DE/DX =    0.0                 !
 ! D12   D(8,2,3,9)              0.0            -DE/DX =    0.0                 !
 ! D13   D(2,3,4,5)              0.0            -DE/DX =    0.0                 !
 ! D14   D(2,3,4,10)           180.0            -DE/DX =    0.0                 !
 ! D15   D(9,3,4,5)           -180.0            -DE/DX =    0.0                 !
 ! D16   D(9,3,4,10)             0.0            -DE/DX =    0.0                 !
 ! D17   D(3,4,5,6)              0.0            -DE/DX =    0.0                 !
 ! D18   D(3,4,5,11)           180.0            -DE/DX =    0.0                 !
 ! D19   D(10,4,5,6)           180.0            -DE/DX =    0.0                 !
 ! D20   D(10,4,5,11)            0.0            -DE/DX =    0.0                 !
 ! D21   D(4,5,6,1)              0.0            -DE/DX =    0.0                 !
 ! D22   D(4,5,6,12)           180.0            -DE/DX =    0.0                 !
 ! D23   D(11,5,6,1)          -180.0            -DE/DX =    0.0                 !
 ! D24   D(11,5,6,12)            0.0            -DE/DX =    0.0                 !
 --------------------------------------------------------------------------------
 GradGradGradGradGradGradGradGradGradGradGradGradGradGradGradGradGradGrad

 Leave Link  103 at Wed Mar 18 10:01:56 2026, MaxMem=   104857600 cpu:               0.0 elap:               0.0
 (Enter /sw/cluster/pub/apps//g16/l9999.exe)

 ----------------------------------------------------------------------

 Electric dipole moment (input orientation):
 (Debye = 10**-18 statcoulomb cm , SI units = C m)
                  (au)            (Debye)         (10**-30 SI)
   Tot        0.000000D+00      0.000000D+00      0.000000D+00
   x          0.000000D+00      0.000000D+00      0.000000D+00
   y          0.000000D+00      0.000000D+00      0.000000D+00
   z          0.000000D+00      0.000000D+00      0.000000D+00

 Dipole polarizability, Alpha (input orientation).
 (esu units = cm**3 , SI units = C**2 m**2 J**-1)
 Alpha(0;0):
               (au)            (10**-24 esu)      (10**-40 SI)
   iso        0.660940D+02      0.979411D+01      0.108974D+02
   aniso      0.376332D+02      0.557667D+01      0.620488D+01
   xx         0.786381D+02      0.116530D+02      0.129657D+02
   yx         0.184293D-03      0.273095D-04      0.303859D-04
   yy         0.786386D+02      0.116530D+02      0.129658D+02
   zx         0.114929D-01      0.170307D-02      0.189493D-02
   zy        -0.241740D-01     -0.358221D-02     -0.398575D-02
   zz         0.410052D+02      0.607634D+01      0.676084D+01

 ----------------------------------------------------------------------

 Dipole orientation:
     6         -0.73079890          0.66988609         -0.06912343
     6          1.76175904          0.06758369         -0.70958725
     6          2.48552064         -0.03564739         -3.24954364
     6          0.71671160          0.46342762         -5.14902495
     6         -1.77584643          1.06572968         -4.50856114
     6         -2.49960802          1.16896081         -1.96860475
     1         -1.29350276          0.75014361          1.90561638
     1          3.13695111         -0.32043187          0.76722332
     1          4.42341979         -0.50392163         -3.74748152
     1          1.27941517          0.38316896         -7.12376478
     1         -3.15103832          1.45374592         -5.98537168
     1         -4.43750705          1.63723553         -1.47066685

 Electric dipole moment (dipole orientation):
 (Debye = 10**-18 statcoulomb cm , SI units = C m)
                  (au)            (Debye)         (10**-30 SI)
   Tot        0.000000D+00      0.000000D+00      0.000000D+00
   x          0.000000D+00      0.000000D+00      0.000000D+00
   y          0.000000D+00      0.000000D+00      0.000000D+00
   z          0.000000D+00      0.000000D+00      0.000000D+00

 Dipole polarizability, Alpha (dipole orientation).
 (esu units = cm**3 , SI units = C**2 m**2 J**-1)
 Alpha(0;0):
               (au)            (10**-24 esu)      (10**-40 SI)
   iso        0.660940D+02      0.979411D+01      0.108974D+02
   aniso      0.376332D+02      0.557667D+01      0.620488D+01
   xx         0.764352D+02      0.113265D+02      0.126025D+02
   yx        -0.883028D+01     -0.130851D+01     -0.145592D+01
   yy         0.432408D+02      0.640762D+01      0.712944D+01
   zx        -0.268836D+00     -0.398373D-01     -0.443250D-01
   zy        -0.107756D+01     -0.159679D+00     -0.177666D+00
   zz         0.786059D+02      0.116482D+02      0.129604D+02

 ----------------------------------------------------------------------
 1\1\GINC-N07\Freq\RB3LYP\6-31+G(d)\C6H6\UNKNOWN\18-Mar-2026\0\\#P Geom
 =AllCheck Guess=TCheck SCRF=Check GenChk RB3LYP/6-31+G(d) Freq\\OPT FR
 EQ benzene 6-31+G*\\0,1\C,-0.4366860834,0.1545868567,0.248922124\C,0.9
 619650782,0.154520301,0.2493493733\C,1.6613566681,1.3657563667,0.24878
 47681\C,0.962088872,2.5770549045,0.2477933564\C,-0.4365622861,2.577121
 4605,0.2473659219\C,-1.1359538787,1.3658853973,0.2479305547\H,-0.98044
 23256,-0.7871127591,0.2493601768\H,1.5056201593,-0.7872381804,0.250120
 1464\H,2.7487708498,1.3657014901,0.2491171743\H,1.5058451138,3.5187545
 186,0.2473546892\H,-0.9802173667,3.5188799415,0.246595523\H,-2.2233680
 608,1.3659402727,0.2475984118\\Version=ES64L-G16RevA.03\State=1-A\HF=-
 232.258922\RMSD=1.109e-09\RMSF=3.480e-05\ZeroPoint=0.1005486\Thermal=0
 .1049454\Dipole=0.,-0.0000002,0.\DipoleDeriv=-0.0061102,0.0656856,-0.0
 000006,0.0657087,0.0697039,-0.0001157,-0.0000004,-0.0001154,-0.1418915
 ,-0.00619,-0.0657024,0.0000836,-0.0656915,0.0696353,-0.0001559,0.00008
 34,-0.0001559,-0.1418809,0.1076356,0.0000259,0.0000762,-0.0000241,-0.0
 440023,-0.0000629,0.0000766,-0.0000629,-0.1419251,-0.0061103,0.0656856
 ,-0.0000007,0.0657086,0.0697037,-0.0001158,-0.0000008,-0.000116,-0.141
 8914,-0.00619,-0.0657025,0.0000836,-0.0656914,0.0696351,-0.0001559,0.0
 000833,-0.0001555,-0.1418809,0.1076356,0.0000259,0.0000762,-0.0000239,
 -0.0440023,-0.000063,0.0000763,-0.0000631,-0.1419251,0.0154559,-0.0818
 419,0.0000139,-0.0818385,-0.0790152,0.0001168,0.0000138,0.0001166,0.14
 18814,0.0154843,0.0818277,-0.0000912,0.0818295,-0.079041,0.0001669,-0.
 0000911,0.0001668,0.1418994,-0.1262756,0.0000051,-0.0000819,0.0000157,
 0.0627193,0.0000509,-0.0000821,0.0000509,0.1419168,0.0154559,-0.081841
 9,0.0000139,-0.0818384,-0.0790151,0.0001169,0.000014,0.0001169,0.14188
 13,0.0154843,0.0818276,-0.0000912,0.0818295,-0.0790409,0.0001669,-0.00
 0091,0.0001666,0.1418994,-0.1262756,0.0000051,-0.0000819,0.0000157,0.0
 627193,0.0000509,-0.000082,0.0000509,0.1419168\Polar=78.6380745,0.0001
 843,78.638628,0.0114929,-0.024174,41.0051689\Quadrupole=2.0415595,2.04
 14983,-4.0830579,0.0000463,0.001871,-0.0039317\PG=C01 [X(C6H6)]\NImag=
 0\\0.68355702,0.03238915,0.72095943,0.00014732,-0.00036727,0.13344776,
 -0.33635398,-0.03176936,-0.00006338,0.68356321,0.03181163,-0.12914812,
 0.00005275,-0.03241349,0.72097890,-0.00010420,0.00003335,-0.06211042,0
 .00018880,-0.00038723,0.13346994,-0.02622603,-0.02876102,0.00000828,-0
 .18096167,-0.12151445,0.00004178,0.73966670,-0.07537647,0.03389856,-0.
 00004019,-0.05792914,-0.28455165,0.00012521,-0.00000172,0.66489659,0.0
 0003821,-0.00002596,0.00715323,0.00000094,0.00010580,-0.06211613,0.000
 18519,-0.00034136,0.13345809,-0.05080648,0.02857948,-0.00003179,0.0639
 5473,0.02330466,0.00000237,-0.18093907,0.05791873,-0.00007349,0.683557
 04,0.02857948,-0.01782911,0.00001582,-0.02331312,-0.05626971,0.0000336
 1,0.12150351,-0.28457794,0.00017998,0.03238915,0.72095945,-0.00003180,
 0.00001582,-0.00679960,0.00003232,0.00004785,0.00714648,-0.00011433,0.
 00016054,-0.06210837,0.00014725,-0.00036741,0.13344774,0.06395473,-0.0
 2331312,0.00003233,-0.05081846,-0.02857544,0.00000491,-0.02621078,0.07
 538092,-0.00005861,-0.33635402,-0.03176937,-0.00006340,0.68356323,0.02
 330466,-0.05626971,0.00004785,-0.02857544,-0.01782126,-0.00000165,0.02
 876562,0.03388639,-0.00000837,0.03181164,-0.12914811,0.00005276,-0.032
 41349,0.72097891,0.00000238,0.00003360,0.00714648,0.00000491,-0.000001
 65,-0.00680432,-0.00002865,0.00000586,0.00715514,-0.00010422,0.0000333
 4,-0.06211041,0.00018875,-0.00038715,0.13346993,-0.18093907,0.12150349
 ,-0.00011434,-0.02621079,0.02876563,-0.00002866,-0.00133354,-0.0000061
 0,0.00000168,-0.02622602,-0.02876102,0.00000828,-0.18096166,-0.1215144
 5,0.00004178,0.73966669,0.05791872,-0.28457791,0.00016056,0.07538092,0
 .03388639,0.00000585,-0.00000611,-0.06731226,0.00003885,-0.07537647,0.
 03389857,-0.00004020,-0.05792914,-0.28455167,0.00012521,-0.00000171,0.
 66489658,-0.00007349,0.00017999,-0.06210837,-0.00005861,-0.00000838,0.
 00715515,0.00000168,0.00003886,-0.00680915,0.00003822,-0.00002597,0.00
 715323,0.00000094,0.00010580,-0.06211613,0.00018513,-0.00034136,0.1334
 5809,-0.12947909,-0.12004792,0.00004861,-0.01074444,-0.02945273,0.0000
 1469,-0.00571165,0.00163817,-0.00000498,-0.00080367,0.00087072,-0.0000
 0061,-0.00109051,0.00309052,-0.00000450,0.01205457,0.01510671,-0.00000
 695,0.13388687,-0.12004634,-0.26805513,0.00011191,0.00194671,0.0037728
 1,0.00000014,0.00042279,0.00163900,0.00000366,0.00086991,0.00020190,-0
 .00000027,0.00430600,-0.00298202,0.00000781,-0.01629340,-0.01902574,0.
 00000920,0.12967170,0.28357437,0.00004860,0.00011189,-0.03649035,-0.00
 000546,-0.00000945,0.00305882,-0.00000419,0.00000403,0.00713802,-0.000
 00061,-0.00000027,-0.00063304,-0.00000528,0.00000744,0.00713778,0.0000
 1321,0.00001881,0.00305860,-0.00005007,-0.00012601,0.02545664,-0.01074
 062,0.02945386,-0.00002313,-0.12946035,0.12003783,-0.00010547,0.012054
 06,-0.01510839,0.00001245,-0.00109098,-0.00309145,-0.00000053,-0.00080
 332,-0.00087018,0.00000051,-0.00571252,-0.00163809,-0.00000287,0.00105
 359,-0.00038425,0.00000178,0.13386578,-0.00194592,0.00377056,-0.000001
 05,0.12003734,-0.26809952,0.00018538,0.01629078,-0.01902512,0.00001916
 ,-0.00430696,-0.00298043,0.00000518,-0.00086997,0.00020131,-0.00000080
 ,-0.00042164,0.00163913,0.00000340,0.00038434,0.00086528,-0.00000300,-
 0.12966064,0.28361951,-0.00000296,0.00000854,0.00305864,-0.00010548,0.
 00018537,-0.03650023,-0.00000772,0.00000958,0.00305996,0.00000026,0.00
 000555,0.00713797,0.00000050,-0.00000081,-0.00063301,-0.00000366,0.000
 00303,0.00713767,0.00000129,-0.00000323,-0.00398260,0.00011636,-0.0002
 0538,0.02546566,0.00069405,-0.00327565,0.00000013,-0.01176854,0.002540
 07,-0.00000616,-0.33738340,0.00001553,-0.00009197,-0.01176587,-0.00253
 818,-0.00000290,0.00069412,0.00327595,-0.00000407,0.00070331,-0.000000
 15,0.00000041,-0.00069021,0.00019098,-0.00000041,0.00091207,-0.0003030
 8,0.00000169,0.35845818,-0.00205996,-0.00476637,0.00000702,-0.02885998
 ,0.00479952,-0.00000994,0.00001557,-0.06016123,0.00001521,0.02886209,0
 .00479634,0.00000771,0.00205953,-0.00476665,0.00000827,0.00000007,-0.0
 0130575,0.00000043,-0.00152710,0.00008142,-0.00000036,0.00046557,0.001
 00604,-0.00000306,-0.00001731,0.05901030,-0.00000065,0.00000665,0.0071
 3768,0.00001402,-0.00000034,0.00305794,-0.00009199,0.00001520,-0.03649
 379,-0.00002306,-0.00000189,0.00306002,-0.00000329,0.00000865,0.007138
 01,0.00000041,0.00000043,-0.00063327,0.00000070,0.00000016,0.00024373,
 0.00000120,-0.00000330,-0.00398151,0.00010178,-0.00002156,0.02545865,-
 0.00080366,0.00087072,-0.00000061,-0.00109051,0.00309052,-0.00000450,0
 .01205457,0.01510671,-0.00000696,-0.12947909,-0.12004793,0.00004869,-0
 .01074443,-0.02945272,0.00001470,-0.00571165,0.00163817,-0.00000498,0.
 00014523,-0.00012773,0.00000051,0.00046705,0.00085903,-0.00000048,0.00
 091226,-0.00046571,0.00000179,0.13388686,0.00086992,0.00020191,-0.0000
 0027,0.00430600,-0.00298203,0.00000781,-0.01629339,-0.01902573,0.00000
 921,-0.12004635,-0.26805515,0.00011204,0.00194671,0.00377282,0.0000001
 4,0.00042278,0.00163900,0.00000366,-0.00012773,-0.00000224,-0.00000084
 ,-0.00085913,-0.00107581,0.00000059,0.00030275,0.00100615,-0.00000311,
 0.12967170,0.28357436,-0.00000061,-0.00000027,-0.00063304,-0.00000528,
 0.00000744,0.00713778,0.00001321,0.00001880,0.00305860,0.00004870,0.00
 011205,-0.03649034,-0.00000547,-0.00000946,0.00305882,-0.00000420,0.00
 000403,0.00713802,0.00000051,-0.00000084,-0.00125009,0.00000062,0.0000
 0111,0.00024370,0.00000130,-0.00000335,-0.00398120,-0.00005015,-0.0001
 2616,0.02545664,-0.00109098,-0.00309145,-0.00000053,-0.00080331,-0.000
 87018,0.00000051,-0.00571252,-0.00163809,-0.00000287,-0.01074061,0.029
 45385,-0.00002312,-0.12946036,0.12003784,-0.00010543,0.01205406,-0.015
 10840,0.00001245,0.00046705,-0.00085913,0.00000062,0.00014525,0.000127
 67,0.00000034,-0.00069000,0.00152719,-0.00000127,0.00105359,-0.0003842
 5,0.00000178,0.13386578,-0.00430696,-0.00298043,0.00000518,-0.00086997
 ,0.00020131,-0.00000080,-0.00042164,0.00163913,0.00000340,-0.00194592,
 0.00377056,-0.00000105,0.12003734,-0.26809953,0.00018530,0.01629077,-0
 .01902511,0.00001915,0.00085903,-0.00107581,0.00000111,0.00012767,-0.0
 0000220,-0.00000076,-0.00019096,0.00008125,0.00000005,0.00038434,0.000
 86528,-0.00000299,-0.12966064,0.28361951,0.00000026,0.00000556,0.00713
 797,0.00000051,-0.00000080,-0.00063301,-0.00000366,0.00000303,0.007137
 67,-0.00000297,0.00000854,0.00305864,-0.00010541,0.00018528,-0.0365002
 3,-0.00000772,0.00000959,0.00305995,-0.00000048,0.00000059,0.00024370,
 0.00000034,-0.00000076,-0.00125004,-0.00000016,0.00000057,0.00024380,0
 .00000129,-0.00000323,-0.00398260,0.00011632,-0.00020529,0.02546566,-0
 .01176587,-0.00253818,-0.00000290,0.00069412,0.00327595,-0.00000407,0.
 00070331,-0.00000015,0.00000041,0.00069405,-0.00327565,0.00000014,-0.0
 1176854,0.00254007,-0.00000616,-0.33738339,0.00001554,-0.00009190,0.00
 091226,0.00030276,0.00000130,-0.00069000,-0.00019096,-0.00000016,-0.00
 007598,0.00000004,0.00000036,-0.00069021,0.00019098,-0.00000041,0.0009
 1207,-0.00030308,0.00000169,0.35845818,0.02886209,0.00479634,0.0000077
 0,0.00205953,-0.00476666,0.00000828,0.00000006,-0.00130575,0.00000043,
 -0.00205996,-0.00476637,0.00000702,-0.02885997,0.00479952,-0.00000993,
 0.00001557,-0.06016123,0.00001521,-0.00046571,0.00100615,-0.00000335,0
 .00152719,0.00008125,0.00000057,0.00000004,0.00021898,-0.00000094,-0.0
 0152710,0.00008142,-0.00000036,0.00046557,0.00100604,-0.00000306,-0.00
 001731,0.05901031,-0.00002307,-0.00000188,0.00306002,-0.00000329,0.000
 00865,0.00713801,0.00000041,0.00000043,-0.00063327,-0.00000065,0.00000
 665,0.00713768,0.00001402,-0.00000034,0.00305794,-0.00009191,0.0000151
 9,-0.03649379,0.00000180,-0.00000311,-0.00398120,-0.00000127,0.0000000
 5,0.00024380,0.00000036,-0.00000094,-0.00125006,0.00000070,0.00000016,
 0.00024373,0.00000119,-0.00000329,-0.00398151,0.00010171,-0.00002156,0
 .02545865\\-0.00000630,-0.00001270,0.00000005,0.00000347,-0.00001417,0
 .00000005,0.00001516,0.00000278,-0.00000006,0.00000629,0.00001270,0.00
 000004,-0.00000345,0.00001417,-0.00000010,-0.00001517,-0.00000276,0.00
 000003,-0.00004261,-0.00007238,0.,0.00004141,-0.00007304,0.00000005,0.
 00008393,-0.00000006,0.00000004,0.00004261,0.00007237,-0.00000003,-0.0
 0004140,0.00007303,-0.00000003,-0.00008393,0.00000006,-0.00000002\\\@


 REVOLUTIONS HAVE NEVER LIGHTENED THE BURDEN OF TYRANNY:
 THEY HAVE MERELY SHIFTED IT TO OTHER SHOULDERS.
                                   -- G. B. SHAW (1903)
 Job cpu time:       0 days  0 hours  1 minutes 25.1 seconds.
 Elapsed time:       0 days  0 hours  1 minutes 25.3 seconds.
 File lengths (MBytes):  RWF=     25 Int=      0 D2E=      0 Chk=      3 Scr=      1
 Normal termination of Gaussian 16 at Wed Mar 18 10:01:56 2026.
