%chk=f2.chk
#P B3LYP/6-31G* nosymm Density=Current

Single-Point F2

0 1
C       0.04328573    -0.15437457    -0.19174109
C      -0.54417609     0.33163057     2.45043639
H       0.25106034     1.65680809     0.93334648
H      -1.40916923     1.18782787     0.68719242
C      -0.50902883    -1.58093982    -0.19174109
C      -1.78344968    -0.52447524     2.72236714
C      -1.43180854    -1.72974374     3.35884552
C       0.54127306    -2.52108834    -0.21886689
C       1.81901798    -1.79963664    -0.21840993
C       0.02482997    -1.75573213     3.53255426
C       0.56540395    -0.56787867     2.99903032
C       1.55091672    -0.41797944    -0.19174109
C       2.59568753     0.49894714    -0.23540131
C       1.92965856    -0.31674264     3.10357251
C       3.91442932     0.03140878    -0.28171294
C       2.75639354    -1.26765869     3.71144147
C       2.22011898    -2.45425745     4.22215690
C       4.17971278    -1.34208073    -0.29097225
C       3.13358922    -2.26709481    -0.26353373
C       0.84933880    -2.70454755     4.14047906
H       0.43321030    -3.62115583     4.55108140
H       3.34464391    -3.33335632    -0.28030737
H       5.20808507    -1.69215232    -0.32686775
H       2.87465091    -3.18400379     4.69181796
H       4.73751574     0.74054206    -0.31458936
H       3.82449533    -1.08201471     3.78466868
H       2.40047482     1.56945306    -0.23527513
H       2.36035102     0.59808952     2.70763496
C       0.27226031    -3.88992607    -0.27756266
C      -2.41427375    -2.64842010     3.73265815
C      -1.05648222    -4.31550536    -0.32008758
C      -3.75361112    -2.34952850     3.47314974
C      -2.10003289    -3.38406873    -0.31385991
C      -4.10617477    -1.14465840     2.85608221
C      -3.11982716    -0.22470150     2.48069483
C      -1.82990043    -2.01258261    -0.25675094
H      -3.40616350     0.71190004     2.00656866
H      -2.65092968    -1.30175728    -0.24934456
H      -3.13041824    -3.72695016    -0.35173204
H      -5.15303480    -0.91920417     2.66990169
H      -1.28165234    -5.37794467    -0.36486225
H      -4.52880352    -3.05561742     3.75931916
H       1.08201691    -4.61504729    -0.29712212
H      -2.14600077    -3.58212272     4.22049400
C      -0.34149541     0.54266563    -1.52561989
H       0.02712734    -0.03058440    -2.38177687
H       0.08937410     1.54973265    -1.57751848
H      -1.42998151     0.63345450    -1.61623837
C      -0.42304565     0.79066762     0.96152195
C      -0.62787967     1.62179092     3.31172788
H      -1.45519659     2.25986285     2.97880901
H       0.29982397     2.20043709     3.23453682
H      -0.79056630     1.37398915     4.36515845


